    1C
    1UUSER                                                              
    1UDATE              13.september.2018                               
    1UTIME              18:00:29                                        
    1UHOST                                                              
    1UPGM               CalculiX                                        
    1UVERSION           Version 2.12                             
    1UCOMPILETIME       So 2. Apr 15:03:04 CEST 2017                    
    1UDIR                                                               
    1UDBN                                                               
    1UMAT    1SOLIDMATERIAL                                             
    2C                         10386                                     1
 -1         1 1.00000E+01 3.82980E+01-3.00000E+00
 -1         2 1.00000E+01 3.82980E+01 3.00000E+00
 -1         3 1.00000E+01 2.19209E+02 3.00000E+00
 -1         4 1.00000E+01 2.19209E+02-3.00000E+00
 -1         5 1.59373E+01 2.03819E+01-3.00000E+00
 -1         6 1.59373E+01 2.03819E+01 3.00000E+00
 -1         7 1.22754E+01 2.28474E+02-3.00000E+00
 -1         8 1.22754E+01 2.28474E+02 3.00000E+00
 -1         9-1.65065E+01 2.17536E+01-3.00000E+00
 -1        10-1.22754E+01 2.28474E+02-3.00000E+00
 -1        11-1.00000E+01 2.19209E+02-3.00000E+00
 -1        12-1.00000E+01 4.04090E+01-3.00000E+00
 -1        13-1.65065E+01 2.17536E+01 3.00000E+00
 -1        14-1.22754E+01 2.28474E+02 3.00000E+00
 -1        15-1.00000E+01 2.19209E+02 3.00000E+00
 -1        16-1.00000E+01 4.04090E+01 3.00000E+00
 -1        17-1.83970E+01-1.64210E+01-5.00000E+00
 -1        18-1.83970E+01-1.64210E+01 5.00000E+00
 -1        19 5.51000E+00-2.37300E+01 5.00000E+00
 -1        20 5.51000E+00-2.37300E+01-5.00000E+00
 -1        21-1.65000E+01 2.39500E+02-5.00000E+00
 -1        22-1.65000E+01 2.39500E+02 5.00000E+00
 -1        23-1.25500E+01 2.70500E+00-5.00000E+00
 -1        24-1.25500E+01 2.70500E+00 5.00000E+00
 -1        25 1.13580E+01-4.60400E+00-5.00000E+00
 -1        26 1.13580E+01-4.60400E+00 5.00000E+00
 -1        27 9.15100E+00 2.48651E+02-5.00000E+00
 -1        28 7.21700E+00 2.52000E+02-5.00000E+00
 -1        29 1.25000E+01 2.46717E+02-5.00000E+00
 -1        30 1.25000E+01 2.42849E+02-5.00000E+00
 -1        31 1.44340E+01 2.39500E+02-5.00000E+00
 -1        32 1.25000E+01 2.36151E+02-5.00000E+00
 -1        33 1.25000E+01 2.32283E+02-5.00000E+00
 -1        34 9.15100E+00 2.30349E+02-5.00000E+00
 -1        35 7.21700E+00 2.27000E+02-5.00000E+00
 -1        36 3.34900E+00 2.27000E+02-5.00000E+00
 -1        37-1.11022E-15 2.25066E+02-5.00000E+00
 -1        38-3.34900E+00 2.27000E+02-5.00000E+00
 -1        39-7.21700E+00 2.27000E+02-5.00000E+00
 -1        40-9.15100E+00 2.30349E+02-5.00000E+00
 -1        41-1.25000E+01 2.32283E+02-5.00000E+00
 -1        42-1.25000E+01 2.36151E+02-5.00000E+00
 -1        43-1.44340E+01 2.39500E+02-5.00000E+00
 -1        44-1.25000E+01 2.42849E+02-5.00000E+00
 -1        45-1.25000E+01 2.46717E+02-5.00000E+00
 -1        46-9.15100E+00 2.48651E+02-5.00000E+00
 -1        47-7.21700E+00 2.52000E+02-5.00000E+00
 -1        48-3.34900E+00 2.52000E+02-5.00000E+00
 -1        49-1.11022E-15 2.53934E+02-5.00000E+00
 -1        50 3.34900E+00 2.52000E+02-5.00000E+00
 -1        51-1.44340E+01 2.39500E+02 5.00000E+00
 -1        52-1.25000E+01 2.36151E+02 5.00000E+00
 -1        53-1.25000E+01 2.42849E+02 5.00000E+00
 -1        54-1.25000E+01 2.46717E+02 5.00000E+00
 -1        55-9.15100E+00 2.48651E+02 5.00000E+00
 -1        56-7.21700E+00 2.52000E+02 5.00000E+00
 -1        57-3.34900E+00 2.52000E+02 5.00000E+00
 -1        58 1.11022E-15 2.53934E+02 5.00000E+00
 -1        59 3.34900E+00 2.52000E+02 5.00000E+00
 -1        60 7.21700E+00 2.52000E+02 5.00000E+00
 -1        61 9.15100E+00 2.48651E+02 5.00000E+00
 -1        62 1.25000E+01 2.46717E+02 5.00000E+00
 -1        63 1.25000E+01 2.42849E+02 5.00000E+00
 -1        64 1.44340E+01 2.39500E+02 5.00000E+00
 -1        65 1.25000E+01 2.36151E+02 5.00000E+00
 -1        66 1.25000E+01 2.32283E+02 5.00000E+00
 -1        67 9.15100E+00 2.30349E+02 5.00000E+00
 -1        68 7.21700E+00 2.27000E+02 5.00000E+00
 -1        69 3.34900E+00 2.27000E+02 5.00000E+00
 -1        70 1.11022E-15 2.25066E+02 5.00000E+00
 -1        71-3.34900E+00 2.27000E+02 5.00000E+00
 -1        72-7.21700E+00 2.27000E+02 5.00000E+00
 -1        73-9.15100E+00 2.30349E+02 5.00000E+00
 -1        74-1.25000E+01 2.32283E+02 5.00000E+00
 -1        75 1.00000E+01 3.82980E+01 0.00000E+00
 -1        76 1.00000E+01 3.82980E+01-1.50000E+00
 -1        77 1.00000E+01 3.82980E+01 1.50000E+00
 -1        78 1.00000E+01 4.22308E+01 3.00000E+00
 -1        79 1.00000E+01 4.61637E+01 3.00000E+00
 -1        80 1.00000E+01 5.00965E+01 3.00000E+00
 -1        81 1.00000E+01 5.40294E+01 3.00000E+00
 -1        82 1.00000E+01 5.79622E+01 3.00000E+00
 -1        83 1.00000E+01 6.18951E+01 3.00000E+00
 -1        84 1.00000E+01 6.58279E+01 3.00000E+00
 -1        85 1.00000E+01 6.97608E+01 3.00000E+00
 -1        86 1.00000E+01 7.36936E+01 3.00000E+00
 -1        87 1.00000E+01 7.76265E+01 3.00000E+00
 -1        88 1.00000E+01 8.15593E+01 3.00000E+00
 -1        89 1.00000E+01 8.54922E+01 3.00000E+00
 -1        90 1.00000E+01 8.94250E+01 3.00000E+00
 -1        91 1.00000E+01 9.33579E+01 3.00000E+00
 -1        92 1.00000E+01 9.72907E+01 3.00000E+00
 -1        93 1.00000E+01 1.01224E+02 3.00000E+00
 -1        94 1.00000E+01 1.05156E+02 3.00000E+00
 -1        95 1.00000E+01 1.09089E+02 3.00000E+00
 -1        96 1.00000E+01 1.13022E+02 3.00000E+00
 -1        97 1.00000E+01 1.16955E+02 3.00000E+00
 -1        98 1.00000E+01 1.20888E+02 3.00000E+00
 -1        99 1.00000E+01 1.24821E+02 3.00000E+00
 -1       100 1.00000E+01 1.28753E+02 3.00000E+00
 -1       101 1.00000E+01 1.32686E+02 3.00000E+00
 -1       102 1.00000E+01 1.36619E+02 3.00000E+00
 -1       103 1.00000E+01 1.40552E+02 3.00000E+00
 -1       104 1.00000E+01 1.44485E+02 3.00000E+00
 -1       105 1.00000E+01 1.48418E+02 3.00000E+00
 -1       106 1.00000E+01 1.52351E+02 3.00000E+00
 -1       107 1.00000E+01 1.56283E+02 3.00000E+00
 -1       108 1.00000E+01 1.60216E+02 3.00000E+00
 -1       109 1.00000E+01 1.64149E+02 3.00000E+00
 -1       110 1.00000E+01 1.68082E+02 3.00000E+00
 -1       111 1.00000E+01 1.72015E+02 3.00000E+00
 -1       112 1.00000E+01 1.75948E+02 3.00000E+00
 -1       113 1.00000E+01 1.79881E+02 3.00000E+00
 -1       114 1.00000E+01 1.83813E+02 3.00000E+00
 -1       115 1.00000E+01 1.87746E+02 3.00000E+00
 -1       116 1.00000E+01 1.91679E+02 3.00000E+00
 -1       117 1.00000E+01 1.95612E+02 3.00000E+00
 -1       118 1.00000E+01 1.99545E+02 3.00000E+00
 -1       119 1.00000E+01 2.03478E+02 3.00000E+00
 -1       120 1.00000E+01 2.07410E+02 3.00000E+00
 -1       121 1.00000E+01 2.11343E+02 3.00000E+00
 -1       122 1.00000E+01 2.15276E+02 3.00000E+00
 -1       123 1.00000E+01 4.02644E+01 3.00000E+00
 -1       124 1.00000E+01 4.41973E+01 3.00000E+00
 -1       125 1.00000E+01 4.81301E+01 3.00000E+00
 -1       126 1.00000E+01 5.20630E+01 3.00000E+00
 -1       127 1.00000E+01 5.59958E+01 3.00000E+00
 -1       128 1.00000E+01 5.99287E+01 3.00000E+00
 -1       129 1.00000E+01 6.38615E+01 3.00000E+00
 -1       130 1.00000E+01 6.77944E+01 3.00000E+00
 -1       131 1.00000E+01 7.17272E+01 3.00000E+00
 -1       132 1.00000E+01 7.56601E+01 3.00000E+00
 -1       133 1.00000E+01 7.95929E+01 3.00000E+00
 -1       134 1.00000E+01 8.35257E+01 3.00000E+00
 -1       135 1.00000E+01 8.74586E+01 3.00000E+00
 -1       136 1.00000E+01 9.13914E+01 3.00000E+00
 -1       137 1.00000E+01 9.53243E+01 3.00000E+00
 -1       138 1.00000E+01 9.92571E+01 3.00000E+00
 -1       139 1.00000E+01 1.03190E+02 3.00000E+00
 -1       140 1.00000E+01 1.07123E+02 3.00000E+00
 -1       141 1.00000E+01 1.11056E+02 3.00000E+00
 -1       142 1.00000E+01 1.14989E+02 3.00000E+00
 -1       143 1.00000E+01 1.18921E+02 3.00000E+00
 -1       144 1.00000E+01 1.22854E+02 3.00000E+00
 -1       145 1.00000E+01 1.26787E+02 3.00000E+00
 -1       146 1.00000E+01 1.30720E+02 3.00000E+00
 -1       147 1.00000E+01 1.34653E+02 3.00000E+00
 -1       148 1.00000E+01 1.38586E+02 3.00000E+00
 -1       149 1.00000E+01 1.42518E+02 3.00000E+00
 -1       150 1.00000E+01 1.46451E+02 3.00000E+00
 -1       151 1.00000E+01 1.50384E+02 3.00000E+00
 -1       152 1.00000E+01 1.54317E+02 3.00000E+00
 -1       153 1.00000E+01 1.58250E+02 3.00000E+00
 -1       154 1.00000E+01 1.62183E+02 3.00000E+00
 -1       155 1.00000E+01 1.66116E+02 3.00000E+00
 -1       156 1.00000E+01 1.70048E+02 3.00000E+00
 -1       157 1.00000E+01 1.73981E+02 3.00000E+00
 -1       158 1.00000E+01 1.77914E+02 3.00000E+00
 -1       159 1.00000E+01 1.81847E+02 3.00000E+00
 -1       160 1.00000E+01 1.85780E+02 3.00000E+00
 -1       161 1.00000E+01 1.89713E+02 3.00000E+00
 -1       162 1.00000E+01 1.93645E+02 3.00000E+00
 -1       163 1.00000E+01 1.97578E+02 3.00000E+00
 -1       164 1.00000E+01 2.01511E+02 3.00000E+00
 -1       165 1.00000E+01 2.05444E+02 3.00000E+00
 -1       166 1.00000E+01 2.09377E+02 3.00000E+00
 -1       167 1.00000E+01 2.13310E+02 3.00000E+00
 -1       168 1.00000E+01 2.17243E+02 3.00000E+00
 -1       169 1.00000E+01 2.19209E+02 0.00000E+00
 -1       170 1.00000E+01 2.19209E+02-1.50000E+00
 -1       171 1.00000E+01 2.19209E+02 1.50000E+00
 -1       172 1.00000E+01 4.22308E+01-3.00000E+00
 -1       173 1.00000E+01 4.61637E+01-3.00000E+00
 -1       174 1.00000E+01 5.00965E+01-3.00000E+00
 -1       175 1.00000E+01 5.40294E+01-3.00000E+00
 -1       176 1.00000E+01 5.79622E+01-3.00000E+00
 -1       177 1.00000E+01 6.18951E+01-3.00000E+00
 -1       178 1.00000E+01 6.58279E+01-3.00000E+00
 -1       179 1.00000E+01 6.97608E+01-3.00000E+00
 -1       180 1.00000E+01 7.36936E+01-3.00000E+00
 -1       181 1.00000E+01 7.76265E+01-3.00000E+00
 -1       182 1.00000E+01 8.15593E+01-3.00000E+00
 -1       183 1.00000E+01 8.54922E+01-3.00000E+00
 -1       184 1.00000E+01 8.94250E+01-3.00000E+00
 -1       185 1.00000E+01 9.33579E+01-3.00000E+00
 -1       186 1.00000E+01 9.72907E+01-3.00000E+00
 -1       187 1.00000E+01 1.01224E+02-3.00000E+00
 -1       188 1.00000E+01 1.05156E+02-3.00000E+00
 -1       189 1.00000E+01 1.09089E+02-3.00000E+00
 -1       190 1.00000E+01 1.13022E+02-3.00000E+00
 -1       191 1.00000E+01 1.16955E+02-3.00000E+00
 -1       192 1.00000E+01 1.20888E+02-3.00000E+00
 -1       193 1.00000E+01 1.24821E+02-3.00000E+00
 -1       194 1.00000E+01 1.28753E+02-3.00000E+00
 -1       195 1.00000E+01 1.32686E+02-3.00000E+00
 -1       196 1.00000E+01 1.36619E+02-3.00000E+00
 -1       197 1.00000E+01 1.40552E+02-3.00000E+00
 -1       198 1.00000E+01 1.44485E+02-3.00000E+00
 -1       199 1.00000E+01 1.48418E+02-3.00000E+00
 -1       200 1.00000E+01 1.52351E+02-3.00000E+00
 -1       201 1.00000E+01 1.56283E+02-3.00000E+00
 -1       202 1.00000E+01 1.60216E+02-3.00000E+00
 -1       203 1.00000E+01 1.64149E+02-3.00000E+00
 -1       204 1.00000E+01 1.68082E+02-3.00000E+00
 -1       205 1.00000E+01 1.72015E+02-3.00000E+00
 -1       206 1.00000E+01 1.75948E+02-3.00000E+00
 -1       207 1.00000E+01 1.79881E+02-3.00000E+00
 -1       208 1.00000E+01 1.83813E+02-3.00000E+00
 -1       209 1.00000E+01 1.87746E+02-3.00000E+00
 -1       210 1.00000E+01 1.91679E+02-3.00000E+00
 -1       211 1.00000E+01 1.95612E+02-3.00000E+00
 -1       212 1.00000E+01 1.99545E+02-3.00000E+00
 -1       213 1.00000E+01 2.03478E+02-3.00000E+00
 -1       214 1.00000E+01 2.07410E+02-3.00000E+00
 -1       215 1.00000E+01 2.11343E+02-3.00000E+00
 -1       216 1.00000E+01 2.15276E+02-3.00000E+00
 -1       217 1.00000E+01 4.02644E+01-3.00000E+00
 -1       218 1.00000E+01 4.41973E+01-3.00000E+00
 -1       219 1.00000E+01 4.81301E+01-3.00000E+00
 -1       220 1.00000E+01 5.20630E+01-3.00000E+00
 -1       221 1.00000E+01 5.59958E+01-3.00000E+00
 -1       222 1.00000E+01 5.99287E+01-3.00000E+00
 -1       223 1.00000E+01 6.38615E+01-3.00000E+00
 -1       224 1.00000E+01 6.77944E+01-3.00000E+00
 -1       225 1.00000E+01 7.17272E+01-3.00000E+00
 -1       226 1.00000E+01 7.56601E+01-3.00000E+00
 -1       227 1.00000E+01 7.95929E+01-3.00000E+00
 -1       228 1.00000E+01 8.35257E+01-3.00000E+00
 -1       229 1.00000E+01 8.74586E+01-3.00000E+00
 -1       230 1.00000E+01 9.13914E+01-3.00000E+00
 -1       231 1.00000E+01 9.53243E+01-3.00000E+00
 -1       232 1.00000E+01 9.92571E+01-3.00000E+00
 -1       233 1.00000E+01 1.03190E+02-3.00000E+00
 -1       234 1.00000E+01 1.07123E+02-3.00000E+00
 -1       235 1.00000E+01 1.11056E+02-3.00000E+00
 -1       236 1.00000E+01 1.14989E+02-3.00000E+00
 -1       237 1.00000E+01 1.18921E+02-3.00000E+00
 -1       238 1.00000E+01 1.22854E+02-3.00000E+00
 -1       239 1.00000E+01 1.26787E+02-3.00000E+00
 -1       240 1.00000E+01 1.30720E+02-3.00000E+00
 -1       241 1.00000E+01 1.34653E+02-3.00000E+00
 -1       242 1.00000E+01 1.38586E+02-3.00000E+00
 -1       243 1.00000E+01 1.42518E+02-3.00000E+00
 -1       244 1.00000E+01 1.46451E+02-3.00000E+00
 -1       245 1.00000E+01 1.50384E+02-3.00000E+00
 -1       246 1.00000E+01 1.54317E+02-3.00000E+00
 -1       247 1.00000E+01 1.58250E+02-3.00000E+00
 -1       248 1.00000E+01 1.62183E+02-3.00000E+00
 -1       249 1.00000E+01 1.66116E+02-3.00000E+00
 -1       250 1.00000E+01 1.70048E+02-3.00000E+00
 -1       251 1.00000E+01 1.73981E+02-3.00000E+00
 -1       252 1.00000E+01 1.77914E+02-3.00000E+00
 -1       253 1.00000E+01 1.81847E+02-3.00000E+00
 -1       254 1.00000E+01 1.85780E+02-3.00000E+00
 -1       255 1.00000E+01 1.89713E+02-3.00000E+00
 -1       256 1.00000E+01 1.93645E+02-3.00000E+00
 -1       257 1.00000E+01 1.97578E+02-3.00000E+00
 -1       258 1.00000E+01 2.01511E+02-3.00000E+00
 -1       259 1.00000E+01 2.05444E+02-3.00000E+00
 -1       260 1.00000E+01 2.09377E+02-3.00000E+00
 -1       261 1.00000E+01 2.13310E+02-3.00000E+00
 -1       262 1.00000E+01 2.17243E+02-3.00000E+00
 -1       263 1.38468E+01 2.35999E+01-3.00000E+00
 -1       264 1.21848E+01 2.70588E+01-3.00000E+00
 -1       265 1.09778E+01 3.07015E+01-3.00000E+00
 -1       266 1.02456E+01 3.44685E+01-3.00000E+00
 -1       267 1.48405E+01 2.19575E+01-3.00000E+00
 -1       268 1.29606E+01 2.53029E+01-3.00000E+00
 -1       269 1.15228E+01 2.88608E+01-3.00000E+00
 -1       270 1.05516E+01 3.25733E+01-3.00000E+00
 -1       271 1.00609E+01 3.63793E+01-3.00000E+00
 -1       272 1.59373E+01 2.03819E+01-1.24708E-13
 -1       273 1.59373E+01 2.03819E+01 1.50000E+00
 -1       274 1.59373E+01 2.03819E+01-1.50000E+00
 -1       275 1.38468E+01 2.35999E+01 3.00000E+00
 -1       276 1.21848E+01 2.70588E+01 3.00000E+00
 -1       277 1.09778E+01 3.07015E+01 3.00000E+00
 -1       278 1.02456E+01 3.44685E+01 3.00000E+00
 -1       279 1.48405E+01 2.19575E+01 3.00000E+00
 -1       280 1.29606E+01 2.53029E+01 3.00000E+00
 -1       281 1.15228E+01 2.88608E+01 3.00000E+00
 -1       282 1.05516E+01 3.25733E+01 3.00000E+00
 -1       283 1.00609E+01 3.63793E+01 3.00000E+00
 -1       284 1.02571E+01 2.22406E+02-3.00000E+00
 -1       285 1.10219E+01 2.25522E+02-3.00000E+00
 -1       286 1.00645E+01 2.20813E+02-3.00000E+00
 -1       287 1.05773E+01 2.23979E+02-3.00000E+00
 -1       288 1.15896E+01 2.27023E+02-3.00000E+00
 -1       289 1.02571E+01 2.22406E+02 3.00000E+00
 -1       290 1.10219E+01 2.25522E+02 3.00000E+00
 -1       291 1.00645E+01 2.20813E+02 3.00000E+00
 -1       292 1.05773E+01 2.23979E+02 3.00000E+00
 -1       293 1.15896E+01 2.27023E+02 3.00000E+00
 -1       294 1.22754E+01 2.28474E+02-2.75995E-15
 -1       295 1.22754E+01 2.28474E+02 1.50000E+00
 -1       296 1.22754E+01 2.28474E+02-1.50000E+00
 -1       297 1.26893E+01 2.23949E+01-3.00000E+00
 -1       298 9.21302E+00 2.39818E+01-3.00000E+00
 -1       299 5.56512E+00 2.51201E+01-3.00000E+00
 -1       300 1.80371E+00 2.57940E+01-3.00000E+00
 -1       301-2.01266E+00 2.59875E+01-3.00000E+00
 -1       302-5.82195E+00 2.56867E+01-3.00000E+00
 -1       303-9.55716E+00 2.48820E+01-3.00000E+00
 -1       304-1.31453E+01 2.35695E+01-3.00000E+00
 -1       305 1.43456E+01 2.14405E+01-3.00000E+00
 -1       306 1.09763E+01 2.32434E+01-3.00000E+00
 -1       307 7.40677E+00 2.46077E+01-3.00000E+00
 -1       308 3.69510E+00 2.55167E+01-3.00000E+00
 -1       309-1.01402E-01 2.59515E+01-3.00000E+00
 -1       310-3.92222E+00 2.58993E+01-3.00000E+00
 -1       311-7.70320E+00 2.53477E+01-3.00000E+00
 -1       312-1.13744E+01 2.42891E+01-3.00000E+00
 -1       313-1.48597E+01 2.27241E+01-3.00000E+00
 -1       314 9.30672E+00 2.25875E+02-3.00000E+00
 -1       315 5.80580E+00 2.24055E+02-3.00000E+00
 -1       316 1.97287E+00 2.23118E+02-3.00000E+00
 -1       317-1.97287E+00 2.23118E+02-3.00000E+00
 -1       318-5.80580E+00 2.24055E+02-3.00000E+00
 -1       319-9.30672E+00 2.25875E+02-3.00000E+00
 -1       320 1.08690E+01 2.27086E+02-3.00000E+00
 -1       321 7.61086E+00 2.24860E+02-3.00000E+00
 -1       322 3.91744E+00 2.23472E+02-3.00000E+00
 -1       323 3.39873E-13 2.23000E+02-3.00000E+00
 -1       324-3.91744E+00 2.23472E+02-3.00000E+00
 -1       325-7.61086E+00 2.24860E+02-3.00000E+00
 -1       326-1.08690E+01 2.27086E+02-3.00000E+00
 -1       327-1.10219E+01 2.25522E+02-3.00000E+00
 -1       328-1.02571E+01 2.22406E+02-3.00000E+00
 -1       329-1.15896E+01 2.27023E+02-3.00000E+00
 -1       330-1.05773E+01 2.23979E+02-3.00000E+00
 -1       331-1.00645E+01 2.20813E+02-3.00000E+00
 -1       332-1.00000E+01 2.15236E+02-3.00000E+00
 -1       333-1.00000E+01 2.11262E+02-3.00000E+00
 -1       334-1.00000E+01 2.07289E+02-3.00000E+00
 -1       335-1.00000E+01 2.03316E+02-3.00000E+00
 -1       336-1.00000E+01 1.99342E+02-3.00000E+00
 -1       337-1.00000E+01 1.95369E+02-3.00000E+00
 -1       338-1.00000E+01 1.91396E+02-3.00000E+00
 -1       339-1.00000E+01 1.87422E+02-3.00000E+00
 -1       340-1.00000E+01 1.83449E+02-3.00000E+00
 -1       341-1.00000E+01 1.79476E+02-3.00000E+00
 -1       342-1.00000E+01 1.75502E+02-3.00000E+00
 -1       343-1.00000E+01 1.71529E+02-3.00000E+00
 -1       344-1.00000E+01 1.67556E+02-3.00000E+00
 -1       345-1.00000E+01 1.63582E+02-3.00000E+00
 -1       346-1.00000E+01 1.59609E+02-3.00000E+00
 -1       347-1.00000E+01 1.55636E+02-3.00000E+00
 -1       348-1.00000E+01 1.51662E+02-3.00000E+00
 -1       349-1.00000E+01 1.47689E+02-3.00000E+00
 -1       350-1.00000E+01 1.43716E+02-3.00000E+00
 -1       351-1.00000E+01 1.39742E+02-3.00000E+00
 -1       352-1.00000E+01 1.35769E+02-3.00000E+00
 -1       353-1.00000E+01 1.31796E+02-3.00000E+00
 -1       354-1.00000E+01 1.27822E+02-3.00000E+00
 -1       355-1.00000E+01 1.23849E+02-3.00000E+00
 -1       356-1.00000E+01 1.19876E+02-3.00000E+00
 -1       357-1.00000E+01 1.15902E+02-3.00000E+00
 -1       358-1.00000E+01 1.11929E+02-3.00000E+00
 -1       359-1.00000E+01 1.07956E+02-3.00000E+00
 -1       360-1.00000E+01 1.03982E+02-3.00000E+00
 -1       361-1.00000E+01 1.00009E+02-3.00000E+00
 -1       362-1.00000E+01 9.60357E+01-3.00000E+00
 -1       363-1.00000E+01 9.20623E+01-3.00000E+00
 -1       364-1.00000E+01 8.80890E+01-3.00000E+00
 -1       365-1.00000E+01 8.41157E+01-3.00000E+00
 -1       366-1.00000E+01 8.01423E+01-3.00000E+00
 -1       367-1.00000E+01 7.61690E+01-3.00000E+00
 -1       368-1.00000E+01 7.21957E+01-3.00000E+00
 -1       369-1.00000E+01 6.82223E+01-3.00000E+00
 -1       370-1.00000E+01 6.42490E+01-3.00000E+00
 -1       371-1.00000E+01 6.02757E+01-3.00000E+00
 -1       372-1.00000E+01 5.63023E+01-3.00000E+00
 -1       373-1.00000E+01 5.23290E+01-3.00000E+00
 -1       374-1.00000E+01 4.83557E+01-3.00000E+00
 -1       375-1.00000E+01 4.43823E+01-3.00000E+00
 -1       376-1.00000E+01 2.17222E+02-3.00000E+00
 -1       377-1.00000E+01 2.13249E+02-3.00000E+00
 -1       378-1.00000E+01 2.09276E+02-3.00000E+00
 -1       379-1.00000E+01 2.05302E+02-3.00000E+00
 -1       380-1.00000E+01 2.01329E+02-3.00000E+00
 -1       381-1.00000E+01 1.97356E+02-3.00000E+00
 -1       382-1.00000E+01 1.93382E+02-3.00000E+00
 -1       383-1.00000E+01 1.89409E+02-3.00000E+00
 -1       384-1.00000E+01 1.85436E+02-3.00000E+00
 -1       385-1.00000E+01 1.81462E+02-3.00000E+00
 -1       386-1.00000E+01 1.77489E+02-3.00000E+00
 -1       387-1.00000E+01 1.73516E+02-3.00000E+00
 -1       388-1.00000E+01 1.69542E+02-3.00000E+00
 -1       389-1.00000E+01 1.65569E+02-3.00000E+00
 -1       390-1.00000E+01 1.61596E+02-3.00000E+00
 -1       391-1.00000E+01 1.57622E+02-3.00000E+00
 -1       392-1.00000E+01 1.53649E+02-3.00000E+00
 -1       393-1.00000E+01 1.49676E+02-3.00000E+00
 -1       394-1.00000E+01 1.45702E+02-3.00000E+00
 -1       395-1.00000E+01 1.41729E+02-3.00000E+00
 -1       396-1.00000E+01 1.37756E+02-3.00000E+00
 -1       397-1.00000E+01 1.33782E+02-3.00000E+00
 -1       398-1.00000E+01 1.29809E+02-3.00000E+00
 -1       399-1.00000E+01 1.25836E+02-3.00000E+00
 -1       400-1.00000E+01 1.21862E+02-3.00000E+00
 -1       401-1.00000E+01 1.17889E+02-3.00000E+00
 -1       402-1.00000E+01 1.13916E+02-3.00000E+00
 -1       403-1.00000E+01 1.09942E+02-3.00000E+00
 -1       404-1.00000E+01 1.05969E+02-3.00000E+00
 -1       405-1.00000E+01 1.01996E+02-3.00000E+00
 -1       406-1.00000E+01 9.80223E+01-3.00000E+00
 -1       407-1.00000E+01 9.40490E+01-3.00000E+00
 -1       408-1.00000E+01 9.00757E+01-3.00000E+00
 -1       409-1.00000E+01 8.61023E+01-3.00000E+00
 -1       410-1.00000E+01 8.21290E+01-3.00000E+00
 -1       411-1.00000E+01 7.81557E+01-3.00000E+00
 -1       412-1.00000E+01 7.41823E+01-3.00000E+00
 -1       413-1.00000E+01 7.02090E+01-3.00000E+00
 -1       414-1.00000E+01 6.62357E+01-3.00000E+00
 -1       415-1.00000E+01 6.22623E+01-3.00000E+00
 -1       416-1.00000E+01 5.82890E+01-3.00000E+00
 -1       417-1.00000E+01 5.43157E+01-3.00000E+00
 -1       418-1.00000E+01 5.03423E+01-3.00000E+00
 -1       419-1.00000E+01 4.63690E+01-3.00000E+00
 -1       420-1.00000E+01 4.23957E+01-3.00000E+00
 -1       421-1.01875E+01 3.70605E+01-3.00000E+00
 -1       422-1.07480E+01 3.37538E+01-3.00000E+00
 -1       423-1.16737E+01 3.05303E+01-3.00000E+00
 -1       424-1.29528E+01 2.74301E+01-3.00000E+00
 -1       425-1.45704E+01 2.44921E+01-3.00000E+00
 -1       426-1.00468E+01 3.87321E+01-3.00000E+00
 -1       427-1.04217E+01 3.53993E+01-3.00000E+00
 -1       428-1.11652E+01 3.21290E+01-3.00000E+00
 -1       429-1.22698E+01 2.89623E+01-3.00000E+00
 -1       430-1.37207E+01 2.59386E+01-3.00000E+00
 -1       431-1.55003E+01 2.30959E+01-3.00000E+00
 -1       432 1.26893E+01 2.23949E+01 3.00000E+00
 -1       433 9.21302E+00 2.39818E+01 3.00000E+00
 -1       434 5.56512E+00 2.51201E+01 3.00000E+00
 -1       435 1.80371E+00 2.57940E+01 3.00000E+00
 -1       436-2.01266E+00 2.59875E+01 3.00000E+00
 -1       437-5.82195E+00 2.56867E+01 3.00000E+00
 -1       438-9.55716E+00 2.48820E+01 3.00000E+00
 -1       439-1.31453E+01 2.35695E+01 3.00000E+00
 -1       440 1.43456E+01 2.14405E+01 3.00000E+00
 -1       441 1.09763E+01 2.32434E+01 3.00000E+00
 -1       442 7.40677E+00 2.46077E+01 3.00000E+00
 -1       443 3.69510E+00 2.55167E+01 3.00000E+00
 -1       444-1.01402E-01 2.59515E+01 3.00000E+00
 -1       445-3.92222E+00 2.58993E+01 3.00000E+00
 -1       446-7.70320E+00 2.53477E+01 3.00000E+00
 -1       447-1.13744E+01 2.42891E+01 3.00000E+00
 -1       448-1.48597E+01 2.27241E+01 3.00000E+00
 -1       449 9.30672E+00 2.25875E+02 3.00000E+00
 -1       450 5.80580E+00 2.24055E+02 3.00000E+00
 -1       451 1.97287E+00 2.23118E+02 3.00000E+00
 -1       452-1.97287E+00 2.23118E+02 3.00000E+00
 -1       453-5.80580E+00 2.24055E+02 3.00000E+00
 -1       454-9.30672E+00 2.25875E+02 3.00000E+00
 -1       455 1.08690E+01 2.27086E+02 3.00000E+00
 -1       456 7.61086E+00 2.24860E+02 3.00000E+00
 -1       457 3.91744E+00 2.23472E+02 3.00000E+00
 -1       458 3.42537E-13 2.23000E+02 3.00000E+00
 -1       459-3.91744E+00 2.23472E+02 3.00000E+00
 -1       460-7.61086E+00 2.24860E+02 3.00000E+00
 -1       461-1.08690E+01 2.27086E+02 3.00000E+00
 -1       462-1.10219E+01 2.25522E+02 3.00000E+00
 -1       463-1.02571E+01 2.22406E+02 3.00000E+00
 -1       464-1.15896E+01 2.27023E+02 3.00000E+00
 -1       465-1.05773E+01 2.23979E+02 3.00000E+00
 -1       466-1.00645E+01 2.20813E+02 3.00000E+00
 -1       467-1.00000E+01 2.15236E+02 3.00000E+00
 -1       468-1.00000E+01 2.11262E+02 3.00000E+00
 -1       469-1.00000E+01 2.07289E+02 3.00000E+00
 -1       470-1.00000E+01 2.03316E+02 3.00000E+00
 -1       471-1.00000E+01 1.99342E+02 3.00000E+00
 -1       472-1.00000E+01 1.95369E+02 3.00000E+00
 -1       473-1.00000E+01 1.91396E+02 3.00000E+00
 -1       474-1.00000E+01 1.87422E+02 3.00000E+00
 -1       475-1.00000E+01 1.83449E+02 3.00000E+00
 -1       476-1.00000E+01 1.79476E+02 3.00000E+00
 -1       477-1.00000E+01 1.75502E+02 3.00000E+00
 -1       478-1.00000E+01 1.71529E+02 3.00000E+00
 -1       479-1.00000E+01 1.67556E+02 3.00000E+00
 -1       480-1.00000E+01 1.63582E+02 3.00000E+00
 -1       481-1.00000E+01 1.59609E+02 3.00000E+00
 -1       482-1.00000E+01 1.55636E+02 3.00000E+00
 -1       483-1.00000E+01 1.51662E+02 3.00000E+00
 -1       484-1.00000E+01 1.47689E+02 3.00000E+00
 -1       485-1.00000E+01 1.43716E+02 3.00000E+00
 -1       486-1.00000E+01 1.39742E+02 3.00000E+00
 -1       487-1.00000E+01 1.35769E+02 3.00000E+00
 -1       488-1.00000E+01 1.31796E+02 3.00000E+00
 -1       489-1.00000E+01 1.27822E+02 3.00000E+00
 -1       490-1.00000E+01 1.23849E+02 3.00000E+00
 -1       491-1.00000E+01 1.19876E+02 3.00000E+00
 -1       492-1.00000E+01 1.15902E+02 3.00000E+00
 -1       493-1.00000E+01 1.11929E+02 3.00000E+00
 -1       494-1.00000E+01 1.07956E+02 3.00000E+00
 -1       495-1.00000E+01 1.03982E+02 3.00000E+00
 -1       496-1.00000E+01 1.00009E+02 3.00000E+00
 -1       497-1.00000E+01 9.60357E+01 3.00000E+00
 -1       498-1.00000E+01 9.20623E+01 3.00000E+00
 -1       499-1.00000E+01 8.80890E+01 3.00000E+00
 -1       500-1.00000E+01 8.41157E+01 3.00000E+00
 -1       501-1.00000E+01 8.01423E+01 3.00000E+00
 -1       502-1.00000E+01 7.61690E+01 3.00000E+00
 -1       503-1.00000E+01 7.21957E+01 3.00000E+00
 -1       504-1.00000E+01 6.82223E+01 3.00000E+00
 -1       505-1.00000E+01 6.42490E+01 3.00000E+00
 -1       506-1.00000E+01 6.02757E+01 3.00000E+00
 -1       507-1.00000E+01 5.63023E+01 3.00000E+00
 -1       508-1.00000E+01 5.23290E+01 3.00000E+00
 -1       509-1.00000E+01 4.83557E+01 3.00000E+00
 -1       510-1.00000E+01 4.43823E+01 3.00000E+00
 -1       511-1.00000E+01 2.17222E+02 3.00000E+00
 -1       512-1.00000E+01 2.13249E+02 3.00000E+00
 -1       513-1.00000E+01 2.09276E+02 3.00000E+00
 -1       514-1.00000E+01 2.05302E+02 3.00000E+00
 -1       515-1.00000E+01 2.01329E+02 3.00000E+00
 -1       516-1.00000E+01 1.97356E+02 3.00000E+00
 -1       517-1.00000E+01 1.93382E+02 3.00000E+00
 -1       518-1.00000E+01 1.89409E+02 3.00000E+00
 -1       519-1.00000E+01 1.85436E+02 3.00000E+00
 -1       520-1.00000E+01 1.81462E+02 3.00000E+00
 -1       521-1.00000E+01 1.77489E+02 3.00000E+00
 -1       522-1.00000E+01 1.73516E+02 3.00000E+00
 -1       523-1.00000E+01 1.69542E+02 3.00000E+00
 -1       524-1.00000E+01 1.65569E+02 3.00000E+00
 -1       525-1.00000E+01 1.61596E+02 3.00000E+00
 -1       526-1.00000E+01 1.57622E+02 3.00000E+00
 -1       527-1.00000E+01 1.53649E+02 3.00000E+00
 -1       528-1.00000E+01 1.49676E+02 3.00000E+00
 -1       529-1.00000E+01 1.45702E+02 3.00000E+00
 -1       530-1.00000E+01 1.41729E+02 3.00000E+00
 -1       531-1.00000E+01 1.37756E+02 3.00000E+00
 -1       532-1.00000E+01 1.33782E+02 3.00000E+00
 -1       533-1.00000E+01 1.29809E+02 3.00000E+00
 -1       534-1.00000E+01 1.25836E+02 3.00000E+00
 -1       535-1.00000E+01 1.21862E+02 3.00000E+00
 -1       536-1.00000E+01 1.17889E+02 3.00000E+00
 -1       537-1.00000E+01 1.13916E+02 3.00000E+00
 -1       538-1.00000E+01 1.09942E+02 3.00000E+00
 -1       539-1.00000E+01 1.05969E+02 3.00000E+00
 -1       540-1.00000E+01 1.01996E+02 3.00000E+00
 -1       541-1.00000E+01 9.80223E+01 3.00000E+00
 -1       542-1.00000E+01 9.40490E+01 3.00000E+00
 -1       543-1.00000E+01 9.00757E+01 3.00000E+00
 -1       544-1.00000E+01 8.61023E+01 3.00000E+00
 -1       545-1.00000E+01 8.21290E+01 3.00000E+00
 -1       546-1.00000E+01 7.81557E+01 3.00000E+00
 -1       547-1.00000E+01 7.41823E+01 3.00000E+00
 -1       548-1.00000E+01 7.02090E+01 3.00000E+00
 -1       549-1.00000E+01 6.62357E+01 3.00000E+00
 -1       550-1.00000E+01 6.22623E+01 3.00000E+00
 -1       551-1.00000E+01 5.82890E+01 3.00000E+00
 -1       552-1.00000E+01 5.43157E+01 3.00000E+00
 -1       553-1.00000E+01 5.03423E+01 3.00000E+00
 -1       554-1.00000E+01 4.63690E+01 3.00000E+00
 -1       555-1.00000E+01 4.23957E+01 3.00000E+00
 -1       556-1.01875E+01 3.70605E+01 3.00000E+00
 -1       557-1.07480E+01 3.37538E+01 3.00000E+00
 -1       558-1.16737E+01 3.05303E+01 3.00000E+00
 -1       559-1.29528E+01 2.74301E+01 3.00000E+00
 -1       560-1.45704E+01 2.44921E+01 3.00000E+00
 -1       561-1.00468E+01 3.87321E+01 3.00000E+00
 -1       562-1.04217E+01 3.53993E+01 3.00000E+00
 -1       563-1.11652E+01 3.21290E+01 3.00000E+00
 -1       564-1.22698E+01 2.89623E+01 3.00000E+00
 -1       565-1.37207E+01 2.59386E+01 3.00000E+00
 -1       566-1.55003E+01 2.30959E+01 3.00000E+00
 -1       567-1.83970E+01-1.64210E+01-1.66667E+00
 -1       568-1.83970E+01-1.64210E+01 1.66667E+00
 -1       569-1.83970E+01-1.64210E+01-3.33333E+00
 -1       570-1.83970E+01-1.64210E+01 0.00000E+00
 -1       571-1.83970E+01-1.64210E+01 3.33333E+00
 -1       572-2.11606E+01-1.35947E+01 5.00000E+00
 -1       573-2.34921E+01-1.04030E+01 5.00000E+00
 -1       574-2.53218E+01-6.89982E+00 5.00000E+00
 -1       575-2.65809E+01-3.15391E+00 5.00000E+00
 -1       576-2.72094E+01 7.47239E-01 5.00000E+00
 -1       577-2.71661E+01 4.69810E+00 5.00000E+00
 -1       578-2.64338E+01 8.58056E+00 5.00000E+00
 -1       579-2.50272E+01 1.22726E+01 5.00000E+00
 -1       580-2.29950E+01 1.56610E+01 5.00000E+00
 -1       581-2.04121E+01 1.86513E+01 5.00000E+00
 -1       582-1.73704E+01 2.11740E+01 5.00000E+00
 -1       583-1.39671E+01 2.31832E+01 5.00000E+00
 -1       584-1.02995E+01 2.46566E+01 5.00000E+00
 -1       585-6.45775E+00 2.55867E+01 5.00000E+00
 -1       586-2.52391E+00 2.59760E+01 5.00000E+00
 -1       587 1.42676E+00 2.58347E+01 5.00000E+00
 -1       588 5.32507E+00 2.51779E+01 5.00000E+00
 -1       589 9.10583E+00 2.40225E+01 5.00000E+00
 -1       590 1.27048E+01 2.23866E+01 5.00000E+00
 -1       591 1.60590E+01 2.02946E+01 5.00000E+00
 -1       592 1.91025E+01 1.77720E+01 5.00000E+00
 -1       593 2.17683E+01 1.48533E+01 5.00000E+00
 -1       594 2.39848E+01 1.15807E+01 5.00000E+00
 -1       595 2.56818E+01 8.01147E+00 5.00000E+00
 -1       596 2.67931E+01 4.21924E+00 5.00000E+00
 -1       597 2.72617E+01 2.95732E-01 5.00000E+00
 -1       598 2.70517E+01-3.64970E+00 5.00000E+00
 -1       599 2.61536E+01-7.49718E+00 5.00000E+00
 -1       600 2.45899E+01-1.11255E+01 5.00000E+00
 -1       601 2.24163E+01-1.44250E+01 5.00000E+00
 -1       602 1.97138E+01-1.73078E+01 5.00000E+00
 -1       603 1.65750E+01-1.97088E+01 5.00000E+00
 -1       604 1.30993E+01-2.15902E+01 5.00000E+00
 -1       605 9.38149E+00-2.29321E+01 5.00000E+00
 -1       606-1.98283E+01-1.50562E+01 5.00000E+00
 -1       607-2.23845E+01-1.20413E+01 5.00000E+00
 -1       608-2.44740E+01-8.68644E+00 5.00000E+00
 -1       609-2.60264E+01-5.05208E+00 5.00000E+00
 -1       610-2.69772E+01-1.21655E+00 5.00000E+00
 -1       611-2.72739E+01 2.72362E+00 5.00000E+00
 -1       612-2.68862E+01 6.65561E+00 5.00000E+00
 -1       613-2.58126E+01 1.04578E+01 5.00000E+00
 -1       614-2.40851E+01 1.40111E+01 5.00000E+00
 -1       615-2.17672E+01 1.72111E+01 5.00000E+00
 -1       616-1.89425E+01 1.99744E+01 5.00000E+00
 -1       617-1.57080E+01 2.22451E+01 5.00000E+00
 -1       618-1.21609E+01 2.39883E+01 5.00000E+00
 -1       619-8.39512E+00 2.51896E+01 5.00000E+00
 -1       620-4.49747E+00 2.58483E+01 5.00000E+00
 -1       621-5.46244E-01 2.59710E+01 5.00000E+00
 -1       622 3.38671E+00 2.55704E+01 5.00000E+00
 -1       623 7.23404E+00 2.46610E+01 5.00000E+00
 -1       624 1.09321E+01 2.32635E+01 5.00000E+00
 -1       625 1.44167E+01 2.13963E+01 5.00000E+00
 -1       626 1.76239E+01 1.90852E+01 5.00000E+00
 -1       627 2.04868E+01 1.63595E+01 5.00000E+00
 -1       628 2.29366E+01 1.32577E+01 5.00000E+00
 -1       629 2.49023E+01 9.82891E+00 5.00000E+00
 -1       630 2.63150E+01 6.13805E+00 5.00000E+00
 -1       631 2.71104E+01 2.26739E+00 5.00000E+00
 -1       632 2.72435E+01-1.68161E+00 5.00000E+00
 -1       633 2.66880E+01-5.59336E+00 5.00000E+00
 -1       634 2.54521E+01-9.34598E+00 5.00000E+00
 -1       635 2.35749E+01-1.28226E+01 5.00000E+00
 -1       636 2.11256E+01-1.59232E+01 5.00000E+00
 -1       637 1.81925E+01-1.85712E+01 5.00000E+00
 -1       638 1.48733E+01-2.07164E+01 5.00000E+00
 -1       639 1.12651E+01-2.23297E+01 5.00000E+00
 -1       640 7.45974E+00-2.33989E+01 5.00000E+00
 -1       641 5.51000E+00-2.37300E+01-1.66667E+00
 -1       642 5.51000E+00-2.37300E+01 1.66667E+00
 -1       643 5.51000E+00-2.37300E+01-3.33333E+00
 -1       644 5.51000E+00-2.37300E+01 0.00000E+00
 -1       645 5.51000E+00-2.37300E+01 3.33333E+00
 -1       646-2.11606E+01-1.35947E+01-5.00000E+00
 -1       647-2.34921E+01-1.04030E+01-5.00000E+00
 -1       648-2.53218E+01-6.89982E+00-5.00000E+00
 -1       649-2.65809E+01-3.15391E+00-5.00000E+00
 -1       650-2.72094E+01 7.47239E-01-5.00000E+00
 -1       651-2.71661E+01 4.69810E+00-5.00000E+00
 -1       652-2.64338E+01 8.58056E+00-5.00000E+00
 -1       653-2.50272E+01 1.22726E+01-5.00000E+00
 -1       654-2.29950E+01 1.56610E+01-5.00000E+00
 -1       655-2.04121E+01 1.86513E+01-5.00000E+00
 -1       656-1.73704E+01 2.11740E+01-5.00000E+00
 -1       657-1.39671E+01 2.31832E+01-5.00000E+00
 -1       658-1.02995E+01 2.46566E+01-5.00000E+00
 -1       659-6.45775E+00 2.55867E+01-5.00000E+00
 -1       660-2.52391E+00 2.59760E+01-5.00000E+00
 -1       661 1.42676E+00 2.58347E+01-5.00000E+00
 -1       662 5.32507E+00 2.51779E+01-5.00000E+00
 -1       663 9.10583E+00 2.40225E+01-5.00000E+00
 -1       664 1.27048E+01 2.23866E+01-5.00000E+00
 -1       665 1.60590E+01 2.02946E+01-5.00000E+00
 -1       666 1.91025E+01 1.77720E+01-5.00000E+00
 -1       667 2.17683E+01 1.48533E+01-5.00000E+00
 -1       668 2.39848E+01 1.15807E+01-5.00000E+00
 -1       669 2.56818E+01 8.01147E+00-5.00000E+00
 -1       670 2.67931E+01 4.21924E+00-5.00000E+00
 -1       671 2.72617E+01 2.95732E-01-5.00000E+00
 -1       672 2.70517E+01-3.64970E+00-5.00000E+00
 -1       673 2.61536E+01-7.49718E+00-5.00000E+00
 -1       674 2.45899E+01-1.11255E+01-5.00000E+00
 -1       675 2.24163E+01-1.44250E+01-5.00000E+00
 -1       676 1.97138E+01-1.73078E+01-5.00000E+00
 -1       677 1.65750E+01-1.97088E+01-5.00000E+00
 -1       678 1.30993E+01-2.15902E+01-5.00000E+00
 -1       679 9.38149E+00-2.29321E+01-5.00000E+00
 -1       680-1.98283E+01-1.50562E+01-5.00000E+00
 -1       681-2.23845E+01-1.20413E+01-5.00000E+00
 -1       682-2.44740E+01-8.68644E+00-5.00000E+00
 -1       683-2.60264E+01-5.05208E+00-5.00000E+00
 -1       684-2.69772E+01-1.21655E+00-5.00000E+00
 -1       685-2.72739E+01 2.72362E+00-5.00000E+00
 -1       686-2.68862E+01 6.65561E+00-5.00000E+00
 -1       687-2.58126E+01 1.04578E+01-5.00000E+00
 -1       688-2.40851E+01 1.40111E+01-5.00000E+00
 -1       689-2.17672E+01 1.72111E+01-5.00000E+00
 -1       690-1.89425E+01 1.99744E+01-5.00000E+00
 -1       691-1.57080E+01 2.22451E+01-5.00000E+00
 -1       692-1.21609E+01 2.39883E+01-5.00000E+00
 -1       693-8.39512E+00 2.51896E+01-5.00000E+00
 -1       694-4.49747E+00 2.58483E+01-5.00000E+00
 -1       695-5.46244E-01 2.59710E+01-5.00000E+00
 -1       696 3.38671E+00 2.55704E+01-5.00000E+00
 -1       697 7.23404E+00 2.46610E+01-5.00000E+00
 -1       698 1.09321E+01 2.32635E+01-5.00000E+00
 -1       699 1.44167E+01 2.13963E+01-5.00000E+00
 -1       700 1.76239E+01 1.90852E+01-5.00000E+00
 -1       701 2.04868E+01 1.63595E+01-5.00000E+00
 -1       702 2.29366E+01 1.32577E+01-5.00000E+00
 -1       703 2.49023E+01 9.82891E+00-5.00000E+00
 -1       704 2.63150E+01 6.13805E+00-5.00000E+00
 -1       705 2.71104E+01 2.26739E+00-5.00000E+00
 -1       706 2.72435E+01-1.68161E+00-5.00000E+00
 -1       707 2.66880E+01-5.59336E+00-5.00000E+00
 -1       708 2.54521E+01-9.34598E+00-5.00000E+00
 -1       709 2.35749E+01-1.28226E+01-5.00000E+00
 -1       710 2.11256E+01-1.59232E+01-5.00000E+00
 -1       711 1.81925E+01-1.85712E+01-5.00000E+00
 -1       712 1.48733E+01-2.07164E+01-5.00000E+00
 -1       713 1.12651E+01-2.23297E+01-5.00000E+00
 -1       714 7.45974E+00-2.33989E+01-5.00000E+00
 -1       715-1.65065E+01 2.17536E+01 1.89852E-13
 -1       716-1.65065E+01 2.17536E+01-1.50000E+00
 -1       717-1.65065E+01 2.17536E+01 1.50000E+00
 -1       718-1.60205E+01 2.43449E+02-5.00000E+00
 -1       719-1.46100E+01 2.47168E+02-5.00000E+00
 -1       720-1.23504E+01 2.50442E+02-5.00000E+00
 -1       721-9.37307E+00 2.53079E+02-5.00000E+00
 -1       722-5.85098E+00 2.54928E+02-5.00000E+00
 -1       723-1.98886E+00 2.55880E+02-5.00000E+00
 -1       724 1.98886E+00 2.55880E+02-5.00000E+00
 -1       725 5.85098E+00 2.54928E+02-5.00000E+00
 -1       726 9.37307E+00 2.53079E+02-5.00000E+00
 -1       727 1.23504E+01 2.50442E+02-5.00000E+00
 -1       728 1.46100E+01 2.47168E+02-5.00000E+00
 -1       729 1.60205E+01 2.43449E+02-5.00000E+00
 -1       730 1.65000E+01 2.39500E+02-5.00000E+00
 -1       731 1.60205E+01 2.35551E+02-5.00000E+00
 -1       732 1.46100E+01 2.31832E+02-5.00000E+00
 -1       733 1.23504E+01 2.28558E+02-5.00000E+00
 -1       734 9.37307E+00 2.25921E+02-5.00000E+00
 -1       735 5.85098E+00 2.24072E+02-5.00000E+00
 -1       736 1.98886E+00 2.23120E+02-5.00000E+00
 -1       737-1.98886E+00 2.23120E+02-5.00000E+00
 -1       738-5.85098E+00 2.24072E+02-5.00000E+00
 -1       739-9.37307E+00 2.25921E+02-5.00000E+00
 -1       740-1.23504E+01 2.28558E+02-5.00000E+00
 -1       741-1.46100E+01 2.31832E+02-5.00000E+00
 -1       742-1.60205E+01 2.35551E+02-5.00000E+00
 -1       743-1.63797E+01 2.41489E+02-5.00000E+00
 -1       744-1.54278E+01 2.45351E+02-5.00000E+00
 -1       745-1.35792E+01 2.48873E+02-5.00000E+00
 -1       746-1.09415E+01 2.51850E+02-5.00000E+00
 -1       747-7.66793E+00 2.54110E+02-5.00000E+00
 -1       748-3.94871E+00 2.55521E+02-5.00000E+00
 -1       749 6.38267E-14 2.56000E+02-5.00000E+00
 -1       750 3.94871E+00 2.55521E+02-5.00000E+00
 -1       751 7.66793E+00 2.54110E+02-5.00000E+00
 -1       752 1.09415E+01 2.51850E+02-5.00000E+00
 -1       753 1.35792E+01 2.48873E+02-5.00000E+00
 -1       754 1.54278E+01 2.45351E+02-5.00000E+00
 -1       755 1.63797E+01 2.41489E+02-5.00000E+00
 -1       756 1.63797E+01 2.37511E+02-5.00000E+00
 -1       757 1.54278E+01 2.33649E+02-5.00000E+00
 -1       758 1.35792E+01 2.30127E+02-5.00000E+00
 -1       759 1.09415E+01 2.27150E+02-5.00000E+00
 -1       760 7.66793E+00 2.24890E+02-5.00000E+00
 -1       761 3.94871E+00 2.23479E+02-5.00000E+00
 -1       762-8.60090E-14 2.23000E+02-5.00000E+00
 -1       763-3.94871E+00 2.23479E+02-5.00000E+00
 -1       764-7.66793E+00 2.24890E+02-5.00000E+00
 -1       765-1.09415E+01 2.27150E+02-5.00000E+00
 -1       766-1.35792E+01 2.30127E+02-5.00000E+00
 -1       767-1.54278E+01 2.33649E+02-5.00000E+00
 -1       768-1.63797E+01 2.37511E+02-5.00000E+00
 -1       769-1.65000E+01 2.39500E+02-1.66667E+00
 -1       770-1.65000E+01 2.39500E+02 1.66667E+00
 -1       771-1.65000E+01 2.39500E+02-3.33333E+00
 -1       772-1.65000E+01 2.39500E+02 0.00000E+00
 -1       773-1.65000E+01 2.39500E+02 3.33333E+00
 -1       774-1.60205E+01 2.43449E+02 5.00000E+00
 -1       775-1.46100E+01 2.47168E+02 5.00000E+00
 -1       776-1.23504E+01 2.50442E+02 5.00000E+00
 -1       777-9.37307E+00 2.53079E+02 5.00000E+00
 -1       778-5.85098E+00 2.54928E+02 5.00000E+00
 -1       779-1.98886E+00 2.55880E+02 5.00000E+00
 -1       780 1.98886E+00 2.55880E+02 5.00000E+00
 -1       781 5.85098E+00 2.54928E+02 5.00000E+00
 -1       782 9.37307E+00 2.53079E+02 5.00000E+00
 -1       783 1.23504E+01 2.50442E+02 5.00000E+00
 -1       784 1.46100E+01 2.47168E+02 5.00000E+00
 -1       785 1.60205E+01 2.43449E+02 5.00000E+00
 -1       786 1.65000E+01 2.39500E+02 5.00000E+00
 -1       787 1.60205E+01 2.35551E+02 5.00000E+00
 -1       788 1.46100E+01 2.31832E+02 5.00000E+00
 -1       789 1.23504E+01 2.28558E+02 5.00000E+00
 -1       790 9.37307E+00 2.25921E+02 5.00000E+00
 -1       791 5.85098E+00 2.24072E+02 5.00000E+00
 -1       792 1.98886E+00 2.23120E+02 5.00000E+00
 -1       793-1.98886E+00 2.23120E+02 5.00000E+00
 -1       794-5.85098E+00 2.24072E+02 5.00000E+00
 -1       795-9.37307E+00 2.25921E+02 5.00000E+00
 -1       796-1.23504E+01 2.28558E+02 5.00000E+00
 -1       797-1.46100E+01 2.31832E+02 5.00000E+00
 -1       798-1.60205E+01 2.35551E+02 5.00000E+00
 -1       799-1.63797E+01 2.41489E+02 5.00000E+00
 -1       800-1.54278E+01 2.45351E+02 5.00000E+00
 -1       801-1.35792E+01 2.48873E+02 5.00000E+00
 -1       802-1.09415E+01 2.51850E+02 5.00000E+00
 -1       803-7.66793E+00 2.54110E+02 5.00000E+00
 -1       804-3.94871E+00 2.55521E+02 5.00000E+00
 -1       805 6.60472E-14 2.56000E+02 5.00000E+00
 -1       806 3.94871E+00 2.55521E+02 5.00000E+00
 -1       807 7.66793E+00 2.54110E+02 5.00000E+00
 -1       808 1.09415E+01 2.51850E+02 5.00000E+00
 -1       809 1.35792E+01 2.48873E+02 5.00000E+00
 -1       810 1.54278E+01 2.45351E+02 5.00000E+00
 -1       811 1.63797E+01 2.41489E+02 5.00000E+00
 -1       812 1.63797E+01 2.37511E+02 5.00000E+00
 -1       813 1.54278E+01 2.33649E+02 5.00000E+00
 -1       814 1.35792E+01 2.30127E+02 5.00000E+00
 -1       815 1.09415E+01 2.27150E+02 5.00000E+00
 -1       816 7.66793E+00 2.24890E+02 5.00000E+00
 -1       817 3.94871E+00 2.23479E+02 5.00000E+00
 -1       818-8.37885E-14 2.23000E+02 5.00000E+00
 -1       819-3.94871E+00 2.23479E+02 5.00000E+00
 -1       820-7.66793E+00 2.24890E+02 5.00000E+00
 -1       821-1.09415E+01 2.27150E+02 5.00000E+00
 -1       822-1.35792E+01 2.30127E+02 5.00000E+00
 -1       823-1.54278E+01 2.33649E+02 5.00000E+00
 -1       824-1.63797E+01 2.37511E+02 5.00000E+00
 -1       825-1.22754E+01 2.28474E+02-2.36096E-15
 -1       826-1.22754E+01 2.28474E+02 1.50000E+00
 -1       827-1.22754E+01 2.28474E+02-1.50000E+00
 -1       828-1.00000E+01 4.04090E+01 0.00000E+00
 -1       829-1.00000E+01 4.04090E+01-1.50000E+00
 -1       830-1.00000E+01 4.04090E+01 1.50000E+00
 -1       831-1.00000E+01 2.19209E+02 0.00000E+00
 -1       832-1.00000E+01 2.19209E+02-1.50000E+00
 -1       833-1.00000E+01 2.19209E+02 1.50000E+00
 -1       834-1.25500E+01 2.70500E+00-1.66667E+00
 -1       835-1.25500E+01 2.70500E+00 1.66667E+00
 -1       836-1.25500E+01 2.70500E+00-3.33333E+00
 -1       837-1.25500E+01 2.70500E+00 0.00000E+00
 -1       838-1.25500E+01 2.70500E+00 3.33333E+00
 -1       839-1.37194E+01-1.12020E+00 5.00000E+00
 -1       840-1.48888E+01-4.94540E+00 5.00000E+00
 -1       841-1.60582E+01-8.77060E+00 5.00000E+00
 -1       842-1.72276E+01-1.25958E+01 5.00000E+00
 -1       843-1.31347E+01 7.92400E-01 5.00000E+00
 -1       844-1.43041E+01-3.03280E+00 5.00000E+00
 -1       845-1.54735E+01-6.85800E+00 5.00000E+00
 -1       846-1.66429E+01-1.06832E+01 5.00000E+00
 -1       847-1.78123E+01-1.45084E+01 5.00000E+00
 -1       848-1.37194E+01-1.12020E+00-5.00000E+00
 -1       849-1.48888E+01-4.94540E+00-5.00000E+00
 -1       850-1.60582E+01-8.77060E+00-5.00000E+00
 -1       851-1.72276E+01-1.25958E+01-5.00000E+00
 -1       852-1.31347E+01 7.92400E-01-5.00000E+00
 -1       853-1.43041E+01-3.03280E+00-5.00000E+00
 -1       854-1.54735E+01-6.85800E+00-5.00000E+00
 -1       855-1.66429E+01-1.06832E+01-5.00000E+00
 -1       856-1.78123E+01-1.45084E+01-5.00000E+00
 -1       857 6.67960E+00-1.99048E+01-5.00000E+00
 -1       858 7.84920E+00-1.60796E+01-5.00000E+00
 -1       859 9.01880E+00-1.22544E+01-5.00000E+00
 -1       860 1.01884E+01-8.42920E+00-5.00000E+00
 -1       861 6.09480E+00-2.18174E+01-5.00000E+00
 -1       862 7.26440E+00-1.79922E+01-5.00000E+00
 -1       863 8.43400E+00-1.41670E+01-5.00000E+00
 -1       864 9.60360E+00-1.03418E+01-5.00000E+00
 -1       865 1.07732E+01-6.51660E+00-5.00000E+00
 -1       866 9.88170E+00-1.22788E+00-5.00000E+00
 -1       867 7.62720E+00 1.68680E+00-5.00000E+00
 -1       868 4.73020E+00 3.96394E+00-5.00000E+00
 -1       869 1.36535E+00 5.46589E+00-5.00000E+00
 -1       870-2.26417E+00 6.10229E+00-5.00000E+00
 -1       871-5.93923E+00 5.83395E+00-5.00000E+00
 -1       872-9.43816E+00 4.67847E+00-5.00000E+00
 -1       873 1.07241E+01-2.87034E+00-5.00000E+00
 -1       874 8.84419E+00 2.98898E-01-5.00000E+00
 -1       875 6.24882E+00 2.91460E+00-5.00000E+00
 -1       876 3.09402E+00 4.81855E+00-5.00000E+00
 -1       877-4.29917E-01 5.89540E+00-5.00000E+00
 -1       878-4.10998E+00 6.08136E+00-5.00000E+00
 -1       879-7.72441E+00 5.36439E+00-5.00000E+00
 -1       880-1.10548E+01 3.78748E+00-5.00000E+00
 -1       881 6.67960E+00-1.99048E+01 5.00000E+00
 -1       882 7.84920E+00-1.60796E+01 5.00000E+00
 -1       883 9.01880E+00-1.22544E+01 5.00000E+00
 -1       884 1.01884E+01-8.42920E+00 5.00000E+00
 -1       885 6.09480E+00-2.18174E+01 5.00000E+00
 -1       886 7.26440E+00-1.79922E+01 5.00000E+00
 -1       887 8.43400E+00-1.41670E+01 5.00000E+00
 -1       888 9.60360E+00-1.03418E+01 5.00000E+00
 -1       889 1.07732E+01-6.51660E+00 5.00000E+00
 -1       890 9.88170E+00-1.22788E+00 5.00000E+00
 -1       891 7.62720E+00 1.68680E+00 5.00000E+00
 -1       892 4.73020E+00 3.96394E+00 5.00000E+00
 -1       893 1.36535E+00 5.46589E+00 5.00000E+00
 -1       894-2.26417E+00 6.10229E+00 5.00000E+00
 -1       895-5.93923E+00 5.83395E+00 5.00000E+00
 -1       896-9.43816E+00 4.67847E+00 5.00000E+00
 -1       897 1.07241E+01-2.87034E+00 5.00000E+00
 -1       898 8.84419E+00 2.98898E-01 5.00000E+00
 -1       899 6.24882E+00 2.91460E+00 5.00000E+00
 -1       900 3.09402E+00 4.81855E+00 5.00000E+00
 -1       901-4.29917E-01 5.89540E+00 5.00000E+00
 -1       902-4.10998E+00 6.08136E+00 5.00000E+00
 -1       903-7.72441E+00 5.36439E+00 5.00000E+00
 -1       904-1.10548E+01 3.78748E+00 5.00000E+00
 -1       905 1.13580E+01-4.60400E+00-1.66667E+00
 -1       906 1.13580E+01-4.60400E+00 1.66667E+00
 -1       907 1.13580E+01-4.60400E+00-3.33333E+00
 -1       908 1.13580E+01-4.60400E+00 0.00000E+00
 -1       909 1.13580E+01-4.60400E+00 3.33333E+00
 -1       910 8.18400E+00 2.50326E+02-5.00000E+00
 -1       911 1.08255E+01 2.47684E+02-5.00000E+00
 -1       912 1.25000E+01 2.44783E+02-5.00000E+00
 -1       913 1.34670E+01 2.41174E+02-5.00000E+00
 -1       914 1.34670E+01 2.37826E+02-5.00000E+00
 -1       915 1.25000E+01 2.34217E+02-5.00000E+00
 -1       916 1.08255E+01 2.31316E+02-5.00000E+00
 -1       917 8.18400E+00 2.28674E+02-5.00000E+00
 -1       918 5.28300E+00 2.27000E+02-5.00000E+00
 -1       919 1.67450E+00 2.26033E+02-5.00000E+00
 -1       920-1.67450E+00 2.26033E+02-5.00000E+00
 -1       921-5.28300E+00 2.27000E+02-5.00000E+00
 -1       922-8.18400E+00 2.28674E+02-5.00000E+00
 -1       923-1.08255E+01 2.31316E+02-5.00000E+00
 -1       924-1.25000E+01 2.34217E+02-5.00000E+00
 -1       925-1.34670E+01 2.37826E+02-5.00000E+00
 -1       926-1.34670E+01 2.41174E+02-5.00000E+00
 -1       927-1.25000E+01 2.44783E+02-5.00000E+00
 -1       928-1.08255E+01 2.47684E+02-5.00000E+00
 -1       929-8.18400E+00 2.50326E+02-5.00000E+00
 -1       930-5.28300E+00 2.52000E+02-5.00000E+00
 -1       931-1.67450E+00 2.52967E+02-5.00000E+00
 -1       932 1.67450E+00 2.52967E+02-5.00000E+00
 -1       933 5.28300E+00 2.52000E+02-5.00000E+00
 -1       934-1.34670E+01 2.37826E+02 5.00000E+00
 -1       935-1.34670E+01 2.41174E+02 5.00000E+00
 -1       936-1.25000E+01 2.44783E+02 5.00000E+00
 -1       937-1.08255E+01 2.47684E+02 5.00000E+00
 -1       938-8.18400E+00 2.50326E+02 5.00000E+00
 -1       939-5.28300E+00 2.52000E+02 5.00000E+00
 -1       940-1.67450E+00 2.52967E+02 5.00000E+00
 -1       941 1.67450E+00 2.52967E+02 5.00000E+00
 -1       942 5.28300E+00 2.52000E+02 5.00000E+00
 -1       943 8.18400E+00 2.50326E+02 5.00000E+00
 -1       944 1.08255E+01 2.47684E+02 5.00000E+00
 -1       945 1.25000E+01 2.44783E+02 5.00000E+00
 -1       946 1.34670E+01 2.41174E+02 5.00000E+00
 -1       947 1.34670E+01 2.37826E+02 5.00000E+00
 -1       948 1.25000E+01 2.34217E+02 5.00000E+00
 -1       949 1.08255E+01 2.31316E+02 5.00000E+00
 -1       950 8.18400E+00 2.28674E+02 5.00000E+00
 -1       951 5.28300E+00 2.27000E+02 5.00000E+00
 -1       952 1.67450E+00 2.26033E+02 5.00000E+00
 -1       953-1.67450E+00 2.26033E+02 5.00000E+00
 -1       954-5.28300E+00 2.27000E+02 5.00000E+00
 -1       955-8.18400E+00 2.28674E+02 5.00000E+00
 -1       956-1.08255E+01 2.31316E+02 5.00000E+00
 -1       957-1.25000E+01 2.34217E+02 5.00000E+00
 -1       958 9.15100E+00 2.48651E+02-1.66667E+00
 -1       959 9.15100E+00 2.48651E+02 1.66667E+00
 -1       960 9.15100E+00 2.48651E+02-3.33333E+00
 -1       961 9.15100E+00 2.48651E+02 0.00000E+00
 -1       962 9.15100E+00 2.48651E+02 3.33333E+00
 -1       963 7.21700E+00 2.52000E+02-1.66667E+00
 -1       964 7.21700E+00 2.52000E+02 1.66667E+00
 -1       965 7.21700E+00 2.52000E+02-3.33333E+00
 -1       966 7.21700E+00 2.52000E+02 0.00000E+00
 -1       967 7.21700E+00 2.52000E+02 3.33333E+00
 -1       968 3.34900E+00 2.52000E+02-1.66667E+00
 -1       969 3.34900E+00 2.52000E+02 1.66667E+00
 -1       970 3.34900E+00 2.52000E+02-3.33333E+00
 -1       971 3.34900E+00 2.52000E+02 0.00000E+00
 -1       972 3.34900E+00 2.52000E+02 3.33333E+00
 -1       973-3.70074E-16 2.53934E+02-1.66667E+00
 -1       974 3.70074E-16 2.53934E+02 1.66667E+00
 -1       975-7.40149E-16 2.53934E+02-3.33333E+00
 -1       976 0.00000E+00 2.53934E+02 0.00000E+00
 -1       977 7.40149E-16 2.53934E+02 3.33333E+00
 -1       978-3.34900E+00 2.52000E+02-1.66667E+00
 -1       979-3.34900E+00 2.52000E+02 1.66667E+00
 -1       980-3.34900E+00 2.52000E+02-3.33333E+00
 -1       981-3.34900E+00 2.52000E+02 0.00000E+00
 -1       982-3.34900E+00 2.52000E+02 3.33333E+00
 -1       983-7.21700E+00 2.52000E+02-1.66667E+00
 -1       984-7.21700E+00 2.52000E+02 1.66667E+00
 -1       985-7.21700E+00 2.52000E+02-3.33333E+00
 -1       986-7.21700E+00 2.52000E+02 0.00000E+00
 -1       987-7.21700E+00 2.52000E+02 3.33333E+00
 -1       988-9.15100E+00 2.48651E+02-1.66667E+00
 -1       989-9.15100E+00 2.48651E+02 1.66667E+00
 -1       990-9.15100E+00 2.48651E+02-3.33333E+00
 -1       991-9.15100E+00 2.48651E+02 0.00000E+00
 -1       992-9.15100E+00 2.48651E+02 3.33333E+00
 -1       993-1.25000E+01 2.46717E+02-1.66667E+00
 -1       994-1.25000E+01 2.46717E+02 1.66667E+00
 -1       995-1.25000E+01 2.46717E+02-3.33333E+00
 -1       996-1.25000E+01 2.46717E+02 0.00000E+00
 -1       997-1.25000E+01 2.46717E+02 3.33333E+00
 -1       998-1.25000E+01 2.42849E+02-1.66667E+00
 -1       999-1.25000E+01 2.42849E+02 1.66667E+00
 -1      1000-1.25000E+01 2.42849E+02-3.33333E+00
 -1      1001-1.25000E+01 2.42849E+02 0.00000E+00
 -1      1002-1.25000E+01 2.42849E+02 3.33333E+00
 -1      1003-1.44340E+01 2.39500E+02-1.66667E+00
 -1      1004-1.44340E+01 2.39500E+02 1.66667E+00
 -1      1005-1.44340E+01 2.39500E+02-3.33333E+00
 -1      1006-1.44340E+01 2.39500E+02 0.00000E+00
 -1      1007-1.44340E+01 2.39500E+02 3.33333E+00
 -1      1008-1.25000E+01 2.36151E+02-1.66667E+00
 -1      1009-1.25000E+01 2.36151E+02 1.66667E+00
 -1      1010-1.25000E+01 2.36151E+02-3.33333E+00
 -1      1011-1.25000E+01 2.36151E+02 0.00000E+00
 -1      1012-1.25000E+01 2.36151E+02 3.33333E+00
 -1      1013-1.25000E+01 2.32283E+02-1.66667E+00
 -1      1014-1.25000E+01 2.32283E+02 1.66667E+00
 -1      1015-1.25000E+01 2.32283E+02-3.33333E+00
 -1      1016-1.25000E+01 2.32283E+02 0.00000E+00
 -1      1017-1.25000E+01 2.32283E+02 3.33333E+00
 -1      1018-9.15100E+00 2.30349E+02-1.66667E+00
 -1      1019-9.15100E+00 2.30349E+02 1.66667E+00
 -1      1020-9.15100E+00 2.30349E+02-3.33333E+00
 -1      1021-9.15100E+00 2.30349E+02 0.00000E+00
 -1      1022-9.15100E+00 2.30349E+02 3.33333E+00
 -1      1023-7.21700E+00 2.27000E+02-1.66667E+00
 -1      1024-7.21700E+00 2.27000E+02 1.66667E+00
 -1      1025-7.21700E+00 2.27000E+02-3.33333E+00
 -1      1026-7.21700E+00 2.27000E+02 0.00000E+00
 -1      1027-7.21700E+00 2.27000E+02 3.33333E+00
 -1      1028-3.34900E+00 2.27000E+02-1.66667E+00
 -1      1029-3.34900E+00 2.27000E+02 1.66667E+00
 -1      1030-3.34900E+00 2.27000E+02-3.33333E+00
 -1      1031-3.34900E+00 2.27000E+02 0.00000E+00
 -1      1032-3.34900E+00 2.27000E+02 3.33333E+00
 -1      1033-3.70074E-16 2.25066E+02-1.66667E+00
 -1      1034 3.70074E-16 2.25066E+02 1.66667E+00
 -1      1035-7.40149E-16 2.25066E+02-3.33333E+00
 -1      1036 0.00000E+00 2.25066E+02 0.00000E+00
 -1      1037 7.40149E-16 2.25066E+02 3.33333E+00
 -1      1038 3.34900E+00 2.27000E+02-1.66667E+00
 -1      1039 3.34900E+00 2.27000E+02 1.66667E+00
 -1      1040 3.34900E+00 2.27000E+02-3.33333E+00
 -1      1041 3.34900E+00 2.27000E+02 0.00000E+00
 -1      1042 3.34900E+00 2.27000E+02 3.33333E+00
 -1      1043 7.21700E+00 2.27000E+02-1.66667E+00
 -1      1044 7.21700E+00 2.27000E+02 1.66667E+00
 -1      1045 7.21700E+00 2.27000E+02-3.33333E+00
 -1      1046 7.21700E+00 2.27000E+02 0.00000E+00
 -1      1047 7.21700E+00 2.27000E+02 3.33333E+00
 -1      1048 9.15100E+00 2.30349E+02-1.66667E+00
 -1      1049 9.15100E+00 2.30349E+02 1.66667E+00
 -1      1050 9.15100E+00 2.30349E+02-3.33333E+00
 -1      1051 9.15100E+00 2.30349E+02 0.00000E+00
 -1      1052 9.15100E+00 2.30349E+02 3.33333E+00
 -1      1053 1.25000E+01 2.32283E+02-1.66667E+00
 -1      1054 1.25000E+01 2.32283E+02 1.66667E+00
 -1      1055 1.25000E+01 2.32283E+02-3.33333E+00
 -1      1056 1.25000E+01 2.32283E+02 0.00000E+00
 -1      1057 1.25000E+01 2.32283E+02 3.33333E+00
 -1      1058 1.25000E+01 2.36151E+02-1.66667E+00
 -1      1059 1.25000E+01 2.36151E+02 1.66667E+00
 -1      1060 1.25000E+01 2.36151E+02-3.33333E+00
 -1      1061 1.25000E+01 2.36151E+02 0.00000E+00
 -1      1062 1.25000E+01 2.36151E+02 3.33333E+00
 -1      1063 1.44340E+01 2.39500E+02-1.66667E+00
 -1      1064 1.44340E+01 2.39500E+02 1.66667E+00
 -1      1065 1.44340E+01 2.39500E+02-3.33333E+00
 -1      1066 1.44340E+01 2.39500E+02 0.00000E+00
 -1      1067 1.44340E+01 2.39500E+02 3.33333E+00
 -1      1068 1.25000E+01 2.42849E+02-1.66667E+00
 -1      1069 1.25000E+01 2.42849E+02 1.66667E+00
 -1      1070 1.25000E+01 2.42849E+02-3.33333E+00
 -1      1071 1.25000E+01 2.42849E+02 0.00000E+00
 -1      1072 1.25000E+01 2.42849E+02 3.33333E+00
 -1      1073 1.25000E+01 2.46717E+02-1.66667E+00
 -1      1074 1.25000E+01 2.46717E+02 1.66667E+00
 -1      1075 1.25000E+01 2.46717E+02-3.33333E+00
 -1      1076 1.25000E+01 2.46717E+02 0.00000E+00
 -1      1077 1.25000E+01 2.46717E+02 3.33333E+00
 -1      1078 1.00000E+01 1.66116E+02 0.00000E+00
 -1      1079 1.00000E+01 1.62183E+02 0.00000E+00
 -1      1080 1.00000E+01 1.70048E+02 0.00000E+00
 -1      1081 1.00000E+01 9.13914E+01 0.00000E+00
 -1      1082 1.00000E+01 8.74586E+01 0.00000E+00
 -1      1083 1.00000E+01 9.53243E+01 0.00000E+00
 -1      1084 1.00000E+01 9.92571E+01 0.00000E+00
 -1      1085 1.00000E+01 1.07123E+02 0.00000E+00
 -1      1086 1.00000E+01 4.81301E+01 4.44089E-16
 -1      1087 1.00000E+01 1.03190E+02 0.00000E+00
 -1      1088 1.00000E+01 4.43143E+01 2.51261E-02
 -1      1089 1.00000E+01 5.20630E+01 4.44089E-16
 -1      1090 1.00000E+01 5.99287E+01 0.00000E+00
 -1      1091 1.00000E+01 6.38615E+01 0.00000E+00
 -1      1092 1.00000E+01 6.77944E+01 0.00000E+00
 -1      1093 1.00000E+01 7.56601E+01 0.00000E+00
 -1      1094 1.00000E+01 8.35257E+01 0.00000E+00
 -1      1095 1.00000E+01 1.11056E+02 0.00000E+00
 -1      1096 1.00000E+01 1.14989E+02 0.00000E+00
 -1      1097 1.00000E+01 1.22854E+02 0.00000E+00
 -1      1098 1.00000E+01 1.26787E+02 0.00000E+00
 -1      1099 1.00000E+01 1.30720E+02 0.00000E+00
 -1      1100 1.00000E+01 1.34653E+02 0.00000E+00
 -1      1101 1.00000E+01 1.38586E+02 0.00000E+00
 -1      1102 1.00000E+01 1.46451E+02 0.00000E+00
 -1      1103 1.00000E+01 1.50384E+02 0.00000E+00
 -1      1104 1.00000E+01 1.58250E+02 0.00000E+00
 -1      1105 1.00000E+01 1.77914E+02 0.00000E+00
 -1      1106 1.00000E+01 1.85780E+02 0.00000E+00
 -1      1107 1.00000E+01 1.89713E+02 0.00000E+00
 -1      1108 1.00000E+01 1.97578E+02 0.00000E+00
 -1      1109 1.00000E+01 2.01511E+02 0.00000E+00
 -1      1110 1.00000E+01 2.05444E+02 0.00000E+00
 -1      1111 1.00000E+01 2.09377E+02 0.00000E+00
 -1      1112 1.00000E+01 2.13193E+02 2.51261E-02
 -1      1113 1.00000E+01 5.59958E+01 4.44089E-16
 -1      1114 1.00000E+01 7.17272E+01 0.00000E+00
 -1      1115 1.00000E+01 7.95929E+01 0.00000E+00
 -1      1116 1.00000E+01 1.18921E+02 0.00000E+00
 -1      1117 1.00000E+01 1.42518E+02 0.00000E+00
 -1      1118 1.00000E+01 1.54317E+02 0.00000E+00
 -1      1119 1.00000E+01 1.73981E+02 0.00000E+00
 -1      1120 1.00000E+01 1.81847E+02 0.00000E+00
 -1      1121 1.00000E+01 1.93645E+02 0.00000E+00
 -1      1122 1.00000E+01 4.12476E+01 2.11059E-01
 -1      1123 1.00000E+01 2.16259E+02 2.11059E-01
 -1      1124 1.00000E+01 3.97728E+01-1.39447E+00
 -1      1125 1.00000E+01 3.97728E+01 1.05530E-01
 -1      1126 1.00000E+01 4.17392E+01-1.39447E+00
 -1      1127 1.00000E+01 3.97728E+01 1.60553E+00
 -1      1128 1.00000E+01 4.17392E+01 1.60553E+00
 -1      1129 1.00000E+01 2.15768E+02 1.60553E+00
 -1      1130 1.00000E+01 2.17734E+02 1.60553E+00
 -1      1131 1.00000E+01 2.17734E+02 1.05530E-01
 -1      1132 1.00000E+01 2.17734E+02-1.39447E+00
 -1      1133 1.00000E+01 2.15768E+02-1.39447E+00
 -1      1134 1.00000E+01 4.32726E+01 1.51256E+00
 -1      1135 1.00000E+01 4.52390E+01 1.51256E+00
 -1      1136 1.00000E+01 4.27810E+01 1.18093E-01
 -1      1137 1.00000E+01 4.71469E+01 1.50000E+00
 -1      1138 1.00000E+01 4.91133E+01 1.50000E+00
 -1      1139 1.00000E+01 4.62222E+01 1.25630E-02
 -1      1140 1.00000E+01 5.10798E+01 1.50000E+00
 -1      1141 1.00000E+01 5.30462E+01 1.50000E+00
 -1      1142 1.00000E+01 5.00965E+01 4.44089E-16
 -1      1143 1.00000E+01 5.50126E+01 1.50000E+00
 -1      1144 1.00000E+01 5.69790E+01 1.50000E+00
 -1      1145 1.00000E+01 5.40294E+01 4.44089E-16
 -1      1146 1.00000E+01 5.89454E+01 1.50000E+00
 -1      1147 1.00000E+01 6.09119E+01 1.50000E+00
 -1      1148 1.00000E+01 5.79622E+01 0.00000E+00
 -1      1149 1.00000E+01 6.28783E+01 1.50000E+00
 -1      1150 1.00000E+01 6.48447E+01 1.50000E+00
 -1      1151 1.00000E+01 6.18951E+01 0.00000E+00
 -1      1152 1.00000E+01 6.68111E+01 1.50000E+00
 -1      1153 1.00000E+01 6.87776E+01 1.50000E+00
 -1      1154 1.00000E+01 6.58279E+01 0.00000E+00
 -1      1155 1.00000E+01 7.07440E+01 1.50000E+00
 -1      1156 1.00000E+01 7.27104E+01 1.50000E+00
 -1      1157 1.00000E+01 6.97608E+01 0.00000E+00
 -1      1158 1.00000E+01 7.46768E+01 1.50000E+00
 -1      1159 1.00000E+01 7.66433E+01 1.50000E+00
 -1      1160 1.00000E+01 7.36936E+01 0.00000E+00
 -1      1161 1.00000E+01 7.86097E+01 1.50000E+00
 -1      1162 1.00000E+01 8.05761E+01 1.50000E+00
 -1      1163 1.00000E+01 7.76265E+01 0.00000E+00
 -1      1164 1.00000E+01 8.25425E+01 1.50000E+00
 -1      1165 1.00000E+01 8.45090E+01 1.50000E+00
 -1      1166 1.00000E+01 8.15593E+01 0.00000E+00
 -1      1167 1.00000E+01 8.64754E+01 1.50000E+00
 -1      1168 1.00000E+01 8.84418E+01 1.50000E+00
 -1      1169 1.00000E+01 8.54922E+01 0.00000E+00
 -1      1170 1.00000E+01 9.04082E+01 1.50000E+00
 -1      1171 1.00000E+01 9.23747E+01 1.50000E+00
 -1      1172 1.00000E+01 8.94250E+01 0.00000E+00
 -1      1173 1.00000E+01 9.43411E+01 1.50000E+00
 -1      1174 1.00000E+01 9.63075E+01 1.50000E+00
 -1      1175 1.00000E+01 9.33579E+01 0.00000E+00
 -1      1176 1.00000E+01 9.82739E+01 1.50000E+00
 -1      1177 1.00000E+01 1.00240E+02 1.50000E+00
 -1      1178 1.00000E+01 9.72907E+01 0.00000E+00
 -1      1179 1.00000E+01 1.02207E+02 1.50000E+00
 -1      1180 1.00000E+01 1.04173E+02 1.50000E+00
 -1      1181 1.00000E+01 1.01224E+02 0.00000E+00
 -1      1182 1.00000E+01 1.06140E+02 1.50000E+00
 -1      1183 1.00000E+01 1.08106E+02 1.50000E+00
 -1      1184 1.00000E+01 1.05156E+02 0.00000E+00
 -1      1185 1.00000E+01 1.10072E+02 1.50000E+00
 -1      1186 1.00000E+01 1.12039E+02 1.50000E+00
 -1      1187 1.00000E+01 1.09089E+02 0.00000E+00
 -1      1188 1.00000E+01 1.14005E+02 1.50000E+00
 -1      1189 1.00000E+01 1.15972E+02 1.50000E+00
 -1      1190 1.00000E+01 1.13022E+02 0.00000E+00
 -1      1191 1.00000E+01 1.17938E+02 1.50000E+00
 -1      1192 1.00000E+01 1.19905E+02 1.50000E+00
 -1      1193 1.00000E+01 1.16955E+02 0.00000E+00
 -1      1194 1.00000E+01 1.21871E+02 1.50000E+00
 -1      1195 1.00000E+01 1.23837E+02 1.50000E+00
 -1      1196 1.00000E+01 1.20888E+02 0.00000E+00
 -1      1197 1.00000E+01 1.25804E+02 1.50000E+00
 -1      1198 1.00000E+01 1.27770E+02 1.50000E+00
 -1      1199 1.00000E+01 1.24821E+02 0.00000E+00
 -1      1200 1.00000E+01 1.29737E+02 1.50000E+00
 -1      1201 1.00000E+01 1.31703E+02 1.50000E+00
 -1      1202 1.00000E+01 1.28753E+02 0.00000E+00
 -1      1203 1.00000E+01 1.33670E+02 1.50000E+00
 -1      1204 1.00000E+01 1.35636E+02 1.50000E+00
 -1      1205 1.00000E+01 1.32686E+02 0.00000E+00
 -1      1206 1.00000E+01 1.37602E+02 1.50000E+00
 -1      1207 1.00000E+01 1.39569E+02 1.50000E+00
 -1      1208 1.00000E+01 1.36619E+02 0.00000E+00
 -1      1209 1.00000E+01 1.41535E+02 1.50000E+00
 -1      1210 1.00000E+01 1.43502E+02 1.50000E+00
 -1      1211 1.00000E+01 1.40552E+02 0.00000E+00
 -1      1212 1.00000E+01 1.45468E+02 1.50000E+00
 -1      1213 1.00000E+01 1.47435E+02 1.50000E+00
 -1      1214 1.00000E+01 1.44485E+02 0.00000E+00
 -1      1215 1.00000E+01 1.49401E+02 1.50000E+00
 -1      1216 1.00000E+01 1.51367E+02 1.50000E+00
 -1      1217 1.00000E+01 1.48418E+02 0.00000E+00
 -1      1218 1.00000E+01 1.53334E+02 1.50000E+00
 -1      1219 1.00000E+01 1.55300E+02 1.50000E+00
 -1      1220 1.00000E+01 1.52351E+02 0.00000E+00
 -1      1221 1.00000E+01 1.57267E+02 1.50000E+00
 -1      1222 1.00000E+01 1.59233E+02 1.50000E+00
 -1      1223 1.00000E+01 1.56283E+02 0.00000E+00
 -1      1224 1.00000E+01 1.61199E+02 1.50000E+00
 -1      1225 1.00000E+01 1.63166E+02 1.50000E+00
 -1      1226 1.00000E+01 1.60216E+02 0.00000E+00
 -1      1227 1.00000E+01 1.65132E+02 1.50000E+00
 -1      1228 1.00000E+01 1.67099E+02 1.50000E+00
 -1      1229 1.00000E+01 1.64149E+02 0.00000E+00
 -1      1230 1.00000E+01 1.69065E+02 1.50000E+00
 -1      1231 1.00000E+01 1.71032E+02 1.50000E+00
 -1      1232 1.00000E+01 1.68082E+02 0.00000E+00
 -1      1233 1.00000E+01 1.72998E+02 1.50000E+00
 -1      1234 1.00000E+01 1.74964E+02 1.50000E+00
 -1      1235 1.00000E+01 1.72015E+02 0.00000E+00
 -1      1236 1.00000E+01 1.76931E+02 1.50000E+00
 -1      1237 1.00000E+01 1.78897E+02 1.50000E+00
 -1      1238 1.00000E+01 1.75948E+02 0.00000E+00
 -1      1239 1.00000E+01 1.80864E+02 1.50000E+00
 -1      1240 1.00000E+01 1.82830E+02 1.50000E+00
 -1      1241 1.00000E+01 1.79881E+02 0.00000E+00
 -1      1242 1.00000E+01 1.84797E+02 1.50000E+00
 -1      1243 1.00000E+01 1.86763E+02 1.50000E+00
 -1      1244 1.00000E+01 1.83813E+02 0.00000E+00
 -1      1245 1.00000E+01 1.88729E+02 1.50000E+00
 -1      1246 1.00000E+01 1.90696E+02 1.50000E+00
 -1      1247 1.00000E+01 1.87746E+02 0.00000E+00
 -1      1248 1.00000E+01 1.92662E+02 1.50000E+00
 -1      1249 1.00000E+01 1.94629E+02 1.50000E+00
 -1      1250 1.00000E+01 1.91679E+02 0.00000E+00
 -1      1251 1.00000E+01 1.96595E+02 1.50000E+00
 -1      1252 1.00000E+01 1.98562E+02 1.50000E+00
 -1      1253 1.00000E+01 1.95612E+02 0.00000E+00
 -1      1254 1.00000E+01 2.00528E+02 1.50000E+00
 -1      1255 1.00000E+01 2.02494E+02 1.50000E+00
 -1      1256 1.00000E+01 1.99545E+02 0.00000E+00
 -1      1257 1.00000E+01 2.04461E+02 1.50000E+00
 -1      1258 1.00000E+01 2.06427E+02 1.50000E+00
 -1      1259 1.00000E+01 2.03478E+02 0.00000E+00
 -1      1260 1.00000E+01 2.08394E+02 1.50000E+00
 -1      1261 1.00000E+01 2.10360E+02 1.50000E+00
 -1      1262 1.00000E+01 2.07410E+02 0.00000E+00
 -1      1263 1.00000E+01 2.12268E+02 1.51256E+00
 -1      1264 1.00000E+01 2.14234E+02 1.51256E+00
 -1      1265 1.00000E+01 2.11285E+02 1.25630E-02
 -1      1266 1.00000E+01 2.14726E+02 1.18093E-01
 -1      1267 1.00000E+01 4.52390E+01-1.48744E+00
 -1      1268 1.00000E+01 4.32726E+01-1.48744E+00
 -1      1269 1.00000E+01 4.91133E+01-1.50000E+00
 -1      1270 1.00000E+01 4.71469E+01-1.50000E+00
 -1      1271 1.00000E+01 5.30462E+01-1.50000E+00
 -1      1272 1.00000E+01 5.10798E+01-1.50000E+00
 -1      1273 1.00000E+01 5.69790E+01-1.50000E+00
 -1      1274 1.00000E+01 5.50126E+01-1.50000E+00
 -1      1275 1.00000E+01 6.09119E+01-1.50000E+00
 -1      1276 1.00000E+01 5.89454E+01-1.50000E+00
 -1      1277 1.00000E+01 6.48447E+01-1.50000E+00
 -1      1278 1.00000E+01 6.28783E+01-1.50000E+00
 -1      1279 1.00000E+01 6.87776E+01-1.50000E+00
 -1      1280 1.00000E+01 6.68111E+01-1.50000E+00
 -1      1281 1.00000E+01 7.27104E+01-1.50000E+00
 -1      1282 1.00000E+01 7.07440E+01-1.50000E+00
 -1      1283 1.00000E+01 7.66433E+01-1.50000E+00
 -1      1284 1.00000E+01 7.46768E+01-1.50000E+00
 -1      1285 1.00000E+01 8.05761E+01-1.50000E+00
 -1      1286 1.00000E+01 7.86097E+01-1.50000E+00
 -1      1287 1.00000E+01 8.45090E+01-1.50000E+00
 -1      1288 1.00000E+01 8.25425E+01-1.50000E+00
 -1      1289 1.00000E+01 8.84418E+01-1.50000E+00
 -1      1290 1.00000E+01 8.64754E+01-1.50000E+00
 -1      1291 1.00000E+01 9.23747E+01-1.50000E+00
 -1      1292 1.00000E+01 9.04082E+01-1.50000E+00
 -1      1293 1.00000E+01 9.63075E+01-1.50000E+00
 -1      1294 1.00000E+01 9.43411E+01-1.50000E+00
 -1      1295 1.00000E+01 1.00240E+02-1.50000E+00
 -1      1296 1.00000E+01 9.82739E+01-1.50000E+00
 -1      1297 1.00000E+01 1.04173E+02-1.50000E+00
 -1      1298 1.00000E+01 1.02207E+02-1.50000E+00
 -1      1299 1.00000E+01 1.08106E+02-1.50000E+00
 -1      1300 1.00000E+01 1.06140E+02-1.50000E+00
 -1      1301 1.00000E+01 1.12039E+02-1.50000E+00
 -1      1302 1.00000E+01 1.10072E+02-1.50000E+00
 -1      1303 1.00000E+01 1.15972E+02-1.50000E+00
 -1      1304 1.00000E+01 1.14005E+02-1.50000E+00
 -1      1305 1.00000E+01 1.19905E+02-1.50000E+00
 -1      1306 1.00000E+01 1.17938E+02-1.50000E+00
 -1      1307 1.00000E+01 1.23837E+02-1.50000E+00
 -1      1308 1.00000E+01 1.21871E+02-1.50000E+00
 -1      1309 1.00000E+01 1.27770E+02-1.50000E+00
 -1      1310 1.00000E+01 1.25804E+02-1.50000E+00
 -1      1311 1.00000E+01 1.31703E+02-1.50000E+00
 -1      1312 1.00000E+01 1.29737E+02-1.50000E+00
 -1      1313 1.00000E+01 1.35636E+02-1.50000E+00
 -1      1314 1.00000E+01 1.33670E+02-1.50000E+00
 -1      1315 1.00000E+01 1.39569E+02-1.50000E+00
 -1      1316 1.00000E+01 1.37602E+02-1.50000E+00
 -1      1317 1.00000E+01 1.43502E+02-1.50000E+00
 -1      1318 1.00000E+01 1.41535E+02-1.50000E+00
 -1      1319 1.00000E+01 1.47435E+02-1.50000E+00
 -1      1320 1.00000E+01 1.45468E+02-1.50000E+00
 -1      1321 1.00000E+01 1.51367E+02-1.50000E+00
 -1      1322 1.00000E+01 1.49401E+02-1.50000E+00
 -1      1323 1.00000E+01 1.55300E+02-1.50000E+00
 -1      1324 1.00000E+01 1.53334E+02-1.50000E+00
 -1      1325 1.00000E+01 1.59233E+02-1.50000E+00
 -1      1326 1.00000E+01 1.57267E+02-1.50000E+00
 -1      1327 1.00000E+01 1.63166E+02-1.50000E+00
 -1      1328 1.00000E+01 1.61199E+02-1.50000E+00
 -1      1329 1.00000E+01 1.67099E+02-1.50000E+00
 -1      1330 1.00000E+01 1.65132E+02-1.50000E+00
 -1      1331 1.00000E+01 1.71032E+02-1.50000E+00
 -1      1332 1.00000E+01 1.69065E+02-1.50000E+00
 -1      1333 1.00000E+01 1.74964E+02-1.50000E+00
 -1      1334 1.00000E+01 1.72998E+02-1.50000E+00
 -1      1335 1.00000E+01 1.78897E+02-1.50000E+00
 -1      1336 1.00000E+01 1.76931E+02-1.50000E+00
 -1      1337 1.00000E+01 1.82830E+02-1.50000E+00
 -1      1338 1.00000E+01 1.80864E+02-1.50000E+00
 -1      1339 1.00000E+01 1.86763E+02-1.50000E+00
 -1      1340 1.00000E+01 1.84797E+02-1.50000E+00
 -1      1341 1.00000E+01 1.90696E+02-1.50000E+00
 -1      1342 1.00000E+01 1.88729E+02-1.50000E+00
 -1      1343 1.00000E+01 1.94629E+02-1.50000E+00
 -1      1344 1.00000E+01 1.92662E+02-1.50000E+00
 -1      1345 1.00000E+01 1.98562E+02-1.50000E+00
 -1      1346 1.00000E+01 1.96595E+02-1.50000E+00
 -1      1347 1.00000E+01 2.02494E+02-1.50000E+00
 -1      1348 1.00000E+01 2.00528E+02-1.50000E+00
 -1      1349 1.00000E+01 2.06427E+02-1.50000E+00
 -1      1350 1.00000E+01 2.04461E+02-1.50000E+00
 -1      1351 1.00000E+01 2.10360E+02-1.50000E+00
 -1      1352 1.00000E+01 2.08394E+02-1.50000E+00
 -1      1353 1.00000E+01 2.14234E+02-1.48744E+00
 -1      1354 1.00000E+01 2.12268E+02-1.48744E+00
 -1      1355 1.06143E+01 3.22595E+01 0.00000E+00
 -1      1356 1.15397E+01 2.88102E+01 0.00000E+00
 -1      1357 1.28273E+01 2.55840E+01 0.00000E+00
 -1      1358 1.00872E+01 3.60069E+01 0.00000E+00
 -1      1359 1.46398E+01 2.22705E+01-4.21885E-14
 -1      1360 1.00213E+01 3.71516E+01 0.00000E+00
 -1      1361 1.00213E+01 3.71516E+01-1.50000E+00
 -1      1362 1.01565E+01 3.52366E+01-1.50000E+00
 -1      1363 1.00213E+01 3.71516E+01 1.50000E+00
 -1      1364 1.01565E+01 3.52366E+01 1.50000E+00
 -1      1365 1.42346E+01 2.29301E+01-1.50000E+00
 -1      1366 1.52706E+01 2.13139E+01-1.50000E+00
 -1      1367 1.52706E+01 2.13139E+01-8.34888E-14
 -1      1368 1.52706E+01 2.13139E+01 1.50000E+00
 -1      1369 1.42346E+01 2.29301E+01 1.50000E+00
 -1      1370 1.24962E+01 2.63171E+01-1.50000E+00
 -1      1371 1.33187E+01 2.45825E+01-1.50000E+00
 -1      1372 1.36813E+01 2.38986E+01-2.13163E-14
 -1      1373 1.12432E+01 2.97512E+01-1.50000E+00
 -1      1374 1.18485E+01 2.79295E+01-1.50000E+00
 -1      1375 1.21367E+01 2.71784E+01 0.00000E+00
 -1      1376 1.04095E+01 3.33606E+01-1.50000E+00
 -1      1377 1.07857E+01 3.14781E+01-1.50000E+00
 -1      1378 1.10256E+01 3.05211E+01 0.00000E+00
 -1      1379 1.02920E+01 3.41249E+01 0.00000E+00
 -1      1380 1.33187E+01 2.45825E+01 1.50000E+00
 -1      1381 1.24962E+01 2.63171E+01 1.50000E+00
 -1      1382 1.18485E+01 2.79295E+01 1.50000E+00
 -1      1383 1.12432E+01 2.97512E+01 1.50000E+00
 -1      1384 1.07857E+01 3.14781E+01 1.50000E+00
 -1      1385 1.04095E+01 3.33606E+01 1.50000E+00
 -1      1386 1.04485E+01 2.23421E+02 3.10862E-15
 -1      1387 1.12205E+01 2.26090E+02 2.08722E-14
 -1      1388 1.16490E+01 2.27161E+02-1.50000E+00
 -1      1389 1.16490E+01 2.27161E+02 1.50000E+00
 -1      1390 1.00867E+01 2.21069E+02-9.96000E-01
 -1      1391 1.00862E+01 2.21064E+02 1.02000E+00
 -1      1392 1.00216E+01 2.20137E+02 5.10000E-01
 -1      1393 1.00216E+01 2.20137E+02 2.01000E+00
 -1      1394 1.01603E+01 2.21736E+02 2.01000E+00
 -1      1395 1.00217E+01 2.20140E+02-1.99800E+00
 -1      1396 1.00217E+01 2.20140E+02-4.98000E-01
 -1      1397 1.01606E+01 2.21739E+02-1.99800E+00
 -1      1398 1.19504E+01 2.27824E+02-2.25000E+00
 -1      1399 1.13173E+01 2.26348E+02-2.25000E+00
 -1      1400 1.19504E+01 2.27824E+02-7.50000E-01
 -1      1401 1.13173E+01 2.26348E+02 2.25000E+00
 -1      1402 1.19504E+01 2.27824E+02 2.25000E+00
 -1      1403 1.19504E+01 2.27824E+02 7.50000E-01
 -1      1404 1.00864E+01 2.21066E+02 1.20000E-02
 -1      1405 1.07068E+01 2.24479E+02-1.50000E+00
 -1      1406 1.03462E+01 2.22915E+02-1.50000E+00
 -1      1407 1.02324E+01 2.22250E+02-4.98000E-01
 -1      1408 1.11190E+01 2.25807E+02-1.50000E+00
 -1      1409 1.07882E+01 2.24769E+02 1.19904E-14
 -1      1410 1.14270E+01 2.26629E+02-7.50000E-01
 -1      1411 1.03462E+01 2.22915E+02 1.50000E+00
 -1      1412 1.07068E+01 2.24479E+02 1.50000E+00
 -1      1413 1.02321E+01 2.22248E+02 5.10000E-01
 -1      1414 1.11190E+01 2.25807E+02 1.50000E+00
 -1      1415 1.14270E+01 2.26629E+02 7.50000E-01
 -1      1416 1.17094E+01 2.27299E+02 9.32587E-15
 -1      1417-2.20349E-01 3.80445E+01-3.00000E+00
 -1      1418 8.41720E-02 4.82591E+01-3.00000E+00
 -1      1419 4.42130E-01 2.09550E+02-3.00000E+00
 -1      1420-2.25463E-02 1.97556E+02-3.00000E+00
 -1      1421-3.46542E-02 1.85721E+02-3.00000E+00
 -1      1422 3.88282E-02 1.73981E+02-3.00000E+00
 -1      1423 4.76967E-02 1.62183E+02-3.00000E+00
 -1      1424 5.86326E-02 1.50347E+02-3.00000E+00
 -1      1425 4.48030E-01 1.38542E+02-3.00000E+00
 -1      1426 6.68821E-01 1.26821E+02-3.00000E+00
 -1      1427 6.71505E-01 1.15019E+02-3.00000E+00
 -1      1428 6.73251E-01 1.03217E+02-3.00000E+00
 -1      1429 6.73924E-01 9.14145E+01-3.00000E+00
 -1      1430 7.68408E-02 5.84821E+01-3.00000E+00
 -1      1431 2.62208E-02 7.98003E+01-3.00000E+00
 -1      1432 3.75229E-01 6.86636E+01-3.00000E+00
 -1      1433-4.35250E+00 3.22904E+01-3.00000E+00
 -1      1434 3.81887E+00 3.21070E+01-3.00000E+00
 -1      1435 2.82121E+00 2.16342E+02-3.00000E+00
 -1      1436-3.32426E+00 8.59614E+01-3.00000E+00
 -1      1437-3.32339E+00 9.76940E+01-3.00000E+00
 -1      1438-3.32943E+00 1.09515E+02-3.00000E+00
 -1      1439-3.33628E+00 1.21337E+02-3.00000E+00
 -1      1440-3.14529E+00 1.32247E+02-3.00000E+00
 -1      1441-3.15541E+00 1.44097E+02-3.00000E+00
 -1      1442-3.16274E+00 1.55956E+02-3.00000E+00
 -1      1443-3.17021E+00 1.67815E+02-3.00000E+00
 -1      1444 3.26427E+00 2.03481E+02-3.00000E+00
 -1      1445 3.26776E+00 1.91682E+02-3.00000E+00
 -1      1446-3.14274E+00 1.79740E+02-3.00000E+00
 -1      1447 3.33743E+00 8.55758E+01-3.00000E+00
 -1      1448-4.58247E+00 2.17151E+02-3.00000E+00
 -1      1449-3.57434E+00 7.40106E+01-3.00000E+00
 -1      1450 3.34467E+00 9.73890E+01-3.00000E+00
 -1      1451 3.35106E+00 1.09201E+02-3.00000E+00
 -1      1452 3.35660E+00 1.21012E+02-3.00000E+00
 -1      1453 3.36128E+00 1.32822E+02-3.00000E+00
 -1      1454 3.36512E+00 1.44632E+02-3.00000E+00
 -1      1455 3.36811E+00 1.56440E+02-3.00000E+00
 -1      1456 3.37024E+00 1.68247E+02-3.00000E+00
 -1      1457 3.27107E+00 1.79983E+02-3.00000E+00
 -1      1458-3.20043E+00 1.91632E+02-3.00000E+00
 -1      1459-3.51579E+00 2.03960E+02-3.00000E+00
 -1      1460 3.46120E+00 7.39832E+01-3.00000E+00
 -1      1461 3.78660E+00 4.27749E+01-3.00000E+00
 -1      1462-3.79505E+00 4.32959E+01-3.00000E+00
 -1      1463 3.83210E+00 6.33254E+01-3.00000E+00
 -1      1464 3.74654E+00 5.33705E+01-3.00000E+00
 -1      1465-3.69310E+00 5.30099E+01-3.00000E+00
 -1      1466-3.77997E+00 6.34270E+01-3.00000E+00
 -1      1467-5.32273E+00 3.84676E+01-3.00000E+00
 -1      1468 5.02704E+00 3.74615E+01-3.00000E+00
 -1      1469-3.98998E+00 2.11243E+02-3.00000E+00
 -1      1470-5.11476E+00 1.25831E+02-3.00000E+00
 -1      1471-4.93208E+00 1.13571E+02-3.00000E+00
 -1      1472-5.13027E+00 1.37756E+02-3.00000E+00
 -1      1473-4.68400E+00 1.49833E+02-3.00000E+00
 -1      1474-4.92111E+00 1.01723E+02-3.00000E+00
 -1      1475 5.22365E+00 4.80706E+01-3.00000E+00
 -1      1476-4.69576E+00 1.61728E+02-3.00000E+00
 -1      1477-5.04418E+00 9.04206E+01-3.00000E+00
 -1      1478-4.70669E+00 1.73619E+02-3.00000E+00
 -1      1479 4.68983E+00 2.09470E+02-3.00000E+00
 -1      1480 5.20315E+00 1.97578E+02-3.00000E+00
 -1      1481-4.52544E+00 1.85592E+02-3.00000E+00
 -1      1482 4.49489E+00 1.85803E+02-3.00000E+00
 -1      1483 4.97301E+00 1.74004E+02-3.00000E+00
 -1      1484-4.71580E+00 1.97467E+02-3.00000E+00
 -1      1485 4.97654E+00 1.62205E+02-3.00000E+00
 -1      1486 4.97977E+00 1.50403E+02-3.00000E+00
 -1      1487 5.00556E+00 1.38602E+02-3.00000E+00
 -1      1488 4.82008E+00 1.26826E+02-3.00000E+00
 -1      1489 4.81997E+00 1.15024E+02-3.00000E+00
 -1      1490 4.81929E+00 1.03222E+02-3.00000E+00
 -1      1491 4.81801E+00 9.14188E+01-3.00000E+00
 -1      1492 5.23964E+00 7.95929E+01-3.00000E+00
 -1      1493-6.15793E+00 5.83934E+01-3.00000E+00
 -1      1494-5.00001E+00 7.83778E+01-3.00000E+00
 -1      1495 4.30150E+00 6.73555E+01-3.00000E+00
 -1      1496-4.80663E+00 4.79928E+01-3.00000E+00
 -1      1497-4.99160E+00 6.91232E+01-3.00000E+00
 -1      1498 4.83462E+00 5.81315E+01-3.00000E+00
 -1      1499-7.35654E+00 2.97014E+01-3.00000E+00
 -1      1500 5.52895E+00 2.19578E+02-3.00000E+00
 -1      1501-2.05523E-01 3.01176E+01-3.00000E+00
 -1      1502 6.79807E+00 2.93397E+01-3.00000E+00
 -1      1503-5.66122E+00 2.07423E+02-3.00000E+00
 -1      1504-7.14342E+00 3.52962E+01-3.00000E+00
 -1      1505-3.42396E-01 3.40717E+01-3.00000E+00
 -1      1506-7.10558E-02 2.19351E+02-3.00000E+00
 -1      1507-4.55684E-01 2.13371E+02-3.00000E+00
 -1      1508 6.54310E+00 2.13030E+02-3.00000E+00
 -1      1509-6.56817E+00 1.29438E+02-3.00000E+00
 -1      1510 1.92587E-01 4.22330E+01-3.00000E+00
 -1      1511-6.56805E+00 1.17629E+02-3.00000E+00
 -1      1512-6.57465E+00 1.41338E+02-3.00000E+00
 -1      1513-6.56386E+00 1.05749E+02-3.00000E+00
 -1      1514-6.57879E+00 9.39466E+01-3.00000E+00
 -1      1515-6.51398E+00 1.53270E+02-3.00000E+00
 -1      1516 1.15968E+01 2.46028E+01-3.00000E+00
 -1      1517-7.07048E+00 2.20570E+02-3.00000E+00
 -1      1518-6.51832E+00 1.65177E+02-3.00000E+00
 -1      1519-6.48704E+00 1.77148E+02-3.00000E+00
 -1      1520-6.49441E+00 1.89077E+02-3.00000E+00
 -1      1521-6.56335E+00 8.21122E+01-3.00000E+00
 -1      1522-6.61343E+00 2.00859E+02-3.00000E+00
 -1      1523-2.20046E-01 6.25680E+01-3.00000E+00
 -1      1524-1.64723E-01 5.23769E+01-3.00000E+00
 -1      1525 6.57716E+00 1.77528E+02-3.00000E+00
 -1      1526 6.59119E+00 1.65736E+02-3.00000E+00
 -1      1527 6.59034E+00 1.53934E+02-3.00000E+00
 -1      1528 6.59224E+00 1.42131E+02-3.00000E+00
 -1      1529 6.56232E+00 2.01066E+02-3.00000E+00
 -1      1530 6.56348E+00 1.30332E+02-3.00000E+00
 -1      1531 6.51337E+00 2.05870E+02-3.00000E+00
 -1      1532 6.46242E+00 1.89271E+02-3.00000E+00
 -1      1533 6.56073E+00 1.18529E+02-3.00000E+00
 -1      1534 6.57365E+00 1.94059E+02-3.00000E+00
 -1      1535 6.55742E+00 1.06725E+02-3.00000E+00
 -1      1536-1.10340E-01 1.89696E+02-3.00000E+00
 -1      1537 6.55355E+00 9.49203E+01-3.00000E+00
 -1      1538-8.48990E-02 2.01792E+02-3.00000E+00
 -1      1539 6.60962E+00 8.31123E+01-3.00000E+00
 -1      1540 6.28582E-02 1.78110E+02-3.00000E+00
 -1      1541 8.03085E-02 1.66281E+02-3.00000E+00
 -1      1542 8.67545E-02 1.54444E+02-3.00000E+00
 -1      1543 9.39919E-02 1.42493E+02-3.00000E+00
 -1      1544 8.47551E-02 1.30694E+02-3.00000E+00
 -1      1545 1.38929E-01 1.19076E+02-3.00000E+00
 -1      1546 1.35190E-01 1.07269E+02-3.00000E+00
 -1      1547 1.30116E-01 9.54615E+01-3.00000E+00
 -1      1548 3.76763E-02 8.37984E+01-3.00000E+00
 -1      1549 6.95097E-02 7.22668E+01-3.00000E+00
 -1      1550 2.54608E-01 8.75271E+01-3.00000E+00
 -1      1551 2.68551E-01 9.92958E+01-3.00000E+00
 -1      1552 6.54411E+00 8.79020E+01-3.00000E+00
 -1      1553 6.44975E+00 7.13382E+01-3.00000E+00
 -1      1554 2.66164E-01 1.11103E+02-3.00000E+00
 -1      1555 1.87127E-01 1.22914E+02-3.00000E+00
 -1      1556 6.53687E+00 9.97057E+01-3.00000E+00
 -1      1557 1.46013E-01 1.34355E+02-3.00000E+00
 -1      1558 7.66072E-02 1.46174E+02-3.00000E+00
 -1      1559 6.53790E+00 1.11509E+02-3.00000E+00
 -1      1560 6.76407E-02 1.58024E+02-3.00000E+00
 -1      1561 5.87713E-02 1.69848E+02-3.00000E+00
 -1      1562 1.34829E-02 1.93439E+02-3.00000E+00
 -1      1563 2.60221E-02 1.81661E+02-3.00000E+00
 -1      1564 6.53854E+00 1.23311E+02-3.00000E+00
 -1      1565 8.81360E-02 2.05513E+02-3.00000E+00
 -1      1566 6.56538E+00 1.35110E+02-3.00000E+00
 -1      1567 6.56553E+00 1.46911E+02-3.00000E+00
 -1      1568 6.56432E+00 1.58713E+02-3.00000E+00
 -1      1569 6.61507E+00 4.02528E+01-3.00000E+00
 -1      1570 6.56323E+00 1.70514E+02-3.00000E+00
 -1      1571 6.47766E+00 1.82303E+02-3.00000E+00
 -1      1572-3.93915E+00 2.88227E+01-3.00000E+00
 -1      1573-6.44937E+00 1.81989E+02-3.00000E+00
 -1      1574-6.73425E+00 4.15636E+01-3.00000E+00
 -1      1575-6.47867E+00 1.70064E+02-3.00000E+00
 -1      1576 6.55160E+00 7.61633E+01-3.00000E+00
 -1      1577-6.47048E+00 1.58170E+02-3.00000E+00
 -1      1578-6.55934E+00 1.93858E+02-3.00000E+00
 -1      1579 2.80812E+00 2.12353E+02-3.00000E+00
 -1      1580-6.47150E+00 1.46271E+02-3.00000E+00
 -1      1581 6.56352E+00 3.44275E+01-3.00000E+00
 -1      1582-6.52801E+00 1.34352E+02-3.00000E+00
 -1      1583-3.28742E+00 3.61127E+01-3.00000E+00
 -1      1584-6.44181E+00 6.56500E+01-3.00000E+00
 -1      1585-7.16340E+00 1.22393E+02-3.00000E+00
 -1      1586-7.12857E+00 1.10439E+02-3.00000E+00
 -1      1587 5.97613E-02 7.59119E+01-3.00000E+00
 -1      1588-7.12522E+00 9.85674E+01-3.00000E+00
 -1      1589 3.38341E+00 2.88278E+01-3.00000E+00
 -1      1590-7.14001E+00 8.67958E+01-3.00000E+00
 -1      1591 6.60320E+00 4.48278E+01-3.00000E+00
 -1      1592 6.66033E+00 5.13268E+01-3.00000E+00
 -1      1593-2.86671E+00 1.39988E+02-3.00000E+00
 -1      1594 2.87247E+00 3.96026E+01-3.00000E+00
 -1      1595-2.72282E+00 1.28322E+02-3.00000E+00
 -1      1596-1.00776E+01 2.74156E+01-3.00000E+00
 -1      1597-2.84307E+00 1.52770E+02-3.00000E+00
 -1      1598 6.94962E+00 5.50648E+01-3.00000E+00
 -1      1599-2.71204E+00 1.16623E+02-3.00000E+00
 -1      1600-2.85126E+00 1.64637E+02-3.00000E+00
 -1      1601-2.70607E+00 1.04797E+02-3.00000E+00
 -1      1602-7.73890E+00 2.17246E+02-3.00000E+00
 -1      1603-2.72639E+00 9.30752E+01-3.00000E+00
 -1      1604-2.84696E+00 1.76520E+02-3.00000E+00
 -1      1605-7.26422E+00 7.50152E+01-3.00000E+00
 -1      1606-6.79903E+00 6.21569E+01-3.00000E+00
 -1      1607-6.66140E+00 5.12656E+01-3.00000E+00
 -1      1608-2.61836E+00 4.01997E+01-3.00000E+00
 -1      1609-6.61738E+00 5.48558E+01-3.00000E+00
 -1      1610-6.95020E+00 4.51439E+01-3.00000E+00
 -1      1611-2.85540E+00 8.13574E+01-3.00000E+00
 -1      1612 7.19734E+00 6.43080E+01-3.00000E+00
 -1      1613 2.68463E+00 7.73161E+01-3.00000E+00
 -1      1614-2.87306E+00 1.88344E+02-3.00000E+00
 -1      1615-1.27853E+01 2.54812E+01-3.00000E+00
 -1      1616-2.99049E+00 2.00327E+02-3.00000E+00
 -1      1617 2.81602E+00 1.88434E+02-3.00000E+00
 -1      1618 2.98446E+00 2.00295E+02-3.00000E+00
 -1      1619 7.58721E+00 2.17243E+02-3.00000E+00
 -1      1620-1.12848E+00 4.52093E+01-3.00000E+00
 -1      1621 2.98920E+00 8.15327E+01-3.00000E+00
 -1      1622 3.10405E+00 9.41208E+01-3.00000E+00
 -1      1623 3.10724E+00 1.05927E+02-3.00000E+00
 -1      1624 3.10955E+00 1.17732E+02-3.00000E+00
 -1      1625 3.09968E+00 1.29499E+02-3.00000E+00
 -1      1626 3.10099E+00 1.41280E+02-3.00000E+00
 -1      1627 3.01672E+00 1.53114E+02-3.00000E+00
 -1      1628 3.01320E+00 1.64930E+02-3.00000E+00
 -1      1629 2.98458E+00 1.76721E+02-3.00000E+00
 -1      1630 2.35521E+00 3.60262E+01-3.00000E+00
 -1      1631 2.93144E+00 7.07215E+01-3.00000E+00
 -1      1632 3.12562E+00 8.87676E+01-3.00000E+00
 -1      1633 3.00710E+00 1.94863E+02-3.00000E+00
 -1      1634-2.29500E+00 6.64381E+01-3.00000E+00
 -1      1635-7.15809E+00 2.04569E+02-3.00000E+00
 -1      1636 2.99955E+00 2.06777E+02-3.00000E+00
 -1      1637 3.12853E+00 1.00566E+02-3.00000E+00
 -1      1638 3.12932E+00 1.12371E+02-3.00000E+00
 -1      1639 3.11423E+00 1.24177E+02-3.00000E+00
 -1      1640 2.72970E+00 5.02313E+01-3.00000E+00
 -1      1641 3.10525E+00 1.35886E+02-3.00000E+00
 -1      1642 3.00913E+00 1.47693E+02-3.00000E+00
 -1      1643 3.00486E+00 1.59513E+02-3.00000E+00
 -1      1644 3.00082E+00 1.71319E+02-3.00000E+00
 -1      1645 2.84700E+00 1.83094E+02-3.00000E+00
 -1      1646 2.49878E+00 4.59437E+01-3.00000E+00
 -1      1647 1.10291E+00 5.54020E+01-3.00000E+00
 -1      1648 1.21252E+00 6.55776E+01-3.00000E+00
 -1      1649-3.25345E+00 6.02230E+01-3.00000E+00
 -1      1650-2.67241E+00 5.61061E+01-3.00000E+00
 -1      1651 9.16523E+00 2.70072E+01-3.00000E+00
 -1      1652-8.30058E+00 2.23607E+02-3.00000E+00
 -1      1653 8.50913E+00 2.23568E+02-3.00000E+00
 -1      1654 7.94804E+00 2.21010E+02-3.00000E+00
 -1      1655-2.89693E+00 1.94790E+02-3.00000E+00
 -1      1656-2.82524E+00 1.82941E+02-3.00000E+00
 -1      1657-2.61234E+00 5.02782E+01-3.00000E+00
 -1      1658-3.46089E+00 2.20119E+02-3.00000E+00
 -1      1659-6.70384E+00 2.13818E+02-3.00000E+00
 -1      1660-2.85159E+00 1.71065E+02-3.00000E+00
 -1      1661-8.34532E+00 3.23648E+01-3.00000E+00
 -1      1662 2.70324E+00 6.04927E+01-3.00000E+00
 -1      1663 7.08463E+00 6.07209E+01-3.00000E+00
 -1      1664-2.84273E+00 1.59212E+02-3.00000E+00
 -1      1665-8.00200E+00 3.86176E+01-3.00000E+00
 -1      1666-2.44204E+00 2.07456E+02-3.00000E+00
 -1      1667-2.83513E+00 1.47344E+02-3.00000E+00
 -1      1668-2.87259E+00 1.35834E+02-3.00000E+00
 -1      1669-7.20585E+00 2.10159E+02-3.00000E+00
 -1      1670-9.72159E+00 2.24353E+02-3.00000E+00
 -1      1671 9.77373E+00 2.24343E+02-3.00000E+00
 -1      1672 7.98003E+00 3.20333E+01-3.00000E+00
 -1      1673 2.62412E+00 2.20216E+02-3.00000E+00
 -1      1674-2.06358E+00 1.25045E+02-3.00000E+00
 -1      1675-7.16861E+00 7.15616E+01-3.00000E+00
 -1      1676-2.00718E+00 1.13166E+02-3.00000E+00
 -1      1677-2.00175E+00 1.01345E+02-3.00000E+00
 -1      1678-2.08324E+00 7.01005E+01-3.00000E+00
 -1      1679-2.03326E+00 8.96798E+01-3.00000E+00
 -1      1680-7.83593E+00 7.81557E+01-3.00000E+00
 -1      1681-1.26266E+00 2.16469E+02-3.00000E+00
 -1      1682 7.64779E+00 3.68741E+01-3.00000E+00
 -1      1683-7.90829E+00 9.00757E+01-3.00000E+00
 -1      1684-7.92804E+00 1.01996E+02-3.00000E+00
 -1      1685 7.69109E+00 6.77399E+01-3.00000E+00
 -1      1686-7.94604E+00 1.13916E+02-3.00000E+00
 -1      1687-7.96133E+00 1.25836E+02-3.00000E+00
 -1      1688-3.39893E+00 2.14410E+02-3.00000E+00
 -1      1689-7.97038E+00 1.37756E+02-3.00000E+00
 -1      1690-2.26875E+00 7.78916E+01-3.00000E+00
 -1      1691-7.75143E+00 1.49711E+02-3.00000E+00
 -1      1692-7.75641E+00 1.61625E+02-3.00000E+00
 -1      1693 7.77065E+00 2.09401E+02-3.00000E+00
 -1      1694 8.00463E+00 1.97578E+02-3.00000E+00
 -1      1695-7.75830E+00 1.73545E+02-3.00000E+00
 -1      1696 7.63579E+00 1.85785E+02-3.00000E+00
 -1      1697 7.90968E+00 1.73987E+02-3.00000E+00
 -1      1698 8.01624E+00 4.81301E+01-3.00000E+00
 -1      1699-7.63767E+00 1.85486E+02-3.00000E+00
 -1      1700 7.91265E+00 1.62188E+02-3.00000E+00
 -1      1701 7.91466E+00 1.50389E+02-3.00000E+00
 -1      1702-7.78572E+00 1.97368E+02-3.00000E+00
 -1      1703 7.91776E+00 1.38590E+02-3.00000E+00
 -1      1704 7.79782E+00 1.26798E+02-3.00000E+00
 -1      1705 7.79835E+00 1.14998E+02-3.00000E+00
 -1      1706-1.13913E+01 2.53371E+01-3.00000E+00
 -1      1707 7.79860E+00 1.03198E+02-3.00000E+00
 -1      1708 7.79948E+00 9.13983E+01-3.00000E+00
 -1      1709 8.02597E+00 7.95929E+01-3.00000E+00
 -1      1710 8.30753E+00 3.92754E+01-3.00000E+00
 -1      1711 8.30753E+00 4.12418E+01-3.00000E+00
 -1      1712 8.94670E+00 3.56713E+01-3.00000E+00
 -1      1713 8.82389E+00 3.75860E+01-3.00000E+00
 -1      1714 7.13143E+00 3.85634E+01-3.00000E+00
 -1      1715 8.79361E+00 2.16259E+02-3.00000E+00
 -1      1716 8.79361E+00 2.18226E+02-3.00000E+00
 -1      1717 8.97402E+00 2.20109E+02-3.00000E+00
 -1      1718 9.10258E+00 2.21708E+02-3.00000E+00
 -1      1719 7.76762E+00 2.19126E+02-3.00000E+00
 -1      1720 1.32680E+01 2.29974E+01-3.00000E+00
 -1      1721 1.01643E+01 2.25698E+02-3.00000E+00
 -1      1722-1.38579E+01 2.40308E+01-3.00000E+00
 -1      1723-1.01643E+01 2.25698E+02-3.00000E+00
 -1      1724-8.66380E+00 2.21488E+02-3.00000E+00
 -1      1725-8.53524E+00 2.19890E+02-3.00000E+00
 -1      1726-8.86945E+00 2.18227E+02-3.00000E+00
 -1      1727-8.86945E+00 2.16241E+02-3.00000E+00
 -1      1728-7.40469E+00 2.18908E+02-3.00000E+00
 -1      1729-8.36712E+00 4.29730E+01-3.00000E+00
 -1      1730-8.36712E+00 4.09863E+01-3.00000E+00
 -1      1731-9.00100E+00 3.95133E+01-3.00000E+00
 -1      1732-9.09473E+00 3.78390E+01-3.00000E+00
 -1      1733-7.36813E+00 4.00906E+01-3.00000E+00
 -1      1734 8.30160E+00 4.35293E+01-3.00000E+00
 -1      1735 8.30160E+00 4.54958E+01-3.00000E+00
 -1      1736 6.60913E+00 4.25403E+01-3.00000E+00
 -1      1737 9.00812E+00 4.71469E+01-3.00000E+00
 -1      1738 9.00812E+00 4.91133E+01-3.00000E+00
 -1      1739 7.30972E+00 4.64790E+01-3.00000E+00
 -1      1740 8.33016E+00 5.07117E+01-3.00000E+00
 -1      1741 8.33016E+00 5.26781E+01-3.00000E+00
 -1      1742 7.33829E+00 4.97285E+01-3.00000E+00
 -1      1743 8.47481E+00 5.45471E+01-3.00000E+00
 -1      1744 8.47481E+00 5.65135E+01-3.00000E+00
 -1      1745 6.80498E+00 5.31958E+01-3.00000E+00
 -1      1746 8.54231E+00 5.93416E+01-3.00000E+00
 -1      1747 8.54231E+00 6.13080E+01-3.00000E+00
 -1      1748 5.89212E+00 5.65982E+01-3.00000E+00
 -1      1749 7.41731E+00 5.80469E+01-3.00000E+00
 -1      1750 5.95962E+00 5.94262E+01-3.00000E+00
 -1      1751 8.59867E+00 6.31015E+01-3.00000E+00
 -1      1752 8.59867E+00 6.50679E+01-3.00000E+00
 -1      1753 7.14098E+00 6.25144E+01-3.00000E+00
 -1      1754 8.84555E+00 6.67839E+01-3.00000E+00
 -1      1755 8.84555E+00 6.87503E+01-3.00000E+00
 -1      1756 7.44422E+00 6.60239E+01-3.00000E+00
 -1      1757 8.22488E+00 7.05495E+01-3.00000E+00
 -1      1758 8.22488E+00 7.25159E+01-3.00000E+00
 -1      1759 7.07042E+00 6.95390E+01-3.00000E+00
 -1      1760 8.27580E+00 7.49285E+01-3.00000E+00
 -1      1761 8.27580E+00 7.68949E+01-3.00000E+00
 -1      1762 6.50067E+00 7.37507E+01-3.00000E+00
 -1      1763 9.01298E+00 7.86097E+01-3.00000E+00
 -1      1764 9.01298E+00 8.05761E+01-3.00000E+00
 -1      1765 7.28878E+00 7.78781E+01-3.00000E+00
 -1      1766 8.30481E+00 8.23358E+01-3.00000E+00
 -1      1767 8.30481E+00 8.43022E+01-3.00000E+00
 -1      1768 7.31780E+00 8.13526E+01-3.00000E+00
 -1      1769 8.27205E+00 8.66971E+01-3.00000E+00
 -1      1770 8.27205E+00 8.86635E+01-3.00000E+00
 -1      1771 6.57687E+00 8.55071E+01-3.00000E+00
 -1      1772 8.89974E+00 9.04116E+01-3.00000E+00
 -1      1773 8.89974E+00 9.23781E+01-3.00000E+00
 -1      1774 7.17179E+00 8.96501E+01-3.00000E+00
 -1      1775 8.27677E+00 9.41391E+01-3.00000E+00
 -1      1776 8.27677E+00 9.61055E+01-3.00000E+00
 -1      1777 7.17651E+00 9.31593E+01-3.00000E+00
 -1      1778 8.26844E+00 9.84982E+01-3.00000E+00
 -1      1779 8.26844E+00 1.00465E+02-3.00000E+00
 -1      1780 6.54521E+00 9.73130E+01-3.00000E+00
 -1      1781 8.89930E+00 1.02211E+02-3.00000E+00
 -1      1782 8.89930E+00 1.04177E+02-3.00000E+00
 -1      1783 7.16774E+00 1.01452E+02-3.00000E+00
 -1      1784 8.27871E+00 1.05941E+02-3.00000E+00
 -1      1785 8.27871E+00 1.07907E+02-3.00000E+00
 -1      1786 7.17801E+00 1.04962E+02-3.00000E+00
 -1      1787 8.26895E+00 1.10299E+02-3.00000E+00
 -1      1788 8.26895E+00 1.12265E+02-3.00000E+00
 -1      1789 6.54766E+00 1.09117E+02-3.00000E+00
 -1      1790 8.89917E+00 1.14010E+02-3.00000E+00
 -1      1791 8.89917E+00 1.15977E+02-3.00000E+00
 -1      1792 7.16812E+00 1.13253E+02-3.00000E+00
 -1      1793 8.28036E+00 1.17742E+02-3.00000E+00
 -1      1794 8.28036E+00 1.19708E+02-3.00000E+00
 -1      1795 7.17954E+00 1.16763E+02-3.00000E+00
 -1      1796 8.26927E+00 1.22099E+02-3.00000E+00
 -1      1797 8.26927E+00 1.24066E+02-3.00000E+00
 -1      1798 6.54964E+00 1.20920E+02-3.00000E+00
 -1      1799 8.89891E+00 1.25809E+02-3.00000E+00
 -1      1800 8.89891E+00 1.27776E+02-3.00000E+00
 -1      1801 7.16818E+00 1.25055E+02-3.00000E+00
 -1      1802 8.28174E+00 1.29543E+02-3.00000E+00
 -1      1803 8.28174E+00 1.31509E+02-3.00000E+00
 -1      1804 7.18065E+00 1.28565E+02-3.00000E+00
 -1      1805 8.28269E+00 1.33898E+02-3.00000E+00
 -1      1806 8.28269E+00 1.35864E+02-3.00000E+00
 -1      1807 6.56443E+00 1.32721E+02-3.00000E+00
 -1      1808 8.95888E+00 1.37605E+02-3.00000E+00
 -1      1809 8.95888E+00 1.39571E+02-3.00000E+00
 -1      1810 7.24157E+00 1.36850E+02-3.00000E+00
 -1      1811 8.29612E+00 1.41342E+02-3.00000E+00
 -1      1812 8.29612E+00 1.43308E+02-3.00000E+00
 -1      1813 7.25500E+00 1.40361E+02-3.00000E+00
 -1      1814 8.28277E+00 1.45698E+02-3.00000E+00
 -1      1815 8.28277E+00 1.47664E+02-3.00000E+00
 -1      1816 6.57889E+00 1.44521E+02-3.00000E+00
 -1      1817 8.95733E+00 1.49403E+02-3.00000E+00
 -1      1818 8.95733E+00 1.51370E+02-3.00000E+00
 -1      1819 7.24010E+00 1.48650E+02-3.00000E+00
 -1      1820 8.29517E+00 1.53142E+02-3.00000E+00
 -1      1821 8.29517E+00 1.55109E+02-3.00000E+00
 -1      1822 7.25250E+00 1.52161E+02-3.00000E+00
 -1      1823 8.28216E+00 1.57498E+02-3.00000E+00
 -1      1824 8.28216E+00 1.59464E+02-3.00000E+00
 -1      1825 6.57733E+00 1.56323E+02-3.00000E+00
 -1      1826 8.95632E+00 1.61202E+02-3.00000E+00
 -1      1827 8.95632E+00 1.63169E+02-3.00000E+00
 -1      1828 7.23848E+00 1.60450E+02-3.00000E+00
 -1      1829 8.29559E+00 1.64943E+02-3.00000E+00
 -1      1830 8.29559E+00 1.66909E+02-3.00000E+00
 -1      1831 7.25192E+00 1.63962E+02-3.00000E+00
 -1      1832 8.28162E+00 1.69298E+02-3.00000E+00
 -1      1833 8.28162E+00 1.71264E+02-3.00000E+00
 -1      1834 6.57721E+00 1.68125E+02-3.00000E+00
 -1      1835 8.95484E+00 1.73001E+02-3.00000E+00
 -1      1836 8.95484E+00 1.74967E+02-3.00000E+00
 -1      1837 7.23646E+00 1.72250E+02-3.00000E+00
 -1      1838 8.28858E+00 1.76738E+02-3.00000E+00
 -1      1839 8.28858E+00 1.78704E+02-3.00000E+00
 -1      1840 7.24342E+00 1.75757E+02-3.00000E+00
 -1      1841 8.23883E+00 1.81092E+02-3.00000E+00
 -1      1842 8.23883E+00 1.83058E+02-3.00000E+00
 -1      1843 6.52741E+00 1.79915E+02-3.00000E+00
 -1      1844 8.81789E+00 1.84799E+02-3.00000E+00
 -1      1845 8.81789E+00 1.86766E+02-3.00000E+00
 -1      1846 7.05672E+00 1.84044E+02-3.00000E+00
 -1      1847 8.23121E+00 1.88508E+02-3.00000E+00
 -1      1848 8.23121E+00 1.90475E+02-3.00000E+00
 -1      1849 7.04911E+00 1.87528E+02-3.00000E+00
 -1      1850 8.28683E+00 1.92869E+02-3.00000E+00
 -1      1851 8.28683E+00 1.94835E+02-3.00000E+00
 -1      1852 6.51804E+00 1.91665E+02-3.00000E+00
 -1      1853 9.00232E+00 1.96595E+02-3.00000E+00
 -1      1854 9.00232E+00 1.98562E+02-3.00000E+00
 -1      1855 7.28914E+00 1.95818E+02-3.00000E+00
 -1      1856 8.28116E+00 2.00305E+02-3.00000E+00
 -1      1857 8.28116E+00 2.02272E+02-3.00000E+00
 -1      1858 7.28348E+00 1.99322E+02-3.00000E+00
 -1      1859 8.25669E+00 2.04674E+02-3.00000E+00
 -1      1860 8.25669E+00 2.06640E+02-3.00000E+00
 -1      1861 6.53785E+00 2.03468E+02-3.00000E+00
 -1      1862 8.88533E+00 2.08406E+02-3.00000E+00
 -1      1863 8.88533E+00 2.10372E+02-3.00000E+00
 -1      1864 7.14201E+00 2.07636E+02-3.00000E+00
 -1      1865 8.27155E+00 2.12187E+02-3.00000E+00
 -1      1866 8.27155E+00 2.14153E+02-3.00000E+00
 -1      1867 7.15688E+00 2.11216E+02-3.00000E+00
 -1      1868 7.06516E+00 2.15136E+02-3.00000E+00
 -1      1869 1.27218E+01 2.41014E+01-3.00000E+00
 -1      1870 1.18908E+01 2.58308E+01-3.00000E+00
 -1      1871 1.21430E+01 2.34989E+01-3.00000E+00
 -1      1872 1.06750E+01 2.70330E+01-3.00000E+00
 -1      1873 1.00715E+01 2.88543E+01-3.00000E+00
 -1      1874 1.03810E+01 2.58050E+01-3.00000E+00
 -1      1875 9.47893E+00 3.13674E+01-3.00000E+00
 -1      1876 9.11283E+00 3.32509E+01-3.00000E+00
 -1      1877 7.98165E+00 2.81734E+01-3.00000E+00
 -1      1878 8.88795E+00 3.00206E+01-3.00000E+00
 -1      1879 7.38905E+00 3.06865E+01-3.00000E+00
 -1      1880 7.27178E+00 3.32304E+01-3.00000E+00
 -1      1881 8.40457E+00 3.44480E+01-3.00000E+00
 -1      1882 7.10565E+00 3.56508E+01-3.00000E+00
 -1      1883 1.00154E+01 2.23375E+02-3.00000E+00
 -1      1884 1.03978E+01 2.24932E+02-3.00000E+00
 -1      1885 8.22858E+00 2.22289E+02-3.00000E+00
 -1      1886 9.38313E+00 2.22987E+02-3.00000E+00
 -1      1887 9.14143E+00 2.23955E+02-3.00000E+00
 -1      1888 9.54023E+00 2.25109E+02-3.00000E+00
 -1      1889 1.04049E+01 2.42923E+01-3.00000E+00
 -1      1890 7.36518E+00 2.60636E+01-3.00000E+00
 -1      1891 9.18913E+00 2.54945E+01-3.00000E+00
 -1      1892 2.59356E+00 2.73109E+01-3.00000E+00
 -1      1893 4.47426E+00 2.69740E+01-3.00000E+00
 -1      1894 5.09074E+00 2.90838E+01-3.00000E+00
 -1      1895 6.18160E+00 2.72299E+01-3.00000E+00
 -1      1896-1.10909E+00 2.80526E+01-3.00000E+00
 -1      1897 7.99094E-01 2.79558E+01-3.00000E+00
 -1      1898 1.58894E+00 2.94727E+01-3.00000E+00
 -1      1899-4.88055E+00 2.72547E+01-3.00000E+00
 -1      1900-2.97590E+00 2.74051E+01-3.00000E+00
 -1      1901-2.07234E+00 2.94702E+01-3.00000E+00
 -1      1902-9.81738E+00 2.61488E+01-3.00000E+00
 -1      1903-7.94977E+00 2.65512E+01-3.00000E+00
 -1      1904-6.58924E+00 2.76941E+01-3.00000E+00
 -1      1905-5.64785E+00 2.92621E+01-3.00000E+00
 -1      1906-8.71707E+00 2.85585E+01-3.00000E+00
 -1      1907-1.22683E+01 2.44533E+01-3.00000E+00
 -1      1908-1.04743E+01 2.51095E+01-3.00000E+00
 -1      1909-1.07345E+01 2.63763E+01-3.00000E+00
 -1      1910-1.36779E+01 2.49867E+01-3.00000E+00
 -1      1911-1.29653E+01 2.45254E+01-3.00000E+00
 -1      1912-1.20883E+01 2.54091E+01-3.00000E+00
 -1      1913 8.90793E+00 2.24722E+02-3.00000E+00
 -1      1914 7.15747E+00 2.23812E+02-3.00000E+00
 -1      1915 4.21496E+00 2.22136E+02-3.00000E+00
 -1      1916 2.29850E+00 2.21667E+02-3.00000E+00
 -1      1917 6.87692E+00 2.22532E+02-3.00000E+00
 -1      1918 6.73850E+00 2.20294E+02-3.00000E+00
 -1      1919 5.66738E+00 2.21816E+02-3.00000E+00
 -1      1920 4.07654E+00 2.19897E+02-3.00000E+00
 -1      1921 9.50909E-01 2.21235E+02-3.00000E+00
 -1      1922-1.02197E+00 2.21235E+02-3.00000E+00
 -1      1923 1.27653E+00 2.19784E+02-3.00000E+00
 -1      1924-2.71688E+00 2.21619E+02-3.00000E+00
 -1      1925-4.63335E+00 2.22087E+02-3.00000E+00
 -1      1926-1.76597E+00 2.19735E+02-3.00000E+00
 -1      1927-7.05319E+00 2.23831E+02-3.00000E+00
 -1      1928-8.80365E+00 2.24741E+02-3.00000E+00
 -1      1929-6.43814E+00 2.22313E+02-3.00000E+00
 -1      1930-7.68553E+00 2.22089E+02-3.00000E+00
 -1      1931-5.26568E+00 2.20345E+02-3.00000E+00
 -1      1932-9.51416E+00 2.25114E+02-3.00000E+00
 -1      1933-1.03718E+01 2.24937E+02-3.00000E+00
 -1      1934-9.01108E+00 2.23980E+02-3.00000E+00
 -1      1935-9.98936E+00 2.23380E+02-3.00000E+00
 -1      1936-9.27885E+00 2.23007E+02-3.00000E+00
 -1      1937-8.35192E+00 2.14527E+02-3.00000E+00
 -1      1938-8.35192E+00 2.12540E+02-3.00000E+00
 -1      1939-7.22137E+00 2.15532E+02-3.00000E+00
 -1      1940-8.60292E+00 2.10711E+02-3.00000E+00
 -1      1941-8.60292E+00 2.08724E+02-3.00000E+00
 -1      1942-6.95484E+00 2.11989E+02-3.00000E+00
 -1      1943-8.57904E+00 2.05929E+02-3.00000E+00
 -1      1944-8.57904E+00 2.03942E+02-3.00000E+00
 -1      1945-7.83061E+00 2.07356E+02-3.00000E+00
 -1      1946-6.40965E+00 2.05996E+02-3.00000E+00
 -1      1947-6.43353E+00 2.08791E+02-3.00000E+00
 -1      1948-8.30672E+00 2.02087E+02-3.00000E+00
 -1      1949-8.30672E+00 2.00100E+02-3.00000E+00
 -1      1950-6.88576E+00 2.02714E+02-3.00000E+00
 -1      1951-8.89286E+00 1.98355E+02-3.00000E+00
 -1      1952-8.89286E+00 1.96368E+02-3.00000E+00
 -1      1953-7.19957E+00 1.99113E+02-3.00000E+00
 -1      1954-8.27967E+00 1.94614E+02-3.00000E+00
 -1      1955-8.27967E+00 1.92627E+02-3.00000E+00
 -1      1956-7.17253E+00 1.95613E+02-3.00000E+00
 -1      1957-8.24720E+00 1.90236E+02-3.00000E+00
 -1      1958-8.24720E+00 1.88250E+02-3.00000E+00
 -1      1959-6.52688E+00 1.91468E+02-3.00000E+00
 -1      1960-8.81883E+00 1.86454E+02-3.00000E+00
 -1      1961-8.81883E+00 1.84467E+02-3.00000E+00
 -1      1962-7.06604E+00 1.87281E+02-3.00000E+00
 -1      1963-8.22468E+00 1.82719E+02-3.00000E+00
 -1      1964-8.22468E+00 1.80732E+02-3.00000E+00
 -1      1965-7.04352E+00 1.83737E+02-3.00000E+00
 -1      1966-8.24352E+00 1.78312E+02-3.00000E+00
 -1      1967-8.24352E+00 1.76325E+02-3.00000E+00
 -1      1968-6.46821E+00 1.79569E+02-3.00000E+00
 -1      1969-8.87915E+00 1.74523E+02-3.00000E+00
 -1      1970-8.87915E+00 1.72537E+02-3.00000E+00
 -1      1971-7.12267E+00 1.75347E+02-3.00000E+00
 -1      1972-8.23934E+00 1.70796E+02-3.00000E+00
 -1      1973-8.23934E+00 1.68810E+02-3.00000E+00
 -1      1974-7.11849E+00 1.71804E+02-3.00000E+00
 -1      1975-8.25916E+00 1.66366E+02-3.00000E+00
 -1      1976-8.25916E+00 1.64379E+02-3.00000E+00
 -1      1977-6.49850E+00 1.67620E+02-3.00000E+00
 -1      1978-8.87820E+00 1.62604E+02-3.00000E+00
 -1      1979-8.87820E+00 1.60617E+02-3.00000E+00
 -1      1980-7.13736E+00 1.63401E+02-3.00000E+00
 -1      1981-8.23524E+00 1.58889E+02-3.00000E+00
 -1      1982-8.23524E+00 1.56903E+02-3.00000E+00
 -1      1983-7.11344E+00 1.59897E+02-3.00000E+00
 -1      1984-8.25699E+00 1.54453E+02-3.00000E+00
 -1      1985-8.25699E+00 1.52466E+02-3.00000E+00
 -1      1986-6.49223E+00 1.55720E+02-3.00000E+00
 -1      1987-8.87571E+00 1.50687E+02-3.00000E+00
 -1      1988-8.87571E+00 1.48700E+02-3.00000E+00
 -1      1989-7.13270E+00 1.51491E+02-3.00000E+00
 -1      1990-8.23575E+00 1.46980E+02-3.00000E+00
 -1      1991-8.23575E+00 1.44993E+02-3.00000E+00
 -1      1992-7.11147E+00 1.47991E+02-3.00000E+00
 -1      1993-8.28733E+00 1.42527E+02-3.00000E+00
 -1      1994-8.28733E+00 1.40540E+02-3.00000E+00
 -1      1995-6.52308E+00 1.43805E+02-3.00000E+00
 -1      1996-8.98519E+00 1.38749E+02-3.00000E+00
 -1      1997-8.98519E+00 1.36762E+02-3.00000E+00
 -1      1998-7.27251E+00 1.39547E+02-3.00000E+00
 -1      1999-8.26400E+00 1.35061E+02-3.00000E+00
 -1      2000-8.26400E+00 1.33074E+02-3.00000E+00
 -1      2001-7.24919E+00 1.36054E+02-3.00000E+00
 -1      2002-8.28409E+00 1.30617E+02-3.00000E+00
 -1      2003-8.28409E+00 1.28630E+02-3.00000E+00
 -1      2004-6.54809E+00 1.31895E+02-3.00000E+00
 -1      2005-8.98067E+00 1.26829E+02-3.00000E+00
 -1      2006-8.98067E+00 1.24842E+02-3.00000E+00
 -1      2007-7.26475E+00 1.27637E+02-3.00000E+00
 -1      2008-8.58170E+00 1.23121E+02-3.00000E+00
 -1      2009-8.58170E+00 1.21134E+02-3.00000E+00
 -1      2010-7.56237E+00 1.24114E+02-3.00000E+00
 -1      2011-8.28402E+00 1.18752E+02-3.00000E+00
 -1      2012-8.28402E+00 1.16766E+02-3.00000E+00
 -1      2013-6.86573E+00 1.20011E+02-3.00000E+00
 -1      2014-8.97302E+00 1.14909E+02-3.00000E+00
 -1      2015-8.97302E+00 1.12922E+02-3.00000E+00
 -1      2016-7.25705E+00 1.15772E+02-3.00000E+00
 -1      2017-8.56429E+00 1.11184E+02-3.00000E+00
 -1      2018-8.56429E+00 1.09197E+02-3.00000E+00
 -1      2019-7.53731E+00 1.12177E+02-3.00000E+00
 -1      2020-8.28193E+00 1.06852E+02-3.00000E+00
 -1      2021-8.28193E+00 1.04866E+02-3.00000E+00
 -1      2022-6.84622E+00 1.08094E+02-3.00000E+00
 -1      2023-8.96402E+00 1.02989E+02-3.00000E+00
 -1      2024-8.96402E+00 1.01002E+02-3.00000E+00
 -1      2025-7.24595E+00 1.03872E+02-3.00000E+00
 -1      2026-8.56261E+00 9.92882E+01-3.00000E+00
 -1      2027-8.56261E+00 9.73015E+01-3.00000E+00
 -1      2028-7.52663E+00 1.00282E+02-3.00000E+00
 -1      2029-8.28939E+00 9.49911E+01-3.00000E+00
 -1      2030-8.28939E+00 9.30045E+01-3.00000E+00
 -1      2031-6.85200E+00 9.62570E+01-3.00000E+00
 -1      2032-8.95415E+00 9.10690E+01-3.00000E+00
 -1      2033-8.95415E+00 8.90823E+01-3.00000E+00
 -1      2034-7.24354E+00 9.20111E+01-3.00000E+00
 -1      2035-8.57001E+00 8.74424E+01-3.00000E+00
 -1      2036-8.57001E+00 8.54557E+01-3.00000E+00
 -1      2037-7.52415E+00 8.84357E+01-3.00000E+00
 -1      2038-8.28168E+00 8.31139E+01-3.00000E+00
 -1      2039-8.28168E+00 8.11273E+01-3.00000E+00
 -1      2040-6.85169E+00 8.44540E+01-3.00000E+00
 -1      2041-8.91796E+00 7.91490E+01-3.00000E+00
 -1      2042-8.91796E+00 7.71623E+01-3.00000E+00
 -1      2043-7.19964E+00 8.01339E+01-3.00000E+00
 -1      2044-8.63211E+00 7.55921E+01-3.00000E+00
 -1      2045-8.63211E+00 7.36054E+01-3.00000E+00
 -1      2046-7.55008E+00 7.65854E+01-3.00000E+00
 -1      2047-8.58430E+00 7.18787E+01-3.00000E+00
 -1      2048-8.58430E+00 6.98920E+01-3.00000E+00
 -1      2049-7.21642E+00 7.32884E+01-3.00000E+00
 -1      2050-8.22090E+00 6.69362E+01-3.00000E+00
 -1      2051-8.22090E+00 6.49495E+01-3.00000E+00
 -1      2052-7.49580E+00 6.86728E+01-3.00000E+00
 -1      2053-5.71670E+00 6.73866E+01-3.00000E+00
 -1      2054-6.08010E+00 7.03424E+01-3.00000E+00
 -1      2055-8.39952E+00 6.32030E+01-3.00000E+00
 -1      2056-8.39952E+00 6.12163E+01-3.00000E+00
 -1      2057-6.62042E+00 6.39035E+01-3.00000E+00
 -1      2058-8.07897E+00 5.93345E+01-3.00000E+00
 -1      2059-8.07897E+00 5.73479E+01-3.00000E+00
 -1      2060-6.47848E+00 6.02752E+01-3.00000E+00
 -1      2061-8.30869E+00 5.55791E+01-3.00000E+00
 -1      2062-8.30869E+00 5.35924E+01-3.00000E+00
 -1      2063-6.38765E+00 5.66246E+01-3.00000E+00
 -1      2064-8.33070E+00 5.17973E+01-3.00000E+00
 -1      2065-8.33070E+00 4.98106E+01-3.00000E+00
 -1      2066-6.63939E+00 5.30607E+01-3.00000E+00
 -1      2067-8.47510E+00 4.67498E+01-3.00000E+00
 -1      2068-8.47510E+00 4.47631E+01-3.00000E+00
 -1      2069-5.73402E+00 4.96292E+01-3.00000E+00
 -1      2070-7.40332E+00 4.81742E+01-3.00000E+00
 -1      2071-5.87842E+00 4.65684E+01-3.00000E+00
 -1      2072-6.84223E+00 4.33537E+01-3.00000E+00
 -1      2073-8.66544E+00 3.61783E+01-3.00000E+00
 -1      2074-8.94570E+00 3.45250E+01-3.00000E+00
 -1      2075-7.57271E+00 3.69569E+01-3.00000E+00
 -1      2076-9.54665E+00 3.30593E+01-3.00000E+00
 -1      2077-1.00095E+01 3.14476E+01-3.00000E+00
 -1      2078-7.74437E+00 3.38305E+01-3.00000E+00
 -1      2079-1.08757E+01 2.89730E+01-3.00000E+00
 -1      2080-1.15152E+01 2.74228E+01-3.00000E+00
 -1      2081-9.51513E+00 3.01159E+01-3.00000E+00
 -1      2082-7.85093E+00 3.10331E+01-3.00000E+00
 -1      2083-1.28691E+01 2.64556E+01-3.00000E+00
 -1      2084-1.14315E+01 2.64484E+01-3.00000E+00
 -1      2085-2.81373E-01 3.60581E+01-3.00000E+00
 -1      2086-1.81491E+00 3.50922E+01-3.00000E+00
 -1      2087-1.75389E+00 3.70786E+01-3.00000E+00
 -1      2088 1.06743E+00 3.70353E+01-3.00000E+00
 -1      2089 1.00641E+00 3.50490E+01-3.00000E+00
 -1      2090-1.38811E-02 4.01387E+01-3.00000E+00
 -1      2091 1.53253E+00 4.09178E+01-3.00000E+00
 -1      2092 1.32606E+00 3.88236E+01-3.00000E+00
 -1      2093-1.41936E+00 3.91221E+01-3.00000E+00
 -1      2094-1.21289E+00 4.12163E+01-3.00000E+00
 -1      2095-2.95289E+00 3.81562E+01-3.00000E+00
 -1      2096 2.61384E+00 3.78144E+01-3.00000E+00
 -1      2097-5.22152E-01 4.67342E+01-3.00000E+00
 -1      2098-2.96755E+00 4.66011E+01-3.00000E+00
 -1      2099-2.36123E+00 4.81260E+01-3.00000E+00
 -1      2100-3.70948E+00 4.91355E+01-3.00000E+00
 -1      2101-1.26408E+00 4.92687E+01-3.00000E+00
 -1      2102-4.02753E-02 5.03180E+01-3.00000E+00
 -1      2103 1.28249E+00 5.13041E+01-3.00000E+00
 -1      2104 1.40694E+00 4.92452E+01-3.00000E+00
 -1      2105-1.38853E+00 5.13276E+01-3.00000E+00
 -1      2106 1.29147E+00 4.71014E+01-3.00000E+00
 -1      2107 6.85150E-01 4.55765E+01-3.00000E+00
 -1      2108 2.61424E+00 4.80875E+01-3.00000E+00
 -1      2109-1.77392E+00 2.10397E+02-3.00000E+00
 -1      2110-2.22283E+00 2.12307E+02-3.00000E+00
 -1      2111-6.77711E-03 2.11460E+02-3.00000E+00
 -1      2112-9.99957E-01 2.08503E+02-3.00000E+00
 -1      2113-3.21601E+00 2.09349E+02-3.00000E+00
 -1      2114 1.62512E+00 2.10952E+02-3.00000E+00
 -1      2115 3.74897E+00 2.10911E+02-3.00000E+00
 -1      2116 2.56598E+00 2.09510E+02-3.00000E+00
 -1      2117 3.84469E+00 2.08123E+02-3.00000E+00
 -1      2118 1.72084E+00 2.08164E+02-3.00000E+00
 -1      2119 1.17622E+00 2.12862E+02-3.00000E+00
 -1      2120 1.54384E+00 2.06145E+02-3.00000E+00
 -1      2121 2.65133E-01 2.07532E+02-3.00000E+00
 -1      2122-1.17695E+00 2.06484E+02-3.00000E+00
 -1      2123 1.48096E+00 1.98925E+02-3.00000E+00
 -1      2124 4.09380E+00 1.98936E+02-3.00000E+00
 -1      2125 2.59030E+00 1.97567E+02-3.00000E+00
 -1      2126 1.49228E+00 1.96209E+02-3.00000E+00
 -1      2127 4.10512E+00 1.96220E+02-3.00000E+00
 -1      2128-3.85315E+00 1.98897E+02-3.00000E+00
 -1      2129-1.50652E+00 1.98941E+02-3.00000E+00
 -1      2130-2.36917E+00 1.97511E+02-3.00000E+00
 -1      2131-3.80636E+00 1.96129E+02-3.00000E+00
 -1      2132-1.45974E+00 1.96173E+02-3.00000E+00
 -1      2133-1.53770E+00 2.01059E+02-3.00000E+00
 -1      2134-5.37227E-02 1.99674E+02-3.00000E+00
 -1      2135 1.44978E+00 2.01043E+02-3.00000E+00
 -1      2136 1.51029E+00 1.94151E+02-3.00000E+00
 -1      2137-4.53169E-03 1.95497E+02-3.00000E+00
 -1      2138-1.44172E+00 1.94114E+02-3.00000E+00
 -1      2139-2.28005E+00 1.85656E+02-3.00000E+00
 -1      2140-3.69925E+00 1.86968E+02-3.00000E+00
 -1      2141-1.45385E+00 1.87032E+02-3.00000E+00
 -1      2142-1.42994E+00 1.84331E+02-3.00000E+00
 -1      2143-3.67534E+00 1.84266E+02-3.00000E+00
 -1      2144 2.23012E+00 1.85762E+02-3.00000E+00
 -1      2145 1.39068E+00 1.87078E+02-3.00000E+00
 -1      2146 3.65545E+00 1.87119E+02-3.00000E+00
 -1      2147 1.40617E+00 1.84408E+02-3.00000E+00
 -1      2148 3.67094E+00 1.84448E+02-3.00000E+00
 -1      2149-1.49170E+00 1.89020E+02-3.00000E+00
 -1      2150-7.24972E-02 1.87708E+02-3.00000E+00
 -1      2151 1.35284E+00 1.89065E+02-3.00000E+00
 -1      2152 1.43651E+00 1.82378E+02-3.00000E+00
 -1      2153-4.31601E-03 1.83691E+02-3.00000E+00
 -1      2154-1.39961E+00 1.82301E+02-3.00000E+00
 -1      2155-3.77682E+00 1.75069E+02-3.00000E+00
 -1      2156-1.40406E+00 1.75250E+02-3.00000E+00
 -1      2157-2.33393E+00 1.73800E+02-3.00000E+00
 -1      2158-3.77914E+00 1.72342E+02-3.00000E+00
 -1      2159-1.40638E+00 1.72523E+02-3.00000E+00
 -1      2160 1.51171E+00 1.75351E+02-3.00000E+00
 -1      2161 3.97880E+00 1.75363E+02-3.00000E+00
 -1      2162 2.50592E+00 1.73993E+02-3.00000E+00
 -1      2163 3.98691E+00 1.72662E+02-3.00000E+00
 -1      2164 1.51982E+00 1.72650E+02-3.00000E+00
 -1      2165-1.39205E+00 1.77315E+02-3.00000E+00
 -1      2166 5.08432E-02 1.76046E+02-3.00000E+00
 -1      2167 1.52372E+00 1.77416E+02-3.00000E+00
 -1      2168 1.52979E+00 1.70584E+02-3.00000E+00
 -1      2169 4.87998E-02 1.71915E+02-3.00000E+00
 -1      2170-1.39641E+00 1.70457E+02-3.00000E+00
 -1      2171-3.77351E+00 1.63182E+02-3.00000E+00
 -1      2172-1.40178E+00 1.63410E+02-3.00000E+00
 -1      2173-2.32403E+00 1.61955E+02-3.00000E+00
 -1      2174-3.76924E+00 1.60470E+02-3.00000E+00
 -1      2175-1.39752E+00 1.60697E+02-3.00000E+00
 -1      2176 1.53045E+00 1.63556E+02-3.00000E+00
 -1      2177 3.99487E+00 1.63567E+02-3.00000E+00
 -1      2178 2.51212E+00 1.62194E+02-3.00000E+00
 -1      2179 3.99070E+00 1.60859E+02-3.00000E+00
 -1      2180 1.52628E+00 1.60848E+02-3.00000E+00
 -1      2181-1.38547E+00 1.65459E+02-3.00000E+00
 -1      2182 6.40026E-02 1.64232E+02-3.00000E+00
 -1      2183 1.54675E+00 1.65605E+02-3.00000E+00
 -1      2184 1.53625E+00 1.58768E+02-3.00000E+00
 -1      2185 5.76687E-02 1.60103E+02-3.00000E+00
 -1      2186-1.38754E+00 1.58618E+02-3.00000E+00
 -1      2187-3.76353E+00 1.51302E+02-3.00000E+00
 -1      2188-1.39222E+00 1.51559E+02-3.00000E+00
 -1      2189-2.31269E+00 1.50090E+02-3.00000E+00
 -1      2190-3.75957E+00 1.48589E+02-3.00000E+00
 -1      2191-1.38825E+00 1.48846E+02-3.00000E+00
 -1      2192 1.53768E+00 1.51730E+02-3.00000E+00
 -1      2193 3.99825E+00 1.51758E+02-3.00000E+00
 -1      2194 2.51920E+00 1.50375E+02-3.00000E+00
 -1      2195 3.99445E+00 1.49048E+02-3.00000E+00
 -1      2196 1.53388E+00 1.49020E+02-3.00000E+00
 -1      2197-1.37816E+00 1.53607E+02-3.00000E+00
 -1      2198 7.26936E-02 1.52396E+02-3.00000E+00
 -1      2199 1.55174E+00 1.53779E+02-3.00000E+00
 -1      2200 1.54287E+00 1.46933E+02-3.00000E+00
 -1      2201 6.76199E-02 1.48260E+02-3.00000E+00
 -1      2202-1.37926E+00 1.46759E+02-3.00000E+00
 -1      2203 1.77451E+00 1.39911E+02-3.00000E+00
 -1      2204 4.05327E+00 1.39941E+02-3.00000E+00
 -1      2205 2.72680E+00 1.38572E+02-3.00000E+00
 -1      2206 4.05541E+00 1.37244E+02-3.00000E+00
 -1      2207 1.77664E+00 1.37214E+02-3.00000E+00
 -1      2208-1.20934E+00 1.39265E+02-3.00000E+00
 -1      2209-1.38636E+00 1.41241E+02-3.00000E+00
 -1      2210 2.71011E-01 1.40518E+02-3.00000E+00
 -1      2211 1.59749E+00 1.41887E+02-3.00000E+00
 -1      2212 1.62563E+00 1.35121E+02-3.00000E+00
 -1      2213 2.97022E-01 1.36449E+02-3.00000E+00
 -1      2214-1.36329E+00 1.35094E+02-3.00000E+00
 -1      2215-1.21228E+00 1.37188E+02-3.00000E+00
 -1      2216-2.86965E+00 1.37911E+02-3.00000E+00
 -1      2217 1.88425E+00 1.28160E+02-3.00000E+00
 -1      2218 3.95988E+00 1.28163E+02-3.00000E+00
 -1      2219 2.74445E+00 1.26823E+02-3.00000E+00
 -1      2220 3.96716E+00 1.25502E+02-3.00000E+00
 -1      2221 1.89153E+00 1.25499E+02-3.00000E+00
 -1      2222-1.02700E+00 1.27571E+02-3.00000E+00
 -1      2223-1.31903E+00 1.29508E+02-3.00000E+00
 -1      2224 3.76788E-01 1.28757E+02-3.00000E+00
 -1      2225 1.59222E+00 1.30097E+02-3.00000E+00
 -1      2226 1.65068E+00 1.23545E+02-3.00000E+00
 -1      2227 4.27974E-01 1.24867E+02-3.00000E+00
 -1      2228-9.38227E-01 1.23979E+02-3.00000E+00
 -1      2229-6.97380E-01 1.25933E+02-3.00000E+00
 -1      2230-2.39320E+00 1.26683E+02-3.00000E+00
 -1      2231 1.89053E+00 1.16375E+02-3.00000E+00
 -1      2232 3.96476E+00 1.16378E+02-3.00000E+00
 -1      2233 2.74574E+00 1.15021E+02-3.00000E+00
 -1      2234 3.97465E+00 1.13698E+02-3.00000E+00
 -1      2235 1.90041E+00 1.13695E+02-3.00000E+00
 -1      2236-1.02027E+00 1.15821E+02-3.00000E+00
 -1      2237-1.28655E+00 1.17849E+02-3.00000E+00
 -1      2238 4.05217E-01 1.17047E+02-3.00000E+00
 -1      2239 1.62424E+00 1.18404E+02-3.00000E+00
 -1      2240 1.69774E+00 1.11737E+02-3.00000E+00
 -1      2241 4.68834E-01 1.13061E+02-3.00000E+00
 -1      2242-8.70506E-01 1.12135E+02-3.00000E+00
 -1      2243-6.67836E-01 1.14093E+02-3.00000E+00
 -1      2244-2.35961E+00 1.14894E+02-3.00000E+00
 -1      2245 1.89025E+00 1.04572E+02-3.00000E+00
 -1      2246 3.96326E+00 1.04574E+02-3.00000E+00
 -1      2247 2.74627E+00 1.03219E+02-3.00000E+00
 -1      2248 3.97391E+00 1.01894E+02-3.00000E+00
 -1      2249 1.90089E+00 1.01891E+02-3.00000E+00
 -1      2250-1.01641E+00 1.04007E+02-3.00000E+00
 -1      2251-1.28544E+00 1.06033E+02-3.00000E+00
 -1      2252 4.04220E-01 1.05243E+02-3.00000E+00
 -1      2253 1.62122E+00 1.06598E+02-3.00000E+00
 -1      2254 1.69854E+00 9.99308E+01-3.00000E+00
 -1      2255 4.70901E-01 1.01256E+02-3.00000E+00
 -1      2256-8.66600E-01 1.00321E+02-3.00000E+00
 -1      2257-6.64251E-01 1.02281E+02-3.00000E+00
 -1      2258-2.35391E+00 1.03071E+02-3.00000E+00
 -1      2259 1.88899E+00 9.27676E+01-3.00000E+00
 -1      2260 3.96103E+00 9.27698E+01-3.00000E+00
 -1      2261 2.74597E+00 9.14166E+01-3.00000E+00
 -1      2262 3.97181E+00 9.00932E+01-3.00000E+00
 -1      2263 1.89977E+00 9.00910E+01-3.00000E+00
 -1      2264-1.02623E+00 9.22449E+01-3.00000E+00
 -1      2265-1.29813E+00 9.42684E+01-3.00000E+00
 -1      2266 4.02020E-01 9.34380E+01-3.00000E+00
 -1      2267 1.61708E+00 9.47912E+01-3.00000E+00
 -1      2268 1.69011E+00 8.81474E+01-3.00000E+00
 -1      2269 4.64266E-01 8.94708E+01-3.00000E+00
 -1      2270-8.89325E-01 8.86034E+01-3.00000E+00
 -1      2271-6.79668E-01 9.05471E+01-3.00000E+00
 -1      2272-2.37982E+00 9.13775E+01-3.00000E+00
 -1      2273 2.45573E+00 5.83068E+01-3.00000E+00
 -1      2274 2.96876E+00 5.67667E+01-3.00000E+00
 -1      2275 5.89875E-01 5.69420E+01-3.00000E+00
 -1      2276 1.39004E+00 5.94874E+01-3.00000E+00
 -1      2277 3.76893E+00 5.93121E+01-3.00000E+00
 -1      2278-1.58831E+00 5.93525E+01-3.00000E+00
 -1      2279-1.73675E+00 6.13955E+01-3.00000E+00
 -1      2280-7.16028E-02 6.05250E+01-3.00000E+00
 -1      2281 1.24160E+00 6.15303E+01-3.00000E+00
 -1      2282-7.84748E-01 5.57541E+01-3.00000E+00
 -1      2283-1.29778E+00 5.72941E+01-3.00000E+00
 -1      2284-2.96293E+00 5.81646E+01-3.00000E+00
 -1      2285-1.41459E+00 8.05789E+01-3.00000E+00
 -1      2286-1.40886E+00 8.25779E+01-3.00000E+00
 -1      2287 3.19485E-02 8.17994E+01-3.00000E+00
 -1      2288 1.51344E+00 8.26655E+01-3.00000E+00
 -1      2289 1.50771E+00 8.06665E+01-3.00000E+00
 -1      2290 1.35542E+00 7.85582E+01-3.00000E+00
 -1      2291 1.37219E+00 7.66140E+01-3.00000E+00
 -1      2292 4.29910E-02 7.78561E+01-3.00000E+00
 -1      2293-1.10450E+00 7.69017E+01-3.00000E+00
 -1      2294-1.12127E+00 7.88460E+01-3.00000E+00
 -1      2295-2.56207E+00 7.96245E+01-3.00000E+00
 -1      2296 2.83692E+00 7.94244E+01-3.00000E+00
 -1      2297 1.65333E+00 6.96925E+01-3.00000E+00
 -1      2298 3.61647E+00 6.90385E+01-3.00000E+00
 -1      2299 2.33836E+00 6.80095E+01-3.00000E+00
 -1      2300 2.75701E+00 6.64666E+01-3.00000E+00
 -1      2301 7.93875E-01 6.71206E+01-3.00000E+00
 -1      2302 2.22370E-01 7.04652E+01-3.00000E+00
 -1      2303 1.50047E+00 7.14941E+01-3.00000E+00
 -1      2304-8.54005E-01 6.93820E+01-3.00000E+00
 -1      2305-1.00687E+00 7.11837E+01-3.00000E+00
 -1      2306-5.41240E-01 6.60079E+01-3.00000E+00
 -1      2307-9.59886E-01 6.75509E+01-3.00000E+00
 -1      2308-2.18912E+00 6.82693E+01-3.00000E+00
 -1      2309-4.14583E+00 3.05566E+01-3.00000E+00
 -1      2310-5.85452E+00 3.09959E+01-3.00000E+00
 -1      2311-6.34891E+00 3.23276E+01-3.00000E+00
 -1      2312-2.34745E+00 3.31811E+01-3.00000E+00
 -1      2313-2.73959E-01 3.20947E+01-3.00000E+00
 -1      2314-2.27901E+00 3.12040E+01-3.00000E+00
 -1      2315-5.74796E+00 3.37933E+01-3.00000E+00
 -1      2316-5.21542E+00 3.57044E+01-3.00000E+00
 -1      2317-3.81996E+00 3.42016E+01-3.00000E+00
 -1      2318 1.80667E+00 3.11123E+01-3.00000E+00
 -1      2319 1.73823E+00 3.30893E+01-3.00000E+00
 -1      2320 3.60114E+00 3.04674E+01-3.00000E+00
 -1      2321 5.30847E+00 3.07233E+01-3.00000E+00
 -1      2322 5.89945E+00 3.20701E+01-3.00000E+00
 -1      2323 3.08704E+00 3.40666E+01-3.00000E+00
 -1      2324 4.45936E+00 3.52268E+01-3.00000E+00
 -1      2325 5.19119E+00 3.32672E+01-3.00000E+00
 -1      2326 4.17508E+00 2.17960E+02-3.00000E+00
 -1      2327 6.55808E+00 2.18410E+02-3.00000E+00
 -1      2328 5.20421E+00 2.16792E+02-3.00000E+00
 -1      2329 2.72266E+00 2.18279E+02-3.00000E+00
 -1      2330 1.37508E+00 2.17847E+02-3.00000E+00
 -1      2331 7.79271E-01 2.16405E+02-3.00000E+00
 -1      2332-6.66860E-01 2.17910E+02-3.00000E+00
 -1      2333 2.81466E+00 2.14347E+02-3.00000E+00
 -1      2334 1.18276E+00 2.14856E+02-3.00000E+00
 -1      2335-8.59174E-01 2.14920E+02-3.00000E+00
 -1      2336 4.68216E+00 2.14686E+02-3.00000E+00
 -1      2337 4.67561E+00 2.12691E+02-3.00000E+00
 -1      2338-5.23214E+00 8.63786E+01-3.00000E+00
 -1      2339-6.09210E+00 8.86082E+01-3.00000E+00
 -1      2340-4.18422E+00 8.81910E+01-3.00000E+00
 -1      2341-3.53872E+00 9.00502E+01-3.00000E+00
 -1      2342-2.67876E+00 8.78206E+01-3.00000E+00
 -1      2343-4.94381E+00 8.40368E+01-3.00000E+00
 -1      2344-3.08983E+00 8.36594E+01-3.00000E+00
 -1      2345-4.70938E+00 8.17348E+01-3.00000E+00
 -1      2346-1.53482E+00 8.67443E+01-3.00000E+00
 -1      2347 1.46142E-01 8.56628E+01-3.00000E+00
 -1      2348-1.64329E+00 8.48799E+01-3.00000E+00
 -1      2349-5.22430E+00 9.81307E+01-3.00000E+00
 -1      2350-6.02316E+00 1.00145E+02-3.00000E+00
 -1      2351-4.12225E+00 9.97086E+01-3.00000E+00
 -1      2352-3.46143E+00 1.01534E+02-3.00000E+00
 -1      2353-2.66257E+00 9.95197E+01-3.00000E+00
 -1      2354-4.95109E+00 9.58203E+01-3.00000E+00
 -1      2355-3.02489E+00 9.53846E+01-3.00000E+00
 -1      2356-4.65259E+00 9.35109E+01-3.00000E+00
 -1      2357-1.52742E+00 9.84949E+01-3.00000E+00
 -1      2358 1.99334E-01 9.73787E+01-3.00000E+00
 -1      2359-1.59664E+00 9.65778E+01-3.00000E+00
 -1      2360-5.22900E+00 1.09977E+02-3.00000E+00
 -1      2361-6.03033E+00 1.12005E+02-3.00000E+00
 -1      2362-4.13076E+00 1.11543E+02-3.00000E+00
 -1      2363-3.46963E+00 1.13369E+02-3.00000E+00
 -1      2364-2.66830E+00 1.11341E+02-3.00000E+00
 -1      2365-4.94665E+00 1.07632E+02-3.00000E+00
 -1      2366-3.01775E+00 1.07156E+02-3.00000E+00
 -1      2367-4.63497E+00 1.05273E+02-3.00000E+00
 -1      2368-1.53163E+00 1.10309E+02-3.00000E+00
 -1      2369 2.00677E-01 1.09186E+02-3.00000E+00
 -1      2370-1.59712E+00 1.08392E+02-3.00000E+00
 -1      2371-5.24984E+00 1.21865E+02-3.00000E+00
 -1      2372-6.13908E+00 1.24112E+02-3.00000E+00
 -1      2373-4.22552E+00 1.23584E+02-3.00000E+00
 -1      2374-3.58917E+00 1.25438E+02-3.00000E+00
 -1      2375-2.69993E+00 1.23191E+02-3.00000E+00
 -1      2376-4.95216E+00 1.19483E+02-3.00000E+00
 -1      2377-3.02416E+00 1.18980E+02-3.00000E+00
 -1      2378-4.64004E+00 1.17126E+02-3.00000E+00
 -1      2379-1.57458E+00 1.22125E+02-3.00000E+00
 -1      2380 1.63028E-01 1.20995E+02-3.00000E+00
 -1      2381-1.59867E+00 1.20206E+02-3.00000E+00
 -1      2382-4.85673E+00 1.30843E+02-3.00000E+00
 -1      2383-4.83665E+00 1.33300E+02-3.00000E+00
 -1      2384-2.93405E+00 1.30284E+02-3.00000E+00
 -1      2385-4.64550E+00 1.28880E+02-3.00000E+00
 -1      2386-1.49964E+00 1.33301E+02-3.00000E+00
 -1      2387 1.15384E-01 1.32524E+02-3.00000E+00
 -1      2388-1.53027E+00 1.31471E+02-3.00000E+00
 -1      2389-3.00894E+00 1.34041E+02-3.00000E+00
 -1      2390-4.70030E+00 1.35093E+02-3.00000E+00
 -1      2391-4.86503E+00 1.42718E+02-3.00000E+00
 -1      2392-4.81346E+00 1.45184E+02-3.00000E+00
 -1      2393-3.01106E+00 1.42043E+02-3.00000E+00
 -1      2394-4.72068E+00 1.40663E+02-3.00000E+00
 -1      2395-1.53940E+00 1.45135E+02-3.00000E+00
 -1      2396 8.52995E-02 1.44333E+02-3.00000E+00
 -1      2397-1.53071E+00 1.43295E+02-3.00000E+00
 -1      2398-2.99527E+00 1.45721E+02-3.00000E+00
 -1      2399-4.65332E+00 1.46808E+02-3.00000E+00
 -1      2400-4.83836E+00 1.54613E+02-3.00000E+00
 -1      2401-4.81661E+00 1.57063E+02-3.00000E+00
 -1      2402-3.00290E+00 1.54363E+02-3.00000E+00
 -1      2403-4.67852E+00 1.53020E+02-3.00000E+00
 -1      2404-1.54755E+00 1.56990E+02-3.00000E+00
 -1      2405 7.71976E-02 1.56234E+02-3.00000E+00
 -1      2406-1.53799E+00 1.55200E+02-3.00000E+00
 -1      2407-3.00273E+00 1.57584E+02-3.00000E+00
 -1      2408-4.65660E+00 1.58691E+02-3.00000E+00
 -1      2409-4.84426E+00 1.66496E+02-3.00000E+00
 -1      2410-4.82444E+00 1.68939E+02-3.00000E+00
 -1      2411-3.01073E+00 1.66226E+02-3.00000E+00
 -1      2412-4.68479E+00 1.64907E+02-3.00000E+00
 -1      2413-1.55572E+00 1.68832E+02-3.00000E+00
 -1      2414 6.95399E-02 1.68064E+02-3.00000E+00
 -1      2415-1.54495E+00 1.67048E+02-3.00000E+00
 -1      2416-3.01090E+00 1.69440E+02-3.00000E+00
 -1      2417-4.66513E+00 1.70565E+02-3.00000E+00
 -1      2418 4.88882E+00 2.04675E+02-3.00000E+00
 -1      2419 4.91330E+00 2.02273E+02-3.00000E+00
 -1      2420 4.77339E+00 2.00680E+02-3.00000E+00
 -1      2421 3.12437E+00 2.01888E+02-3.00000E+00
 -1      2422 3.13191E+00 2.05129E+02-3.00000E+00
 -1      2423 4.75646E+00 2.06323E+02-3.00000E+00
 -1      2424 1.58969E+00 2.02636E+02-3.00000E+00
 -1      2425 1.61847E-03 2.03652E+02-3.00000E+00
 -1      2426 1.67620E+00 2.04497E+02-3.00000E+00
 -1      2427 4.92070E+00 1.92870E+02-3.00000E+00
 -1      2428 4.86509E+00 1.90476E+02-3.00000E+00
 -1      2429 4.63922E+00 1.88853E+02-3.00000E+00
 -1      2430 3.04189E+00 1.90058E+02-3.00000E+00
 -1      2431 3.13743E+00 1.93272E+02-3.00000E+00
 -1      2432 4.79037E+00 1.94461E+02-3.00000E+00
 -1      2433 1.57871E+00 1.90689E+02-3.00000E+00
 -1      2434-4.84287E-02 1.91567E+02-3.00000E+00
 -1      2435 1.64062E+00 1.92560E+02-3.00000E+00
 -1      2436-4.81489E+00 1.78444E+02-3.00000E+00
 -1      2437-4.79605E+00 1.80864E+02-3.00000E+00
 -1      2438-2.99485E+00 1.78130E+02-3.00000E+00
 -1      2439-4.66700E+00 1.76834E+02-3.00000E+00
 -1      2440-1.55836E+00 1.80701E+02-3.00000E+00
 -1      2441 4.44402E-02 1.79885E+02-3.00000E+00
 -1      2442-1.53994E+00 1.78925E+02-3.00000E+00
 -1      2443-2.98399E+00 1.81340E+02-3.00000E+00
 -1      2444-4.63730E+00 1.82465E+02-3.00000E+00
 -1      2445 4.94077E+00 8.67389E+01-3.00000E+00
 -1      2446 4.97353E+00 8.43441E+01-3.00000E+00
 -1      2447 4.79941E+00 8.23225E+01-3.00000E+00
 -1      2448 3.16332E+00 8.35543E+01-3.00000E+00
 -1      2449 1.68755E+00 8.46871E+01-3.00000E+00
 -1      2450 1.79602E+00 8.65515E+01-3.00000E+00
 -1      2451 3.23152E+00 8.71717E+01-3.00000E+00
 -1      2452 4.83486E+00 8.83348E+01-3.00000E+00
 -1      2453-6.16068E+00 2.17198E+02-3.00000E+00
 -1      2454-5.82647E+00 2.18860E+02-3.00000E+00
 -1      2455-4.02168E+00 2.18635E+02-3.00000E+00
 -1      2456-5.64315E+00 2.15484E+02-3.00000E+00
 -1      2457-2.36178E+00 2.18294E+02-3.00000E+00
 -1      2458-2.92257E+00 2.16810E+02-3.00000E+00
 -1      2459-3.99070E+00 2.15780E+02-3.00000E+00
 -1      2460-5.05138E+00 2.14114E+02-3.00000E+00
 -1      2461-2.33079E+00 2.15439E+02-3.00000E+00
 -1      2462-5.41928E+00 7.45129E+01-3.00000E+00
 -1      2463-6.13212E+00 7.66965E+01-3.00000E+00
 -1      2464-4.28717E+00 7.61942E+01-3.00000E+00
 -1      2465-3.63438E+00 7.81347E+01-3.00000E+00
 -1      2466-2.92155E+00 7.59511E+01-3.00000E+00
 -1      2467-4.28297E+00 7.15669E+01-3.00000E+00
 -1      2468-5.37147E+00 7.27861E+01-3.00000E+00
 -1      2469-2.82879E+00 7.20555E+01-3.00000E+00
 -1      2470-3.53742E+00 6.96118E+01-3.00000E+00
 -1      2471-1.75729E+00 7.49612E+01-3.00000E+00
 -1      2472 6.46355E-02 7.40894E+01-3.00000E+00
 -1      2473-1.75242E+00 7.31387E+01-3.00000E+00
 -1      2474 4.94077E+00 9.85473E+01-3.00000E+00
 -1      2475 4.94911E+00 9.61547E+01-3.00000E+00
 -1      2476 4.82880E+00 9.45206E+01-3.00000E+00
 -1      2477 3.22436E+00 9.57549E+01-3.00000E+00
 -1      2478 1.73739E+00 9.64253E+01-3.00000E+00
 -1      2479 1.80661E+00 9.83424E+01-3.00000E+00
 -1      2480 3.23660E+00 9.89774E+01-3.00000E+00
 -1      2481 4.83270E+00 1.00136E+02-3.00000E+00
 -1      2482 4.94448E+00 1.10355E+02-3.00000E+00
 -1      2483 4.95424E+00 1.07963E+02-3.00000E+00
 -1      2484 4.83233E+00 1.06326E+02-3.00000E+00
 -1      2485 3.22915E+00 1.07564E+02-3.00000E+00
 -1      2486 1.74312E+00 1.08235E+02-3.00000E+00
 -1      2487 1.80861E+00 1.10152E+02-3.00000E+00
 -1      2488 3.24019E+00 1.10786E+02-3.00000E+00
 -1      2489 4.83361E+00 1.11940E+02-3.00000E+00
 -1      2490 4.94757E+00 1.22162E+02-3.00000E+00
 -1      2491 4.95866E+00 1.19770E+02-3.00000E+00
 -1      2492 4.83514E+00 1.18130E+02-3.00000E+00
 -1      2493 3.23307E+00 1.19372E+02-3.00000E+00
 -1      2494 1.74776E+00 1.20044E+02-3.00000E+00
 -1      2495 1.77186E+00 1.21963E+02-3.00000E+00
 -1      2496 3.23542E+00 1.22595E+02-3.00000E+00
 -1      2497 4.82639E+00 1.23744E+02-3.00000E+00
 -1      2498 4.96333E+00 1.33966E+02-3.00000E+00
 -1      2499 4.96238E+00 1.31577E+02-3.00000E+00
 -1      2500 4.83158E+00 1.29916E+02-3.00000E+00
 -1      2501 3.23048E+00 1.31161E+02-3.00000E+00
 -1      2502 1.72302E+00 1.31758E+02-3.00000E+00
 -1      2503 1.75365E+00 1.33589E+02-3.00000E+00
 -1      2504 3.23327E+00 1.34354E+02-3.00000E+00
 -1      2505 4.83532E+00 1.35498E+02-3.00000E+00
 -1      2506 4.96533E+00 1.45771E+02-3.00000E+00
 -1      2507 4.97868E+00 1.43381E+02-3.00000E+00
 -1      2508 4.84661E+00 1.41706E+02-3.00000E+00
 -1      2509 3.23305E+00 1.42956E+02-3.00000E+00
 -1      2510 1.72956E+00 1.43563E+02-3.00000E+00
 -1      2511 1.72086E+00 1.45403E+02-3.00000E+00
 -1      2512 3.18713E+00 1.46162E+02-3.00000E+00
 -1      2513 4.78733E+00 1.47302E+02-3.00000E+00
 -1      2514 4.96621E+00 1.57576E+02-3.00000E+00
 -1      2515 4.97922E+00 1.55187E+02-3.00000E+00
 -1      2516 4.80353E+00 1.53524E+02-3.00000E+00
 -1      2517 3.19241E+00 1.54777E+02-3.00000E+00
 -1      2518 1.72743E+00 1.55442E+02-3.00000E+00
 -1      2519 1.71787E+00 1.57232E+02-3.00000E+00
 -1      2520 3.18648E+00 1.57976E+02-3.00000E+00
 -1      2521 4.78459E+00 1.59113E+02-3.00000E+00
 -1      2522 4.96674E+00 1.69380E+02-3.00000E+00
 -1      2523 4.98071E+00 1.66991E+02-3.00000E+00
 -1      2524 4.80219E+00 1.65333E+02-3.00000E+00
 -1      2525 3.19172E+00 1.66589E+02-3.00000E+00
 -1      2526 1.72528E+00 1.67264E+02-3.00000E+00
 -1      2527 1.71451E+00 1.69048E+02-3.00000E+00
 -1      2528 3.18553E+00 1.69783E+02-3.00000E+00
 -1      2529 4.78202E+00 1.70916E+02-3.00000E+00
 -1      2530 4.87436E+00 1.81143E+02-3.00000E+00
 -1      2531 4.92411E+00 1.78755E+02-3.00000E+00
 -1      2532 4.78087E+00 1.77124E+02-3.00000E+00
 -1      2533 3.12783E+00 1.78352E+02-3.00000E+00
 -1      2534 1.66696E+00 1.79047E+02-3.00000E+00
 -1      2535 1.64854E+00 1.80822E+02-3.00000E+00
 -1      2536 3.05903E+00 1.81539E+02-3.00000E+00
 -1      2537 4.66233E+00 1.82698E+02-3.00000E+00
 -1      2538-4.84742E+00 1.90354E+02-3.00000E+00
 -1      2539-4.87989E+00 1.92745E+02-3.00000E+00
 -1      2540-3.03674E+00 1.89988E+02-3.00000E+00
 -1      2541-4.68373E+00 1.88710E+02-3.00000E+00
 -1      2542-1.59347E+00 1.92535E+02-3.00000E+00
 -1      2543-1.65539E+00 1.90664E+02-3.00000E+00
 -1      2544-3.04868E+00 1.93211E+02-3.00000E+00
 -1      2545-4.72813E+00 1.94324E+02-3.00000E+00
 -1      2546-5.33694E+00 2.04265E+02-3.00000E+00
 -1      2547-4.58850E+00 2.05691E+02-3.00000E+00
 -1      2548-4.05163E+00 2.07439E+02-3.00000E+00
 -1      2549-2.97892E+00 2.05708E+02-3.00000E+00
 -1      2550-3.25314E+00 2.02143E+02-3.00000E+00
 -1      2551-4.80196E+00 2.00593E+02-3.00000E+00
 -1      2552-5.06461E+00 2.02409E+02-3.00000E+00
 -1      2553-1.71383E+00 2.04736E+02-3.00000E+00
 -1      2554-1.80034E+00 2.02876E+02-3.00000E+00
 -1      2555 1.76535E+00 7.31250E+01-3.00000E+00
 -1      2556 1.76048E+00 7.49475E+01-3.00000E+00
 -1      2557 3.19632E+00 7.23523E+01-3.00000E+00
 -1      2558 5.00640E+00 7.50733E+01-3.00000E+00
 -1      2559 4.95547E+00 7.26607E+01-3.00000E+00
 -1      2560 4.69059E+00 7.10298E+01-3.00000E+00
 -1      2561 3.07291E+00 7.56497E+01-3.00000E+00
 -1      2562 4.61811E+00 7.67397E+01-3.00000E+00
 -1      2563 3.32953E+00 4.11888E+01-3.00000E+00
 -1      2564 1.98959E+00 4.25039E+01-3.00000E+00
 -1      2565 1.34568E+00 4.40883E+01-3.00000E+00
 -1      2566 3.14269E+00 4.43593E+01-3.00000E+00
 -1      2567 5.19490E+00 4.38014E+01-3.00000E+00
 -1      2568 5.20083E+00 4.15138E+01-3.00000E+00
 -1      2569 4.74377E+00 3.99277E+01-3.00000E+00
 -1      2570 4.55099E+00 4.53858E+01-3.00000E+00
 -1      2571-5.37262E+00 4.42199E+01-3.00000E+00
 -1      2572-4.30084E+00 4.56443E+01-3.00000E+00
 -1      2573-2.46176E+00 4.42526E+01-3.00000E+00
 -1      2574-1.80123E+00 4.27644E+01-3.00000E+00
 -1      2575-3.20671E+00 4.17478E+01-3.00000E+00
 -1      2576-4.67944E-01 4.37211E+01-3.00000E+00
 -1      2577-4.67631E+00 4.08816E+01-3.00000E+00
 -1      2578-5.26465E+00 4.24297E+01-3.00000E+00
 -1      2579 4.06680E+00 6.53404E+01-3.00000E+00
 -1      2580 5.74942E+00 6.58317E+01-3.00000E+00
 -1      2581 5.51472E+00 6.38167E+01-3.00000E+00
 -1      2582 2.52231E+00 6.44515E+01-3.00000E+00
 -1      2583 1.80603E+00 6.29467E+01-3.00000E+00
 -1      2584 4.96237E-01 6.40728E+01-3.00000E+00
 -1      2585 3.26767E+00 6.19091E+01-3.00000E+00
 -1      2586 5.45836E+00 6.20232E+01-3.00000E+00
 -1      2587 4.89393E+00 6.06068E+01-3.00000E+00
 -1      2588 4.29058E+00 5.57510E+01-3.00000E+00
 -1      2589 5.34808E+00 5.42177E+01-3.00000E+00
 -1      2590 2.42473E+00 5.43863E+01-3.00000E+00
 -1      2591 3.23812E+00 5.18009E+01-3.00000E+00
 -1      2592 1.79091E+00 5.28737E+01-3.00000E+00
 -1      2593 4.69093E-01 5.38894E+01-3.00000E+00
 -1      2594 5.20343E+00 5.23487E+01-3.00000E+00
 -1      2595 4.69502E+00 5.07791E+01-3.00000E+00
 -1      2596-3.18275E+00 5.45580E+01-3.00000E+00
 -1      2597-1.41856E+00 5.42415E+01-3.00000E+00
 -1      2598-1.92891E+00 5.26934E+01-3.00000E+00
 -1      2599-3.15272E+00 5.16441E+01-3.00000E+00
 -1      2600-5.17725E+00 5.21377E+01-3.00000E+00
 -1      2601-5.15524E+00 5.39328E+01-3.00000E+00
 -1      2602-4.63687E+00 5.07719E+01-3.00000E+00
 -1      2603-4.64489E+00 5.54810E+01-3.00000E+00
 -1      2604-3.03748E+00 6.49325E+01-3.00000E+00
 -1      2605-1.25752E+00 6.45031E+01-3.00000E+00
 -1      2606-2.00001E+00 6.29975E+01-3.00000E+00
 -1      2607-3.51671E+00 6.18250E+01-3.00000E+00
 -1      2608-5.28950E+00 6.27920E+01-3.00000E+00
 -1      2609-5.11089E+00 6.45385E+01-3.00000E+00
 -1      2610-4.36840E+00 6.60441E+01-3.00000E+00
 -1      2611-5.02624E+00 6.11900E+01-3.00000E+00
 -1      2612-4.30508E+00 3.72902E+01-3.00000E+00
 -1      2613-6.23308E+00 3.68819E+01-3.00000E+00
 -1      2614-6.66237E+00 3.85426E+01-3.00000E+00
 -1      2615-6.02849E+00 4.00156E+01-3.00000E+00
 -1      2616-3.97055E+00 3.93337E+01-3.00000E+00
 -1      2617 3.94976E+00 3.85321E+01-3.00000E+00
 -1      2618 5.82105E+00 3.88571E+01-3.00000E+00
 -1      2619 6.33742E+00 3.71678E+01-3.00000E+00
 -1      2620 5.79528E+00 3.59445E+01-3.00000E+00
 -1      2621 3.69113E+00 3.67439E+01-3.00000E+00
 -1      2622-4.82560E+00 2.09333E+02-3.00000E+00
 -1      2623-5.59791E+00 2.10701E+02-3.00000E+00
 -1      2624-3.69445E+00 2.12826E+02-3.00000E+00
 -1      2625-1.92730E+00 2.13890E+02-3.00000E+00
 -1      2626-5.34691E+00 2.12530E+02-3.00000E+00
 -1      2627-5.84146E+00 1.27635E+02-3.00000E+00
 -1      2628-3.91879E+00 1.27076E+02-3.00000E+00
 -1      2629-6.53804E+00 1.25833E+02-3.00000E+00
 -1      2630-5.75007E+00 1.15600E+02-3.00000E+00
 -1      2631-3.82206E+00 1.15097E+02-3.00000E+00
 -1      2632-6.43906E+00 1.13743E+02-3.00000E+00
 -1      2633-5.85246E+00 1.39547E+02-3.00000E+00
 -1      2634-3.99849E+00 1.38872E+02-3.00000E+00
 -1      2635-6.55032E+00 1.37756E+02-3.00000E+00
 -1      2636-4.00143E+00 1.36795E+02-3.00000E+00
 -1      2637-5.82914E+00 1.36054E+02-3.00000E+00
 -1      2638-5.59899E+00 1.51552E+02-3.00000E+00
 -1      2639-6.21772E+00 1.49772E+02-3.00000E+00
 -1      2640-5.57775E+00 1.48052E+02-3.00000E+00
 -1      2641-5.74249E+00 1.03736E+02-3.00000E+00
 -1      2642-3.81359E+00 1.03260E+02-3.00000E+00
 -1      2643-6.42457E+00 1.01859E+02-3.00000E+00
 -1      2644 5.91342E+00 4.64492E+01-3.00000E+00
 -1      2645 3.86121E+00 4.70072E+01-3.00000E+00
 -1      2646 6.61995E+00 4.81004E+01-3.00000E+00
 -1      2647 3.97668E+00 4.91510E+01-3.00000E+00
 -1      2648 5.94199E+00 4.96987E+01-3.00000E+00
 -1      2649-5.60704E+00 1.63452E+02-3.00000E+00
 -1      2650-6.22608E+00 1.61677E+02-3.00000E+00
 -1      2651-5.58312E+00 1.59949E+02-3.00000E+00
 -1      2652-5.81148E+00 9.21836E+01-3.00000E+00
 -1      2653-3.88528E+00 9.17479E+01-3.00000E+00
 -1      2654-6.47624E+00 9.02481E+01-3.00000E+00
 -1      2655-5.59686E+00 1.75384E+02-3.00000E+00
 -1      2656-6.23250E+00 1.73582E+02-3.00000E+00
 -1      2657-5.59268E+00 1.71841E+02-3.00000E+00
 -1      2658 5.61647E+00 2.11250E+02-3.00000E+00
 -1      2659 6.23024E+00 2.09436E+02-3.00000E+00
 -1      2660 5.60160E+00 2.07670E+02-3.00000E+00
 -1      2661 5.88273E+00 1.99322E+02-3.00000E+00
 -1      2662 6.60389E+00 1.97578E+02-3.00000E+00
 -1      2663 5.88840E+00 1.95818E+02-3.00000E+00
 -1      2664-5.50993E+00 1.87334E+02-3.00000E+00
 -1      2665-6.08156E+00 1.85539E+02-3.00000E+00
 -1      2666-5.48740E+00 1.83790E+02-3.00000E+00
 -1      2667 5.47866E+00 1.87537E+02-3.00000E+00
 -1      2668 6.06534E+00 1.85794E+02-3.00000E+00
 -1      2669 5.48627E+00 1.84053E+02-3.00000E+00
 -1      2670 5.77508E+00 1.75766E+02-3.00000E+00
 -1      2671 6.44135E+00 1.73995E+02-3.00000E+00
 -1      2672 5.76812E+00 1.72259E+02-3.00000E+00
 -1      2673-5.66462E+00 1.99163E+02-3.00000E+00
 -1      2674-6.25076E+00 1.97417E+02-3.00000E+00
 -1      2675-5.63757E+00 1.95663E+02-3.00000E+00
 -1      2676 5.78386E+00 1.63970E+02-3.00000E+00
 -1      2677 6.44459E+00 1.62196E+02-3.00000E+00
 -1      2678 5.77043E+00 1.60459E+02-3.00000E+00
 -1      2679 5.78506E+00 1.52168E+02-3.00000E+00
 -1      2680 6.44722E+00 1.50396E+02-3.00000E+00
 -1      2681 5.77265E+00 1.48657E+02-3.00000E+00
 -1      2682 5.79890E+00 1.40367E+02-3.00000E+00
 -1      2683 6.46166E+00 1.38596E+02-3.00000E+00
 -1      2684 5.78547E+00 1.36856E+02-3.00000E+00
 -1      2685 5.69178E+00 1.28579E+02-3.00000E+00
 -1      2686 6.30895E+00 1.26812E+02-3.00000E+00
 -1      2687 5.67931E+00 1.25069E+02-3.00000E+00
 -1      2688 5.69035E+00 1.16776E+02-3.00000E+00
 -1      2689 6.30916E+00 1.15011E+02-3.00000E+00
 -1      2690 5.67894E+00 1.13266E+02-3.00000E+00
 -1      2691 5.68835E+00 1.04973E+02-3.00000E+00
 -1      2692 6.30895E+00 1.03210E+02-3.00000E+00
 -1      2693 5.67808E+00 1.01464E+02-3.00000E+00
 -1      2694 5.68578E+00 9.31695E+01-3.00000E+00
 -1      2695 6.30874E+00 9.14085E+01-3.00000E+00
 -1      2696 5.68106E+00 8.96604E+01-3.00000E+00
 -1      2697 4.11442E+00 8.05628E+01-3.00000E+00
 -1      2698 5.92463E+00 8.13526E+01-3.00000E+00
 -1      2699 6.63281E+00 7.95929E+01-3.00000E+00
 -1      2700 5.89562E+00 7.78781E+01-3.00000E+00
 -1      2701 3.96213E+00 7.84545E+01-3.00000E+00
 -1      2702-4.70569E+00 5.93082E+01-3.00000E+00
 -1      2703-4.41517E+00 5.72498E+01-3.00000E+00
 -1      2704-5.78168E+00 8.02450E+01-3.00000E+00
 -1      2705-3.92770E+00 7.98676E+01-3.00000E+00
 -1      2706-6.41797E+00 7.82667E+01-3.00000E+00
 -1      2707 5.37562E+00 6.93468E+01-3.00000E+00
 -1      2708 5.99629E+00 6.75477E+01-3.00000E+00
 -1      2709-3.64330E+00 6.77807E+01-3.00000E+00
 -1      2710-2.20349E-01 3.80445E+01 3.00000E+00
 -1      2711 8.41720E-02 4.82591E+01 3.00000E+00
 -1      2712 4.42130E-01 2.09550E+02 3.00000E+00
 -1      2713-2.25463E-02 1.97556E+02 3.00000E+00
 -1      2714-3.46542E-02 1.85721E+02 3.00000E+00
 -1      2715 3.88282E-02 1.73981E+02 3.00000E+00
 -1      2716 4.76967E-02 1.62183E+02 3.00000E+00
 -1      2717 5.86326E-02 1.50347E+02 3.00000E+00
 -1      2718 4.48030E-01 1.38542E+02 3.00000E+00
 -1      2719 6.68821E-01 1.26821E+02 3.00000E+00
 -1      2720 6.71505E-01 1.15019E+02 3.00000E+00
 -1      2721 6.73251E-01 1.03217E+02 3.00000E+00
 -1      2722 6.73924E-01 9.14145E+01 3.00000E+00
 -1      2723 7.68408E-02 5.84821E+01 3.00000E+00
 -1      2724 2.62208E-02 7.98003E+01 3.00000E+00
 -1      2725 3.75229E-01 6.86636E+01 3.00000E+00
 -1      2726-4.35250E+00 3.22904E+01 3.00000E+00
 -1      2727 3.81887E+00 3.21070E+01 3.00000E+00
 -1      2728 2.82121E+00 2.16342E+02 3.00000E+00
 -1      2729-3.32426E+00 8.59614E+01 3.00000E+00
 -1      2730-3.32339E+00 9.76940E+01 3.00000E+00
 -1      2731-3.32943E+00 1.09515E+02 3.00000E+00
 -1      2732-3.33628E+00 1.21337E+02 3.00000E+00
 -1      2733-3.14529E+00 1.32247E+02 3.00000E+00
 -1      2734-3.15541E+00 1.44097E+02 3.00000E+00
 -1      2735-3.16274E+00 1.55956E+02 3.00000E+00
 -1      2736-3.17021E+00 1.67815E+02 3.00000E+00
 -1      2737 3.26427E+00 2.03481E+02 3.00000E+00
 -1      2738 3.26776E+00 1.91682E+02 3.00000E+00
 -1      2739-3.14274E+00 1.79740E+02 3.00000E+00
 -1      2740 3.33743E+00 8.55758E+01 3.00000E+00
 -1      2741-4.58247E+00 2.17151E+02 3.00000E+00
 -1      2742-3.57434E+00 7.40106E+01 3.00000E+00
 -1      2743 3.34467E+00 9.73890E+01 3.00000E+00
 -1      2744 3.35106E+00 1.09201E+02 3.00000E+00
 -1      2745 3.35660E+00 1.21012E+02 3.00000E+00
 -1      2746 3.36128E+00 1.32822E+02 3.00000E+00
 -1      2747 3.36512E+00 1.44632E+02 3.00000E+00
 -1      2748 3.36811E+00 1.56440E+02 3.00000E+00
 -1      2749 3.37024E+00 1.68247E+02 3.00000E+00
 -1      2750 3.27107E+00 1.79983E+02 3.00000E+00
 -1      2751-3.20043E+00 1.91632E+02 3.00000E+00
 -1      2752-3.51579E+00 2.03960E+02 3.00000E+00
 -1      2753 3.46120E+00 7.39832E+01 3.00000E+00
 -1      2754 3.78660E+00 4.27749E+01 3.00000E+00
 -1      2755-3.79505E+00 4.32959E+01 3.00000E+00
 -1      2756 3.83210E+00 6.33254E+01 3.00000E+00
 -1      2757 3.74654E+00 5.33705E+01 3.00000E+00
 -1      2758-3.69310E+00 5.30099E+01 3.00000E+00
 -1      2759-3.77997E+00 6.34270E+01 3.00000E+00
 -1      2760-5.32273E+00 3.84676E+01 3.00000E+00
 -1      2761 5.02704E+00 3.74615E+01 3.00000E+00
 -1      2762-3.98998E+00 2.11243E+02 3.00000E+00
 -1      2763-5.11476E+00 1.25831E+02 3.00000E+00
 -1      2764-4.93208E+00 1.13571E+02 3.00000E+00
 -1      2765-5.13027E+00 1.37756E+02 3.00000E+00
 -1      2766-4.68400E+00 1.49833E+02 3.00000E+00
 -1      2767-4.92111E+00 1.01723E+02 3.00000E+00
 -1      2768 5.22365E+00 4.80706E+01 3.00000E+00
 -1      2769-4.69576E+00 1.61728E+02 3.00000E+00
 -1      2770-5.04418E+00 9.04206E+01 3.00000E+00
 -1      2771-4.70669E+00 1.73619E+02 3.00000E+00
 -1      2772 4.68983E+00 2.09470E+02 3.00000E+00
 -1      2773 5.20315E+00 1.97578E+02 3.00000E+00
 -1      2774-4.52544E+00 1.85592E+02 3.00000E+00
 -1      2775 4.49489E+00 1.85803E+02 3.00000E+00
 -1      2776 4.97301E+00 1.74004E+02 3.00000E+00
 -1      2777-4.71580E+00 1.97467E+02 3.00000E+00
 -1      2778 4.97654E+00 1.62205E+02 3.00000E+00
 -1      2779 4.97977E+00 1.50403E+02 3.00000E+00
 -1      2780 5.00556E+00 1.38602E+02 3.00000E+00
 -1      2781 4.82008E+00 1.26826E+02 3.00000E+00
 -1      2782 4.81997E+00 1.15024E+02 3.00000E+00
 -1      2783 4.81929E+00 1.03222E+02 3.00000E+00
 -1      2784 4.81801E+00 9.14188E+01 3.00000E+00
 -1      2785 5.23964E+00 7.95929E+01 3.00000E+00
 -1      2786-6.15793E+00 5.83934E+01 3.00000E+00
 -1      2787-5.00001E+00 7.83778E+01 3.00000E+00
 -1      2788 4.30150E+00 6.73555E+01 3.00000E+00
 -1      2789-4.80663E+00 4.79928E+01 3.00000E+00
 -1      2790-4.99160E+00 6.91232E+01 3.00000E+00
 -1      2791 4.83462E+00 5.81315E+01 3.00000E+00
 -1      2792-7.35654E+00 2.97014E+01 3.00000E+00
 -1      2793 5.52895E+00 2.19578E+02 3.00000E+00
 -1      2794-2.05523E-01 3.01176E+01 3.00000E+00
 -1      2795 6.79807E+00 2.93397E+01 3.00000E+00
 -1      2796-5.66122E+00 2.07423E+02 3.00000E+00
 -1      2797-7.14342E+00 3.52962E+01 3.00000E+00
 -1      2798-3.42396E-01 3.40717E+01 3.00000E+00
 -1      2799-7.10558E-02 2.19351E+02 3.00000E+00
 -1      2800-4.55684E-01 2.13371E+02 3.00000E+00
 -1      2801 6.54310E+00 2.13030E+02 3.00000E+00
 -1      2802-6.56817E+00 1.29438E+02 3.00000E+00
 -1      2803 1.92587E-01 4.22330E+01 3.00000E+00
 -1      2804-6.56805E+00 1.17629E+02 3.00000E+00
 -1      2805-6.57465E+00 1.41338E+02 3.00000E+00
 -1      2806-6.56386E+00 1.05749E+02 3.00000E+00
 -1      2807-6.57879E+00 9.39466E+01 3.00000E+00
 -1      2808-6.51398E+00 1.53270E+02 3.00000E+00
 -1      2809 1.15968E+01 2.46028E+01 3.00000E+00
 -1      2810-7.07048E+00 2.20570E+02 3.00000E+00
 -1      2811-6.51832E+00 1.65177E+02 3.00000E+00
 -1      2812-6.48704E+00 1.77148E+02 3.00000E+00
 -1      2813-6.49441E+00 1.89077E+02 3.00000E+00
 -1      2814-6.56335E+00 8.21122E+01 3.00000E+00
 -1      2815-6.61343E+00 2.00859E+02 3.00000E+00
 -1      2816-2.20046E-01 6.25680E+01 3.00000E+00
 -1      2817-1.64723E-01 5.23769E+01 3.00000E+00
 -1      2818 6.57716E+00 1.77528E+02 3.00000E+00
 -1      2819 6.59119E+00 1.65736E+02 3.00000E+00
 -1      2820 6.59034E+00 1.53934E+02 3.00000E+00
 -1      2821 6.59224E+00 1.42131E+02 3.00000E+00
 -1      2822 6.56232E+00 2.01066E+02 3.00000E+00
 -1      2823 6.56348E+00 1.30332E+02 3.00000E+00
 -1      2824 6.51337E+00 2.05870E+02 3.00000E+00
 -1      2825 6.46242E+00 1.89271E+02 3.00000E+00
 -1      2826 6.56073E+00 1.18529E+02 3.00000E+00
 -1      2827 6.57365E+00 1.94059E+02 3.00000E+00
 -1      2828 6.55742E+00 1.06725E+02 3.00000E+00
 -1      2829-1.10340E-01 1.89696E+02 3.00000E+00
 -1      2830 6.55355E+00 9.49203E+01 3.00000E+00
 -1      2831-8.48990E-02 2.01792E+02 3.00000E+00
 -1      2832 6.60962E+00 8.31123E+01 3.00000E+00
 -1      2833 6.28582E-02 1.78110E+02 3.00000E+00
 -1      2834 8.03085E-02 1.66281E+02 3.00000E+00
 -1      2835 8.67545E-02 1.54444E+02 3.00000E+00
 -1      2836 9.39919E-02 1.42493E+02 3.00000E+00
 -1      2837 8.47551E-02 1.30694E+02 3.00000E+00
 -1      2838 1.38929E-01 1.19076E+02 3.00000E+00
 -1      2839 1.35190E-01 1.07269E+02 3.00000E+00
 -1      2840 1.30116E-01 9.54615E+01 3.00000E+00
 -1      2841 3.76763E-02 8.37984E+01 3.00000E+00
 -1      2842 6.95097E-02 7.22668E+01 3.00000E+00
 -1      2843 2.54608E-01 8.75271E+01 3.00000E+00
 -1      2844 2.68551E-01 9.92958E+01 3.00000E+00
 -1      2845 6.54411E+00 8.79020E+01 3.00000E+00
 -1      2846 6.44975E+00 7.13382E+01 3.00000E+00
 -1      2847 2.66164E-01 1.11103E+02 3.00000E+00
 -1      2848 1.87127E-01 1.22914E+02 3.00000E+00
 -1      2849 6.53687E+00 9.97057E+01 3.00000E+00
 -1      2850 1.46013E-01 1.34355E+02 3.00000E+00
 -1      2851 7.66072E-02 1.46174E+02 3.00000E+00
 -1      2852 6.53790E+00 1.11509E+02 3.00000E+00
 -1      2853 6.76407E-02 1.58024E+02 3.00000E+00
 -1      2854 5.87713E-02 1.69848E+02 3.00000E+00
 -1      2855 1.34829E-02 1.93439E+02 3.00000E+00
 -1      2856 2.60221E-02 1.81661E+02 3.00000E+00
 -1      2857 6.53854E+00 1.23311E+02 3.00000E+00
 -1      2858 8.81360E-02 2.05513E+02 3.00000E+00
 -1      2859 6.56538E+00 1.35110E+02 3.00000E+00
 -1      2860 6.56553E+00 1.46911E+02 3.00000E+00
 -1      2861 6.56432E+00 1.58713E+02 3.00000E+00
 -1      2862 6.61507E+00 4.02528E+01 3.00000E+00
 -1      2863 6.56323E+00 1.70514E+02 3.00000E+00
 -1      2864 6.47766E+00 1.82303E+02 3.00000E+00
 -1      2865-3.93915E+00 2.88227E+01 3.00000E+00
 -1      2866-6.44937E+00 1.81989E+02 3.00000E+00
 -1      2867-6.73425E+00 4.15636E+01 3.00000E+00
 -1      2868-6.47867E+00 1.70064E+02 3.00000E+00
 -1      2869 6.55160E+00 7.61633E+01 3.00000E+00
 -1      2870-6.47048E+00 1.58170E+02 3.00000E+00
 -1      2871-6.55934E+00 1.93858E+02 3.00000E+00
 -1      2872 2.80812E+00 2.12353E+02 3.00000E+00
 -1      2873-6.47150E+00 1.46271E+02 3.00000E+00
 -1      2874 6.56352E+00 3.44275E+01 3.00000E+00
 -1      2875-6.52801E+00 1.34352E+02 3.00000E+00
 -1      2876-3.28742E+00 3.61127E+01 3.00000E+00
 -1      2877-6.44181E+00 6.56500E+01 3.00000E+00
 -1      2878-7.16340E+00 1.22393E+02 3.00000E+00
 -1      2879-7.12857E+00 1.10439E+02 3.00000E+00
 -1      2880 5.97613E-02 7.59119E+01 3.00000E+00
 -1      2881-7.12522E+00 9.85674E+01 3.00000E+00
 -1      2882 3.38341E+00 2.88278E+01 3.00000E+00
 -1      2883-7.14001E+00 8.67958E+01 3.00000E+00
 -1      2884 6.60320E+00 4.48278E+01 3.00000E+00
 -1      2885 6.66033E+00 5.13268E+01 3.00000E+00
 -1      2886-2.86671E+00 1.39988E+02 3.00000E+00
 -1      2887 2.87247E+00 3.96026E+01 3.00000E+00
 -1      2888-2.72282E+00 1.28322E+02 3.00000E+00
 -1      2889-1.00776E+01 2.74156E+01 3.00000E+00
 -1      2890-2.84307E+00 1.52770E+02 3.00000E+00
 -1      2891 6.94962E+00 5.50648E+01 3.00000E+00
 -1      2892-2.71204E+00 1.16623E+02 3.00000E+00
 -1      2893-2.85126E+00 1.64637E+02 3.00000E+00
 -1      2894-2.70607E+00 1.04797E+02 3.00000E+00
 -1      2895-7.73890E+00 2.17246E+02 3.00000E+00
 -1      2896-2.72639E+00 9.30752E+01 3.00000E+00
 -1      2897-2.84696E+00 1.76520E+02 3.00000E+00
 -1      2898-7.26422E+00 7.50152E+01 3.00000E+00
 -1      2899-6.79903E+00 6.21569E+01 3.00000E+00
 -1      2900-6.66140E+00 5.12656E+01 3.00000E+00
 -1      2901-2.61836E+00 4.01997E+01 3.00000E+00
 -1      2902-6.61738E+00 5.48558E+01 3.00000E+00
 -1      2903-6.95020E+00 4.51439E+01 3.00000E+00
 -1      2904-2.85540E+00 8.13574E+01 3.00000E+00
 -1      2905 7.19734E+00 6.43080E+01 3.00000E+00
 -1      2906 2.68463E+00 7.73161E+01 3.00000E+00
 -1      2907-2.87306E+00 1.88344E+02 3.00000E+00
 -1      2908-1.27853E+01 2.54812E+01 3.00000E+00
 -1      2909-2.99049E+00 2.00327E+02 3.00000E+00
 -1      2910 2.81602E+00 1.88434E+02 3.00000E+00
 -1      2911 2.98446E+00 2.00295E+02 3.00000E+00
 -1      2912 7.58721E+00 2.17243E+02 3.00000E+00
 -1      2913-1.12848E+00 4.52093E+01 3.00000E+00
 -1      2914 2.98920E+00 8.15327E+01 3.00000E+00
 -1      2915 3.10405E+00 9.41208E+01 3.00000E+00
 -1      2916 3.10724E+00 1.05927E+02 3.00000E+00
 -1      2917 3.10955E+00 1.17732E+02 3.00000E+00
 -1      2918 3.09968E+00 1.29499E+02 3.00000E+00
 -1      2919 3.10099E+00 1.41280E+02 3.00000E+00
 -1      2920 3.01672E+00 1.53114E+02 3.00000E+00
 -1      2921 3.01320E+00 1.64930E+02 3.00000E+00
 -1      2922 2.98458E+00 1.76721E+02 3.00000E+00
 -1      2923 2.35521E+00 3.60262E+01 3.00000E+00
 -1      2924 2.93144E+00 7.07215E+01 3.00000E+00
 -1      2925 3.12562E+00 8.87676E+01 3.00000E+00
 -1      2926 3.00710E+00 1.94863E+02 3.00000E+00
 -1      2927-2.29500E+00 6.64381E+01 3.00000E+00
 -1      2928-7.15809E+00 2.04569E+02 3.00000E+00
 -1      2929 2.99955E+00 2.06777E+02 3.00000E+00
 -1      2930 3.12853E+00 1.00566E+02 3.00000E+00
 -1      2931 3.12932E+00 1.12371E+02 3.00000E+00
 -1      2932 3.11423E+00 1.24177E+02 3.00000E+00
 -1      2933 2.72970E+00 5.02313E+01 3.00000E+00
 -1      2934 3.10525E+00 1.35886E+02 3.00000E+00
 -1      2935 3.00913E+00 1.47693E+02 3.00000E+00
 -1      2936 3.00486E+00 1.59513E+02 3.00000E+00
 -1      2937 3.00082E+00 1.71319E+02 3.00000E+00
 -1      2938 2.84700E+00 1.83094E+02 3.00000E+00
 -1      2939 2.49878E+00 4.59437E+01 3.00000E+00
 -1      2940 1.10291E+00 5.54020E+01 3.00000E+00
 -1      2941 1.21252E+00 6.55776E+01 3.00000E+00
 -1      2942-3.25345E+00 6.02230E+01 3.00000E+00
 -1      2943-2.67241E+00 5.61061E+01 3.00000E+00
 -1      2944 9.16523E+00 2.70072E+01 3.00000E+00
 -1      2945-8.30058E+00 2.23607E+02 3.00000E+00
 -1      2946 8.50913E+00 2.23568E+02 3.00000E+00
 -1      2947 7.94804E+00 2.21010E+02 3.00000E+00
 -1      2948-2.89693E+00 1.94790E+02 3.00000E+00
 -1      2949-2.82524E+00 1.82941E+02 3.00000E+00
 -1      2950-2.61234E+00 5.02782E+01 3.00000E+00
 -1      2951-3.46089E+00 2.20119E+02 3.00000E+00
 -1      2952-6.70384E+00 2.13818E+02 3.00000E+00
 -1      2953-2.85159E+00 1.71065E+02 3.00000E+00
 -1      2954-8.34532E+00 3.23648E+01 3.00000E+00
 -1      2955 2.70324E+00 6.04927E+01 3.00000E+00
 -1      2956 7.08463E+00 6.07209E+01 3.00000E+00
 -1      2957-2.84273E+00 1.59212E+02 3.00000E+00
 -1      2958-8.00200E+00 3.86176E+01 3.00000E+00
 -1      2959-2.44204E+00 2.07456E+02 3.00000E+00
 -1      2960-2.83513E+00 1.47344E+02 3.00000E+00
 -1      2961-2.87259E+00 1.35834E+02 3.00000E+00
 -1      2962-7.20585E+00 2.10159E+02 3.00000E+00
 -1      2963-9.72159E+00 2.24353E+02 3.00000E+00
 -1      2964 9.77373E+00 2.24343E+02 3.00000E+00
 -1      2965 7.98003E+00 3.20333E+01 3.00000E+00
 -1      2966 2.62412E+00 2.20216E+02 3.00000E+00
 -1      2967-2.06358E+00 1.25045E+02 3.00000E+00
 -1      2968-7.16861E+00 7.15616E+01 3.00000E+00
 -1      2969-2.00718E+00 1.13166E+02 3.00000E+00
 -1      2970-2.00175E+00 1.01345E+02 3.00000E+00
 -1      2971-2.08324E+00 7.01005E+01 3.00000E+00
 -1      2972-2.03326E+00 8.96798E+01 3.00000E+00
 -1      2973-7.83593E+00 7.81557E+01 3.00000E+00
 -1      2974-1.26266E+00 2.16469E+02 3.00000E+00
 -1      2975 7.64779E+00 3.68741E+01 3.00000E+00
 -1      2976-7.90829E+00 9.00757E+01 3.00000E+00
 -1      2977-7.92804E+00 1.01996E+02 3.00000E+00
 -1      2978 7.69109E+00 6.77399E+01 3.00000E+00
 -1      2979-7.94604E+00 1.13916E+02 3.00000E+00
 -1      2980-7.96133E+00 1.25836E+02 3.00000E+00
 -1      2981-3.39893E+00 2.14410E+02 3.00000E+00
 -1      2982-7.97038E+00 1.37756E+02 3.00000E+00
 -1      2983-2.26875E+00 7.78916E+01 3.00000E+00
 -1      2984-7.75143E+00 1.49711E+02 3.00000E+00
 -1      2985-7.75641E+00 1.61625E+02 3.00000E+00
 -1      2986 7.77065E+00 2.09401E+02 3.00000E+00
 -1      2987 8.00463E+00 1.97578E+02 3.00000E+00
 -1      2988-7.75830E+00 1.73545E+02 3.00000E+00
 -1      2989 7.63579E+00 1.85785E+02 3.00000E+00
 -1      2990 7.90968E+00 1.73987E+02 3.00000E+00
 -1      2991 8.01624E+00 4.81301E+01 3.00000E+00
 -1      2992-7.63767E+00 1.85486E+02 3.00000E+00
 -1      2993 7.91265E+00 1.62188E+02 3.00000E+00
 -1      2994 7.91466E+00 1.50389E+02 3.00000E+00
 -1      2995-7.78572E+00 1.97368E+02 3.00000E+00
 -1      2996 7.91776E+00 1.38590E+02 3.00000E+00
 -1      2997 7.79782E+00 1.26798E+02 3.00000E+00
 -1      2998 7.79835E+00 1.14998E+02 3.00000E+00
 -1      2999-1.13913E+01 2.53371E+01 3.00000E+00
 -1      3000 7.79860E+00 1.03198E+02 3.00000E+00
 -1      3001 7.79948E+00 9.13983E+01 3.00000E+00
 -1      3002 8.02597E+00 7.95929E+01 3.00000E+00
 -1      3003 8.30753E+00 4.12418E+01 3.00000E+00
 -1      3004 8.30753E+00 3.92754E+01 3.00000E+00
 -1      3005 8.94670E+00 3.56713E+01 3.00000E+00
 -1      3006 8.82389E+00 3.75860E+01 3.00000E+00
 -1      3007 7.13143E+00 3.85634E+01 3.00000E+00
 -1      3008 8.79361E+00 2.16259E+02 3.00000E+00
 -1      3009 8.79361E+00 2.18226E+02 3.00000E+00
 -1      3010 9.10258E+00 2.21708E+02 3.00000E+00
 -1      3011 8.97402E+00 2.20109E+02 3.00000E+00
 -1      3012 7.76762E+00 2.19126E+02 3.00000E+00
 -1      3013 1.32680E+01 2.29974E+01 3.00000E+00
 -1      3014 1.01643E+01 2.25698E+02 3.00000E+00
 -1      3015-1.38579E+01 2.40308E+01 3.00000E+00
 -1      3016-1.01643E+01 2.25698E+02 3.00000E+00
 -1      3017-8.66380E+00 2.21488E+02 3.00000E+00
 -1      3018-8.53524E+00 2.19890E+02 3.00000E+00
 -1      3019-8.86945E+00 2.16241E+02 3.00000E+00
 -1      3020-8.86945E+00 2.18227E+02 3.00000E+00
 -1      3021-7.40469E+00 2.18908E+02 3.00000E+00
 -1      3022-8.36712E+00 4.29730E+01 3.00000E+00
 -1      3023-8.36712E+00 4.09863E+01 3.00000E+00
 -1      3024-9.09473E+00 3.78390E+01 3.00000E+00
 -1      3025-9.00100E+00 3.95133E+01 3.00000E+00
 -1      3026-7.36813E+00 4.00906E+01 3.00000E+00
 -1      3027 8.30160E+00 4.54958E+01 3.00000E+00
 -1      3028 8.30160E+00 4.35293E+01 3.00000E+00
 -1      3029 6.60913E+00 4.25403E+01 3.00000E+00
 -1      3030 9.00812E+00 4.91133E+01 3.00000E+00
 -1      3031 9.00812E+00 4.71469E+01 3.00000E+00
 -1      3032 7.30972E+00 4.64790E+01 3.00000E+00
 -1      3033 8.33016E+00 5.26781E+01 3.00000E+00
 -1      3034 8.33016E+00 5.07117E+01 3.00000E+00
 -1      3035 7.33829E+00 4.97285E+01 3.00000E+00
 -1      3036 8.47481E+00 5.65135E+01 3.00000E+00
 -1      3037 8.47481E+00 5.45471E+01 3.00000E+00
 -1      3038 6.80498E+00 5.31958E+01 3.00000E+00
 -1      3039 8.54231E+00 6.13080E+01 3.00000E+00
 -1      3040 8.54231E+00 5.93416E+01 3.00000E+00
 -1      3041 5.89212E+00 5.65982E+01 3.00000E+00
 -1      3042 7.41731E+00 5.80469E+01 3.00000E+00
 -1      3043 5.95962E+00 5.94262E+01 3.00000E+00
 -1      3044 8.59867E+00 6.50679E+01 3.00000E+00
 -1      3045 8.59867E+00 6.31015E+01 3.00000E+00
 -1      3046 7.14098E+00 6.25144E+01 3.00000E+00
 -1      3047 8.84555E+00 6.87503E+01 3.00000E+00
 -1      3048 8.84555E+00 6.67839E+01 3.00000E+00
 -1      3049 7.44422E+00 6.60239E+01 3.00000E+00
 -1      3050 8.22488E+00 7.25159E+01 3.00000E+00
 -1      3051 8.22488E+00 7.05495E+01 3.00000E+00
 -1      3052 7.07042E+00 6.95390E+01 3.00000E+00
 -1      3053 8.27580E+00 7.68949E+01 3.00000E+00
 -1      3054 8.27580E+00 7.49285E+01 3.00000E+00
 -1      3055 6.50067E+00 7.37507E+01 3.00000E+00
 -1      3056 9.01298E+00 8.05761E+01 3.00000E+00
 -1      3057 9.01298E+00 7.86097E+01 3.00000E+00
 -1      3058 7.28878E+00 7.78781E+01 3.00000E+00
 -1      3059 8.30481E+00 8.43022E+01 3.00000E+00
 -1      3060 8.30481E+00 8.23358E+01 3.00000E+00
 -1      3061 7.31780E+00 8.13526E+01 3.00000E+00
 -1      3062 8.27205E+00 8.86635E+01 3.00000E+00
 -1      3063 8.27205E+00 8.66971E+01 3.00000E+00
 -1      3064 6.57687E+00 8.55071E+01 3.00000E+00
 -1      3065 8.89974E+00 9.23781E+01 3.00000E+00
 -1      3066 8.89974E+00 9.04116E+01 3.00000E+00
 -1      3067 7.17179E+00 8.96501E+01 3.00000E+00
 -1      3068 8.27677E+00 9.61055E+01 3.00000E+00
 -1      3069 8.27677E+00 9.41391E+01 3.00000E+00
 -1      3070 7.17651E+00 9.31593E+01 3.00000E+00
 -1      3071 8.26844E+00 1.00465E+02 3.00000E+00
 -1      3072 8.26844E+00 9.84982E+01 3.00000E+00
 -1      3073 6.54521E+00 9.73130E+01 3.00000E+00
 -1      3074 8.89930E+00 1.04177E+02 3.00000E+00
 -1      3075 8.89930E+00 1.02211E+02 3.00000E+00
 -1      3076 7.16774E+00 1.01452E+02 3.00000E+00
 -1      3077 8.27871E+00 1.07907E+02 3.00000E+00
 -1      3078 8.27871E+00 1.05941E+02 3.00000E+00
 -1      3079 7.17801E+00 1.04962E+02 3.00000E+00
 -1      3080 8.26895E+00 1.12265E+02 3.00000E+00
 -1      3081 8.26895E+00 1.10299E+02 3.00000E+00
 -1      3082 6.54766E+00 1.09117E+02 3.00000E+00
 -1      3083 8.89917E+00 1.15977E+02 3.00000E+00
 -1      3084 8.89917E+00 1.14010E+02 3.00000E+00
 -1      3085 7.16812E+00 1.13253E+02 3.00000E+00
 -1      3086 8.28036E+00 1.19708E+02 3.00000E+00
 -1      3087 8.28036E+00 1.17742E+02 3.00000E+00
 -1      3088 7.17954E+00 1.16763E+02 3.00000E+00
 -1      3089 8.26927E+00 1.24066E+02 3.00000E+00
 -1      3090 8.26927E+00 1.22099E+02 3.00000E+00
 -1      3091 6.54964E+00 1.20920E+02 3.00000E+00
 -1      3092 8.89891E+00 1.27776E+02 3.00000E+00
 -1      3093 8.89891E+00 1.25809E+02 3.00000E+00
 -1      3094 7.16818E+00 1.25055E+02 3.00000E+00
 -1      3095 8.28174E+00 1.31509E+02 3.00000E+00
 -1      3096 8.28174E+00 1.29543E+02 3.00000E+00
 -1      3097 7.18065E+00 1.28565E+02 3.00000E+00
 -1      3098 8.28269E+00 1.35864E+02 3.00000E+00
 -1      3099 8.28269E+00 1.33898E+02 3.00000E+00
 -1      3100 6.56443E+00 1.32721E+02 3.00000E+00
 -1      3101 8.95888E+00 1.39571E+02 3.00000E+00
 -1      3102 8.95888E+00 1.37605E+02 3.00000E+00
 -1      3103 7.24157E+00 1.36850E+02 3.00000E+00
 -1      3104 8.29612E+00 1.43308E+02 3.00000E+00
 -1      3105 8.29612E+00 1.41342E+02 3.00000E+00
 -1      3106 7.25500E+00 1.40361E+02 3.00000E+00
 -1      3107 8.28277E+00 1.47664E+02 3.00000E+00
 -1      3108 8.28277E+00 1.45698E+02 3.00000E+00
 -1      3109 6.57889E+00 1.44521E+02 3.00000E+00
 -1      3110 8.95733E+00 1.51370E+02 3.00000E+00
 -1      3111 8.95733E+00 1.49403E+02 3.00000E+00
 -1      3112 7.24010E+00 1.48650E+02 3.00000E+00
 -1      3113 8.29517E+00 1.55109E+02 3.00000E+00
 -1      3114 8.29517E+00 1.53142E+02 3.00000E+00
 -1      3115 7.25250E+00 1.52161E+02 3.00000E+00
 -1      3116 8.28216E+00 1.59464E+02 3.00000E+00
 -1      3117 8.28216E+00 1.57498E+02 3.00000E+00
 -1      3118 6.57733E+00 1.56323E+02 3.00000E+00
 -1      3119 8.95632E+00 1.63169E+02 3.00000E+00
 -1      3120 8.95632E+00 1.61202E+02 3.00000E+00
 -1      3121 7.23848E+00 1.60450E+02 3.00000E+00
 -1      3122 8.29559E+00 1.66909E+02 3.00000E+00
 -1      3123 8.29559E+00 1.64943E+02 3.00000E+00
 -1      3124 7.25192E+00 1.63962E+02 3.00000E+00
 -1      3125 8.28162E+00 1.71264E+02 3.00000E+00
 -1      3126 8.28162E+00 1.69298E+02 3.00000E+00
 -1      3127 6.57721E+00 1.68125E+02 3.00000E+00
 -1      3128 8.95484E+00 1.74967E+02 3.00000E+00
 -1      3129 8.95484E+00 1.73001E+02 3.00000E+00
 -1      3130 7.23646E+00 1.72250E+02 3.00000E+00
 -1      3131 8.28858E+00 1.78704E+02 3.00000E+00
 -1      3132 8.28858E+00 1.76738E+02 3.00000E+00
 -1      3133 7.24342E+00 1.75757E+02 3.00000E+00
 -1      3134 8.23883E+00 1.83058E+02 3.00000E+00
 -1      3135 8.23883E+00 1.81092E+02 3.00000E+00
 -1      3136 6.52741E+00 1.79915E+02 3.00000E+00
 -1      3137 8.81789E+00 1.86766E+02 3.00000E+00
 -1      3138 8.81789E+00 1.84799E+02 3.00000E+00
 -1      3139 7.05672E+00 1.84044E+02 3.00000E+00
 -1      3140 8.23121E+00 1.90475E+02 3.00000E+00
 -1      3141 8.23121E+00 1.88508E+02 3.00000E+00
 -1      3142 7.04911E+00 1.87528E+02 3.00000E+00
 -1      3143 8.28683E+00 1.94835E+02 3.00000E+00
 -1      3144 8.28683E+00 1.92869E+02 3.00000E+00
 -1      3145 6.51804E+00 1.91665E+02 3.00000E+00
 -1      3146 9.00232E+00 1.98562E+02 3.00000E+00
 -1      3147 9.00232E+00 1.96595E+02 3.00000E+00
 -1      3148 7.28914E+00 1.95818E+02 3.00000E+00
 -1      3149 8.28116E+00 2.02272E+02 3.00000E+00
 -1      3150 8.28116E+00 2.00305E+02 3.00000E+00
 -1      3151 7.28348E+00 1.99322E+02 3.00000E+00
 -1      3152 8.25669E+00 2.06640E+02 3.00000E+00
 -1      3153 8.25669E+00 2.04674E+02 3.00000E+00
 -1      3154 6.53785E+00 2.03468E+02 3.00000E+00
 -1      3155 8.88533E+00 2.10372E+02 3.00000E+00
 -1      3156 8.88533E+00 2.08406E+02 3.00000E+00
 -1      3157 7.14201E+00 2.07636E+02 3.00000E+00
 -1      3158 8.27155E+00 2.14153E+02 3.00000E+00
 -1      3159 8.27155E+00 2.12187E+02 3.00000E+00
 -1      3160 7.15688E+00 2.11216E+02 3.00000E+00
 -1      3161 7.06516E+00 2.15136E+02 3.00000E+00
 -1      3162 1.18908E+01 2.58308E+01 3.00000E+00
 -1      3163 1.27218E+01 2.41014E+01 3.00000E+00
 -1      3164 1.21430E+01 2.34989E+01 3.00000E+00
 -1      3165 1.00715E+01 2.88543E+01 3.00000E+00
 -1      3166 1.06750E+01 2.70330E+01 3.00000E+00
 -1      3167 1.03810E+01 2.58050E+01 3.00000E+00
 -1      3168 9.11283E+00 3.32509E+01 3.00000E+00
 -1      3169 9.47893E+00 3.13674E+01 3.00000E+00
 -1      3170 7.98165E+00 2.81734E+01 3.00000E+00
 -1      3171 8.88795E+00 3.00206E+01 3.00000E+00
 -1      3172 7.38905E+00 3.06865E+01 3.00000E+00
 -1      3173 7.27178E+00 3.32304E+01 3.00000E+00
 -1      3174 8.40457E+00 3.44480E+01 3.00000E+00
 -1      3175 7.10565E+00 3.56508E+01 3.00000E+00
 -1      3176 1.03978E+01 2.24932E+02 3.00000E+00
 -1      3177 1.00154E+01 2.23375E+02 3.00000E+00
 -1      3178 8.22858E+00 2.22289E+02 3.00000E+00
 -1      3179 9.38313E+00 2.22987E+02 3.00000E+00
 -1      3180 9.14143E+00 2.23955E+02 3.00000E+00
 -1      3181 9.54023E+00 2.25109E+02 3.00000E+00
 -1      3182 1.04049E+01 2.42923E+01 3.00000E+00
 -1      3183 7.36518E+00 2.60636E+01 3.00000E+00
 -1      3184 9.18913E+00 2.54945E+01 3.00000E+00
 -1      3185 2.59356E+00 2.73109E+01 3.00000E+00
 -1      3186 4.47426E+00 2.69740E+01 3.00000E+00
 -1      3187 5.09074E+00 2.90838E+01 3.00000E+00
 -1      3188 6.18160E+00 2.72299E+01 3.00000E+00
 -1      3189-1.10909E+00 2.80526E+01 3.00000E+00
 -1      3190 7.99094E-01 2.79558E+01 3.00000E+00
 -1      3191 1.58894E+00 2.94727E+01 3.00000E+00
 -1      3192-4.88055E+00 2.72547E+01 3.00000E+00
 -1      3193-2.97590E+00 2.74051E+01 3.00000E+00
 -1      3194-2.07234E+00 2.94702E+01 3.00000E+00
 -1      3195-9.81738E+00 2.61488E+01 3.00000E+00
 -1      3196-7.94977E+00 2.65512E+01 3.00000E+00
 -1      3197-5.64785E+00 2.92621E+01 3.00000E+00
 -1      3198-6.58924E+00 2.76941E+01 3.00000E+00
 -1      3199-8.71707E+00 2.85585E+01 3.00000E+00
 -1      3200-1.22683E+01 2.44533E+01 3.00000E+00
 -1      3201-1.04743E+01 2.51095E+01 3.00000E+00
 -1      3202-1.07345E+01 2.63763E+01 3.00000E+00
 -1      3203-1.36779E+01 2.49867E+01 3.00000E+00
 -1      3204-1.29653E+01 2.45254E+01 3.00000E+00
 -1      3205-1.20883E+01 2.54091E+01 3.00000E+00
 -1      3206 7.15747E+00 2.23812E+02 3.00000E+00
 -1      3207 8.90793E+00 2.24722E+02 3.00000E+00
 -1      3208 2.29850E+00 2.21667E+02 3.00000E+00
 -1      3209 4.21496E+00 2.22136E+02 3.00000E+00
 -1      3210 6.73850E+00 2.20294E+02 3.00000E+00
 -1      3211 6.87692E+00 2.22532E+02 3.00000E+00
 -1      3212 5.66738E+00 2.21816E+02 3.00000E+00
 -1      3213 4.07654E+00 2.19897E+02 3.00000E+00
 -1      3214-1.02197E+00 2.21235E+02 3.00000E+00
 -1      3215 9.50909E-01 2.21235E+02 3.00000E+00
 -1      3216 1.27653E+00 2.19784E+02 3.00000E+00
 -1      3217-4.63335E+00 2.22087E+02 3.00000E+00
 -1      3218-2.71688E+00 2.21619E+02 3.00000E+00
 -1      3219-1.76597E+00 2.19735E+02 3.00000E+00
 -1      3220-8.80365E+00 2.24741E+02 3.00000E+00
 -1      3221-7.05319E+00 2.23831E+02 3.00000E+00
 -1      3222-7.68553E+00 2.22089E+02 3.00000E+00
 -1      3223-6.43814E+00 2.22313E+02 3.00000E+00
 -1      3224-5.26568E+00 2.20345E+02 3.00000E+00
 -1      3225-1.03718E+01 2.24937E+02 3.00000E+00
 -1      3226-9.51416E+00 2.25114E+02 3.00000E+00
 -1      3227-9.01108E+00 2.23980E+02 3.00000E+00
 -1      3228-9.98936E+00 2.23380E+02 3.00000E+00
 -1      3229-9.27885E+00 2.23007E+02 3.00000E+00
 -1      3230-8.35192E+00 2.12540E+02 3.00000E+00
 -1      3231-8.35192E+00 2.14527E+02 3.00000E+00
 -1      3232-7.22137E+00 2.15532E+02 3.00000E+00
 -1      3233-8.60292E+00 2.08724E+02 3.00000E+00
 -1      3234-8.60292E+00 2.10711E+02 3.00000E+00
 -1      3235-6.95484E+00 2.11989E+02 3.00000E+00
 -1      3236-8.57904E+00 2.03942E+02 3.00000E+00
 -1      3237-8.57904E+00 2.05929E+02 3.00000E+00
 -1      3238-6.40965E+00 2.05996E+02 3.00000E+00
 -1      3239-7.83061E+00 2.07356E+02 3.00000E+00
 -1      3240-6.43353E+00 2.08791E+02 3.00000E+00
 -1      3241-8.30672E+00 2.00100E+02 3.00000E+00
 -1      3242-8.30672E+00 2.02087E+02 3.00000E+00
 -1      3243-6.88576E+00 2.02714E+02 3.00000E+00
 -1      3244-8.89286E+00 1.96368E+02 3.00000E+00
 -1      3245-8.89286E+00 1.98355E+02 3.00000E+00
 -1      3246-7.19957E+00 1.99113E+02 3.00000E+00
 -1      3247-8.27967E+00 1.92627E+02 3.00000E+00
 -1      3248-8.27967E+00 1.94614E+02 3.00000E+00
 -1      3249-7.17253E+00 1.95613E+02 3.00000E+00
 -1      3250-8.24720E+00 1.88250E+02 3.00000E+00
 -1      3251-8.24720E+00 1.90236E+02 3.00000E+00
 -1      3252-6.52688E+00 1.91468E+02 3.00000E+00
 -1      3253-8.81883E+00 1.84467E+02 3.00000E+00
 -1      3254-8.81883E+00 1.86454E+02 3.00000E+00
 -1      3255-7.06604E+00 1.87281E+02 3.00000E+00
 -1      3256-8.22468E+00 1.80732E+02 3.00000E+00
 -1      3257-8.22468E+00 1.82719E+02 3.00000E+00
 -1      3258-7.04352E+00 1.83737E+02 3.00000E+00
 -1      3259-8.24352E+00 1.76325E+02 3.00000E+00
 -1      3260-8.24352E+00 1.78312E+02 3.00000E+00
 -1      3261-6.46821E+00 1.79569E+02 3.00000E+00
 -1      3262-8.87915E+00 1.72537E+02 3.00000E+00
 -1      3263-8.87915E+00 1.74523E+02 3.00000E+00
 -1      3264-7.12267E+00 1.75347E+02 3.00000E+00
 -1      3265-8.23934E+00 1.68810E+02 3.00000E+00
 -1      3266-8.23934E+00 1.70796E+02 3.00000E+00
 -1      3267-7.11849E+00 1.71804E+02 3.00000E+00
 -1      3268-8.25916E+00 1.64379E+02 3.00000E+00
 -1      3269-8.25916E+00 1.66366E+02 3.00000E+00
 -1      3270-6.49850E+00 1.67620E+02 3.00000E+00
 -1      3271-8.87820E+00 1.60617E+02 3.00000E+00
 -1      3272-8.87820E+00 1.62604E+02 3.00000E+00
 -1      3273-7.13736E+00 1.63401E+02 3.00000E+00
 -1      3274-8.23524E+00 1.56903E+02 3.00000E+00
 -1      3275-8.23524E+00 1.58889E+02 3.00000E+00
 -1      3276-7.11344E+00 1.59897E+02 3.00000E+00
 -1      3277-8.25699E+00 1.52466E+02 3.00000E+00
 -1      3278-8.25699E+00 1.54453E+02 3.00000E+00
 -1      3279-6.49223E+00 1.55720E+02 3.00000E+00
 -1      3280-8.87571E+00 1.48700E+02 3.00000E+00
 -1      3281-8.87571E+00 1.50687E+02 3.00000E+00
 -1      3282-7.13270E+00 1.51491E+02 3.00000E+00
 -1      3283-8.23575E+00 1.44993E+02 3.00000E+00
 -1      3284-8.23575E+00 1.46980E+02 3.00000E+00
 -1      3285-7.11147E+00 1.47991E+02 3.00000E+00
 -1      3286-8.28733E+00 1.40540E+02 3.00000E+00
 -1      3287-8.28733E+00 1.42527E+02 3.00000E+00
 -1      3288-6.52308E+00 1.43805E+02 3.00000E+00
 -1      3289-8.98519E+00 1.36762E+02 3.00000E+00
 -1      3290-8.98519E+00 1.38749E+02 3.00000E+00
 -1      3291-7.27251E+00 1.39547E+02 3.00000E+00
 -1      3292-8.26400E+00 1.33074E+02 3.00000E+00
 -1      3293-8.26400E+00 1.35061E+02 3.00000E+00
 -1      3294-7.24919E+00 1.36054E+02 3.00000E+00
 -1      3295-8.28409E+00 1.28630E+02 3.00000E+00
 -1      3296-8.28409E+00 1.30617E+02 3.00000E+00
 -1      3297-6.54809E+00 1.31895E+02 3.00000E+00
 -1      3298-8.98067E+00 1.24842E+02 3.00000E+00
 -1      3299-8.98067E+00 1.26829E+02 3.00000E+00
 -1      3300-7.26475E+00 1.27637E+02 3.00000E+00
 -1      3301-8.58170E+00 1.21134E+02 3.00000E+00
 -1      3302-8.58170E+00 1.23121E+02 3.00000E+00
 -1      3303-7.56237E+00 1.24114E+02 3.00000E+00
 -1      3304-8.28402E+00 1.16766E+02 3.00000E+00
 -1      3305-8.28402E+00 1.18752E+02 3.00000E+00
 -1      3306-6.86573E+00 1.20011E+02 3.00000E+00
 -1      3307-8.97302E+00 1.12922E+02 3.00000E+00
 -1      3308-8.97302E+00 1.14909E+02 3.00000E+00
 -1      3309-7.25705E+00 1.15772E+02 3.00000E+00
 -1      3310-8.56429E+00 1.09197E+02 3.00000E+00
 -1      3311-8.56429E+00 1.11184E+02 3.00000E+00
 -1      3312-7.53731E+00 1.12177E+02 3.00000E+00
 -1      3313-8.28193E+00 1.04866E+02 3.00000E+00
 -1      3314-8.28193E+00 1.06852E+02 3.00000E+00
 -1      3315-6.84622E+00 1.08094E+02 3.00000E+00
 -1      3316-8.96402E+00 1.01002E+02 3.00000E+00
 -1      3317-8.96402E+00 1.02989E+02 3.00000E+00
 -1      3318-7.24595E+00 1.03872E+02 3.00000E+00
 -1      3319-8.56261E+00 9.73015E+01 3.00000E+00
 -1      3320-8.56261E+00 9.92882E+01 3.00000E+00
 -1      3321-7.52663E+00 1.00282E+02 3.00000E+00
 -1      3322-8.28939E+00 9.30045E+01 3.00000E+00
 -1      3323-8.28939E+00 9.49911E+01 3.00000E+00
 -1      3324-6.85200E+00 9.62570E+01 3.00000E+00
 -1      3325-8.95415E+00 8.90823E+01 3.00000E+00
 -1      3326-8.95415E+00 9.10690E+01 3.00000E+00
 -1      3327-7.24354E+00 9.20111E+01 3.00000E+00
 -1      3328-8.57001E+00 8.54557E+01 3.00000E+00
 -1      3329-8.57001E+00 8.74424E+01 3.00000E+00
 -1      3330-7.52415E+00 8.84357E+01 3.00000E+00
 -1      3331-8.28168E+00 8.11273E+01 3.00000E+00
 -1      3332-8.28168E+00 8.31139E+01 3.00000E+00
 -1      3333-6.85169E+00 8.44540E+01 3.00000E+00
 -1      3334-8.91796E+00 7.71623E+01 3.00000E+00
 -1      3335-8.91796E+00 7.91490E+01 3.00000E+00
 -1      3336-7.19964E+00 8.01339E+01 3.00000E+00
 -1      3337-8.63211E+00 7.36054E+01 3.00000E+00
 -1      3338-8.63211E+00 7.55921E+01 3.00000E+00
 -1      3339-7.55008E+00 7.65854E+01 3.00000E+00
 -1      3340-8.58430E+00 6.98920E+01 3.00000E+00
 -1      3341-8.58430E+00 7.18787E+01 3.00000E+00
 -1      3342-7.21642E+00 7.32884E+01 3.00000E+00
 -1      3343-8.22090E+00 6.49495E+01 3.00000E+00
 -1      3344-8.22090E+00 6.69362E+01 3.00000E+00
 -1      3345-5.71670E+00 6.73866E+01 3.00000E+00
 -1      3346-7.49580E+00 6.86728E+01 3.00000E+00
 -1      3347-6.08010E+00 7.03424E+01 3.00000E+00
 -1      3348-8.39952E+00 6.12163E+01 3.00000E+00
 -1      3349-8.39952E+00 6.32030E+01 3.00000E+00
 -1      3350-6.62042E+00 6.39035E+01 3.00000E+00
 -1      3351-8.07897E+00 5.73479E+01 3.00000E+00
 -1      3352-8.07897E+00 5.93345E+01 3.00000E+00
 -1      3353-6.47848E+00 6.02752E+01 3.00000E+00
 -1      3354-8.30869E+00 5.35924E+01 3.00000E+00
 -1      3355-8.30869E+00 5.55791E+01 3.00000E+00
 -1      3356-6.38765E+00 5.66246E+01 3.00000E+00
 -1      3357-8.33070E+00 4.98106E+01 3.00000E+00
 -1      3358-8.33070E+00 5.17973E+01 3.00000E+00
 -1      3359-6.63939E+00 5.30607E+01 3.00000E+00
 -1      3360-8.47510E+00 4.47631E+01 3.00000E+00
 -1      3361-8.47510E+00 4.67498E+01 3.00000E+00
 -1      3362-5.73402E+00 4.96292E+01 3.00000E+00
 -1      3363-7.40332E+00 4.81742E+01 3.00000E+00
 -1      3364-5.87842E+00 4.65684E+01 3.00000E+00
 -1      3365-6.84223E+00 4.33537E+01 3.00000E+00
 -1      3366-8.94570E+00 3.45250E+01 3.00000E+00
 -1      3367-8.66544E+00 3.61783E+01 3.00000E+00
 -1      3368-7.57271E+00 3.69569E+01 3.00000E+00
 -1      3369-1.00095E+01 3.14476E+01 3.00000E+00
 -1      3370-9.54665E+00 3.30593E+01 3.00000E+00
 -1      3371-7.74437E+00 3.38305E+01 3.00000E+00
 -1      3372-1.15152E+01 2.74228E+01 3.00000E+00
 -1      3373-1.08757E+01 2.89730E+01 3.00000E+00
 -1      3374-9.51513E+00 3.01159E+01 3.00000E+00
 -1      3375-7.85093E+00 3.10331E+01 3.00000E+00
 -1      3376-1.28691E+01 2.64556E+01 3.00000E+00
 -1      3377-1.14315E+01 2.64484E+01 3.00000E+00
 -1      3378-1.81491E+00 3.50922E+01 3.00000E+00
 -1      3379-2.81373E-01 3.60581E+01 3.00000E+00
 -1      3380-1.75389E+00 3.70786E+01 3.00000E+00
 -1      3381 1.00641E+00 3.50490E+01 3.00000E+00
 -1      3382 1.06743E+00 3.70353E+01 3.00000E+00
 -1      3383 1.53253E+00 4.09178E+01 3.00000E+00
 -1      3384-1.38811E-02 4.01387E+01 3.00000E+00
 -1      3385 1.32606E+00 3.88236E+01 3.00000E+00
 -1      3386-1.21289E+00 4.12163E+01 3.00000E+00
 -1      3387-1.41936E+00 3.91221E+01 3.00000E+00
 -1      3388-2.95289E+00 3.81562E+01 3.00000E+00
 -1      3389 2.61384E+00 3.78144E+01 3.00000E+00
 -1      3390-2.96755E+00 4.66011E+01 3.00000E+00
 -1      3391-5.22152E-01 4.67342E+01 3.00000E+00
 -1      3392-2.36123E+00 4.81260E+01 3.00000E+00
 -1      3393-3.70948E+00 4.91355E+01 3.00000E+00
 -1      3394-1.26408E+00 4.92687E+01 3.00000E+00
 -1      3395 1.28249E+00 5.13041E+01 3.00000E+00
 -1      3396-4.02753E-02 5.03180E+01 3.00000E+00
 -1      3397 1.40694E+00 4.92452E+01 3.00000E+00
 -1      3398-1.38853E+00 5.13276E+01 3.00000E+00
 -1      3399 6.85150E-01 4.55765E+01 3.00000E+00
 -1      3400 1.29147E+00 4.71014E+01 3.00000E+00
 -1      3401 2.61424E+00 4.80875E+01 3.00000E+00
 -1      3402-2.22283E+00 2.12307E+02 3.00000E+00
 -1      3403-1.77392E+00 2.10397E+02 3.00000E+00
 -1      3404-6.77711E-03 2.11460E+02 3.00000E+00
 -1      3405-3.21601E+00 2.09349E+02 3.00000E+00
 -1      3406-9.99957E-01 2.08503E+02 3.00000E+00
 -1      3407 3.74897E+00 2.10911E+02 3.00000E+00
 -1      3408 1.62512E+00 2.10952E+02 3.00000E+00
 -1      3409 2.56598E+00 2.09510E+02 3.00000E+00
 -1      3410 3.84469E+00 2.08123E+02 3.00000E+00
 -1      3411 1.72084E+00 2.08164E+02 3.00000E+00
 -1      3412 1.17622E+00 2.12862E+02 3.00000E+00
 -1      3413 1.54384E+00 2.06145E+02 3.00000E+00
 -1      3414 2.65133E-01 2.07532E+02 3.00000E+00
 -1      3415-1.17695E+00 2.06484E+02 3.00000E+00
 -1      3416 4.09380E+00 1.98936E+02 3.00000E+00
 -1      3417 1.48096E+00 1.98925E+02 3.00000E+00
 -1      3418 2.59030E+00 1.97567E+02 3.00000E+00
 -1      3419 1.49228E+00 1.96209E+02 3.00000E+00
 -1      3420 4.10512E+00 1.96220E+02 3.00000E+00
 -1      3421-1.50652E+00 1.98941E+02 3.00000E+00
 -1      3422-3.85315E+00 1.98897E+02 3.00000E+00
 -1      3423-2.36917E+00 1.97511E+02 3.00000E+00
 -1      3424-3.80636E+00 1.96129E+02 3.00000E+00
 -1      3425-1.45974E+00 1.96173E+02 3.00000E+00
 -1      3426-1.53770E+00 2.01059E+02 3.00000E+00
 -1      3427-5.37227E-02 1.99674E+02 3.00000E+00
 -1      3428 1.44978E+00 2.01043E+02 3.00000E+00
 -1      3429 1.51029E+00 1.94151E+02 3.00000E+00
 -1      3430-4.53169E-03 1.95497E+02 3.00000E+00
 -1      3431-1.44172E+00 1.94114E+02 3.00000E+00
 -1      3432-3.69925E+00 1.86968E+02 3.00000E+00
 -1      3433-2.28005E+00 1.85656E+02 3.00000E+00
 -1      3434-1.45385E+00 1.87032E+02 3.00000E+00
 -1      3435-3.67534E+00 1.84266E+02 3.00000E+00
 -1      3436-1.42994E+00 1.84331E+02 3.00000E+00
 -1      3437 1.39068E+00 1.87078E+02 3.00000E+00
 -1      3438 2.23012E+00 1.85762E+02 3.00000E+00
 -1      3439 3.65545E+00 1.87119E+02 3.00000E+00
 -1      3440 1.40617E+00 1.84408E+02 3.00000E+00
 -1      3441 3.67094E+00 1.84448E+02 3.00000E+00
 -1      3442-1.49170E+00 1.89020E+02 3.00000E+00
 -1      3443-7.24972E-02 1.87708E+02 3.00000E+00
 -1      3444 1.35284E+00 1.89065E+02 3.00000E+00
 -1      3445 1.43651E+00 1.82378E+02 3.00000E+00
 -1      3446-4.31601E-03 1.83691E+02 3.00000E+00
 -1      3447-1.39961E+00 1.82301E+02 3.00000E+00
 -1      3448-1.40406E+00 1.75250E+02 3.00000E+00
 -1      3449-3.77682E+00 1.75069E+02 3.00000E+00
 -1      3450-2.33393E+00 1.73800E+02 3.00000E+00
 -1      3451-3.77914E+00 1.72342E+02 3.00000E+00
 -1      3452-1.40638E+00 1.72523E+02 3.00000E+00
 -1      3453 3.97880E+00 1.75363E+02 3.00000E+00
 -1      3454 1.51171E+00 1.75351E+02 3.00000E+00
 -1      3455 2.50592E+00 1.73993E+02 3.00000E+00
 -1      3456 3.98691E+00 1.72662E+02 3.00000E+00
 -1      3457 1.51982E+00 1.72650E+02 3.00000E+00
 -1      3458-1.39205E+00 1.77315E+02 3.00000E+00
 -1      3459 5.08432E-02 1.76046E+02 3.00000E+00
 -1      3460 1.52372E+00 1.77416E+02 3.00000E+00
 -1      3461 1.52979E+00 1.70584E+02 3.00000E+00
 -1      3462 4.87998E-02 1.71915E+02 3.00000E+00
 -1      3463-1.39641E+00 1.70457E+02 3.00000E+00
 -1      3464-1.40178E+00 1.63410E+02 3.00000E+00
 -1      3465-3.77351E+00 1.63182E+02 3.00000E+00
 -1      3466-2.32403E+00 1.61955E+02 3.00000E+00
 -1      3467-3.76924E+00 1.60470E+02 3.00000E+00
 -1      3468-1.39752E+00 1.60697E+02 3.00000E+00
 -1      3469 3.99487E+00 1.63567E+02 3.00000E+00
 -1      3470 1.53045E+00 1.63556E+02 3.00000E+00
 -1      3471 2.51212E+00 1.62194E+02 3.00000E+00
 -1      3472 3.99070E+00 1.60859E+02 3.00000E+00
 -1      3473 1.52628E+00 1.60848E+02 3.00000E+00
 -1      3474-1.38547E+00 1.65459E+02 3.00000E+00
 -1      3475 6.40026E-02 1.64232E+02 3.00000E+00
 -1      3476 1.54675E+00 1.65605E+02 3.00000E+00
 -1      3477 1.53625E+00 1.58768E+02 3.00000E+00
 -1      3478 5.76687E-02 1.60103E+02 3.00000E+00
 -1      3479-1.38754E+00 1.58618E+02 3.00000E+00
 -1      3480-1.39222E+00 1.51559E+02 3.00000E+00
 -1      3481-3.76353E+00 1.51302E+02 3.00000E+00
 -1      3482-2.31269E+00 1.50090E+02 3.00000E+00
 -1      3483-3.75957E+00 1.48589E+02 3.00000E+00
 -1      3484-1.38825E+00 1.48846E+02 3.00000E+00
 -1      3485 3.99825E+00 1.51758E+02 3.00000E+00
 -1      3486 1.53768E+00 1.51730E+02 3.00000E+00
 -1      3487 2.51920E+00 1.50375E+02 3.00000E+00
 -1      3488 3.99445E+00 1.49048E+02 3.00000E+00
 -1      3489 1.53388E+00 1.49020E+02 3.00000E+00
 -1      3490-1.37816E+00 1.53607E+02 3.00000E+00
 -1      3491 7.26936E-02 1.52396E+02 3.00000E+00
 -1      3492 1.55174E+00 1.53779E+02 3.00000E+00
 -1      3493 1.54287E+00 1.46933E+02 3.00000E+00
 -1      3494 6.76199E-02 1.48260E+02 3.00000E+00
 -1      3495-1.37926E+00 1.46759E+02 3.00000E+00
 -1      3496 4.05327E+00 1.39941E+02 3.00000E+00
 -1      3497 1.77451E+00 1.39911E+02 3.00000E+00
 -1      3498 2.72680E+00 1.38572E+02 3.00000E+00
 -1      3499 4.05541E+00 1.37244E+02 3.00000E+00
 -1      3500 1.77664E+00 1.37214E+02 3.00000E+00
 -1      3501-1.38636E+00 1.41241E+02 3.00000E+00
 -1      3502-1.20934E+00 1.39265E+02 3.00000E+00
 -1      3503 2.71011E-01 1.40518E+02 3.00000E+00
 -1      3504 1.59749E+00 1.41887E+02 3.00000E+00
 -1      3505 1.62563E+00 1.35121E+02 3.00000E+00
 -1      3506 2.97022E-01 1.36449E+02 3.00000E+00
 -1      3507-1.36329E+00 1.35094E+02 3.00000E+00
 -1      3508-1.21228E+00 1.37188E+02 3.00000E+00
 -1      3509-2.86965E+00 1.37911E+02 3.00000E+00
 -1      3510 3.95988E+00 1.28163E+02 3.00000E+00
 -1      3511 1.88425E+00 1.28160E+02 3.00000E+00
 -1      3512 2.74445E+00 1.26823E+02 3.00000E+00
 -1      3513 3.96716E+00 1.25502E+02 3.00000E+00
 -1      3514 1.89153E+00 1.25499E+02 3.00000E+00
 -1      3515-1.31903E+00 1.29508E+02 3.00000E+00
 -1      3516-1.02700E+00 1.27571E+02 3.00000E+00
 -1      3517 3.76788E-01 1.28757E+02 3.00000E+00
 -1      3518 1.59222E+00 1.30097E+02 3.00000E+00
 -1      3519 1.65068E+00 1.23545E+02 3.00000E+00
 -1      3520 4.27974E-01 1.24867E+02 3.00000E+00
 -1      3521-9.38227E-01 1.23979E+02 3.00000E+00
 -1      3522-6.97380E-01 1.25933E+02 3.00000E+00
 -1      3523-2.39320E+00 1.26683E+02 3.00000E+00
 -1      3524 3.96476E+00 1.16378E+02 3.00000E+00
 -1      3525 1.89053E+00 1.16375E+02 3.00000E+00
 -1      3526 2.74574E+00 1.15021E+02 3.00000E+00
 -1      3527 3.97465E+00 1.13698E+02 3.00000E+00
 -1      3528 1.90041E+00 1.13695E+02 3.00000E+00
 -1      3529-1.28655E+00 1.17849E+02 3.00000E+00
 -1      3530-1.02027E+00 1.15821E+02 3.00000E+00
 -1      3531 4.05217E-01 1.17047E+02 3.00000E+00
 -1      3532 1.62424E+00 1.18404E+02 3.00000E+00
 -1      3533 1.69774E+00 1.11737E+02 3.00000E+00
 -1      3534 4.68834E-01 1.13061E+02 3.00000E+00
 -1      3535-8.70506E-01 1.12135E+02 3.00000E+00
 -1      3536-6.67836E-01 1.14093E+02 3.00000E+00
 -1      3537-2.35961E+00 1.14894E+02 3.00000E+00
 -1      3538 3.96326E+00 1.04574E+02 3.00000E+00
 -1      3539 1.89025E+00 1.04572E+02 3.00000E+00
 -1      3540 2.74627E+00 1.03219E+02 3.00000E+00
 -1      3541 3.97391E+00 1.01894E+02 3.00000E+00
 -1      3542 1.90089E+00 1.01891E+02 3.00000E+00
 -1      3543-1.28544E+00 1.06033E+02 3.00000E+00
 -1      3544-1.01641E+00 1.04007E+02 3.00000E+00
 -1      3545 4.04220E-01 1.05243E+02 3.00000E+00
 -1      3546 1.62122E+00 1.06598E+02 3.00000E+00
 -1      3547 1.69854E+00 9.99308E+01 3.00000E+00
 -1      3548 4.70901E-01 1.01256E+02 3.00000E+00
 -1      3549-8.66600E-01 1.00321E+02 3.00000E+00
 -1      3550-6.64251E-01 1.02281E+02 3.00000E+00
 -1      3551-2.35391E+00 1.03071E+02 3.00000E+00
 -1      3552 3.96103E+00 9.27698E+01 3.00000E+00
 -1      3553 1.88899E+00 9.27676E+01 3.00000E+00
 -1      3554 2.74597E+00 9.14166E+01 3.00000E+00
 -1      3555 3.97181E+00 9.00932E+01 3.00000E+00
 -1      3556 1.89977E+00 9.00910E+01 3.00000E+00
 -1      3557-1.29813E+00 9.42684E+01 3.00000E+00
 -1      3558-1.02623E+00 9.22449E+01 3.00000E+00
 -1      3559 4.02020E-01 9.34380E+01 3.00000E+00
 -1      3560 1.61708E+00 9.47912E+01 3.00000E+00
 -1      3561 1.69011E+00 8.81474E+01 3.00000E+00
 -1      3562 4.64266E-01 8.94708E+01 3.00000E+00
 -1      3563-8.89325E-01 8.86034E+01 3.00000E+00
 -1      3564-6.79668E-01 9.05471E+01 3.00000E+00
 -1      3565-2.37982E+00 9.13775E+01 3.00000E+00
 -1      3566 2.96876E+00 5.67667E+01 3.00000E+00
 -1      3567 2.45573E+00 5.83068E+01 3.00000E+00
 -1      3568 5.89875E-01 5.69420E+01 3.00000E+00
 -1      3569 3.76893E+00 5.93121E+01 3.00000E+00
 -1      3570 1.39004E+00 5.94874E+01 3.00000E+00
 -1      3571-1.73675E+00 6.13955E+01 3.00000E+00
 -1      3572-1.58831E+00 5.93525E+01 3.00000E+00
 -1      3573-7.16028E-02 6.05250E+01 3.00000E+00
 -1      3574 1.24160E+00 6.15303E+01 3.00000E+00
 -1      3575-7.84748E-01 5.57541E+01 3.00000E+00
 -1      3576-1.29778E+00 5.72941E+01 3.00000E+00
 -1      3577-2.96293E+00 5.81646E+01 3.00000E+00
 -1      3578-1.40886E+00 8.25779E+01 3.00000E+00
 -1      3579-1.41459E+00 8.05789E+01 3.00000E+00
 -1      3580 3.19485E-02 8.17994E+01 3.00000E+00
 -1      3581 1.51344E+00 8.26655E+01 3.00000E+00
 -1      3582 1.50771E+00 8.06665E+01 3.00000E+00
 -1      3583 1.37219E+00 7.66140E+01 3.00000E+00
 -1      3584 1.35542E+00 7.85582E+01 3.00000E+00
 -1      3585 4.29910E-02 7.78561E+01 3.00000E+00
 -1      3586-1.10450E+00 7.69017E+01 3.00000E+00
 -1      3587-1.12127E+00 7.88460E+01 3.00000E+00
 -1      3588-2.56207E+00 7.96245E+01 3.00000E+00
 -1      3589 2.83692E+00 7.94244E+01 3.00000E+00
 -1      3590 3.61647E+00 6.90385E+01 3.00000E+00
 -1      3591 1.65333E+00 6.96925E+01 3.00000E+00
 -1      3592 2.33836E+00 6.80095E+01 3.00000E+00
 -1      3593 2.75701E+00 6.64666E+01 3.00000E+00
 -1      3594 7.93875E-01 6.71206E+01 3.00000E+00
 -1      3595 1.50047E+00 7.14941E+01 3.00000E+00
 -1      3596 2.22370E-01 7.04652E+01 3.00000E+00
 -1      3597-1.00687E+00 7.11837E+01 3.00000E+00
 -1      3598-8.54005E-01 6.93820E+01 3.00000E+00
 -1      3599-5.41240E-01 6.60079E+01 3.00000E+00
 -1      3600-9.59886E-01 6.75509E+01 3.00000E+00
 -1      3601-2.18912E+00 6.82693E+01 3.00000E+00
 -1      3602-4.14583E+00 3.05566E+01 3.00000E+00
 -1      3603-5.85452E+00 3.09959E+01 3.00000E+00
 -1      3604-6.34891E+00 3.23276E+01 3.00000E+00
 -1      3605-2.73959E-01 3.20947E+01 3.00000E+00
 -1      3606-2.34745E+00 3.31811E+01 3.00000E+00
 -1      3607-2.27901E+00 3.12040E+01 3.00000E+00
 -1      3608-5.21542E+00 3.57044E+01 3.00000E+00
 -1      3609-5.74796E+00 3.37933E+01 3.00000E+00
 -1      3610-3.81996E+00 3.42016E+01 3.00000E+00
 -1      3611 1.80667E+00 3.11123E+01 3.00000E+00
 -1      3612 1.73823E+00 3.30893E+01 3.00000E+00
 -1      3613 3.60114E+00 3.04674E+01 3.00000E+00
 -1      3614 5.30847E+00 3.07233E+01 3.00000E+00
 -1      3615 5.89945E+00 3.20701E+01 3.00000E+00
 -1      3616 3.08704E+00 3.40666E+01 3.00000E+00
 -1      3617 4.45936E+00 3.52268E+01 3.00000E+00
 -1      3618 5.19119E+00 3.32672E+01 3.00000E+00
 -1      3619 6.55808E+00 2.18410E+02 3.00000E+00
 -1      3620 4.17508E+00 2.17960E+02 3.00000E+00
 -1      3621 5.20421E+00 2.16792E+02 3.00000E+00
 -1      3622 2.72266E+00 2.18279E+02 3.00000E+00
 -1      3623 1.37508E+00 2.17847E+02 3.00000E+00
 -1      3624-6.66860E-01 2.17910E+02 3.00000E+00
 -1      3625 7.79271E-01 2.16405E+02 3.00000E+00
 -1      3626 2.81466E+00 2.14347E+02 3.00000E+00
 -1      3627 1.18276E+00 2.14856E+02 3.00000E+00
 -1      3628-8.59174E-01 2.14920E+02 3.00000E+00
 -1      3629 4.67561E+00 2.12691E+02 3.00000E+00
 -1      3630 4.68216E+00 2.14686E+02 3.00000E+00
 -1      3631-6.09210E+00 8.86082E+01 3.00000E+00
 -1      3632-5.23214E+00 8.63786E+01 3.00000E+00
 -1      3633-4.18422E+00 8.81910E+01 3.00000E+00
 -1      3634-3.53872E+00 9.00502E+01 3.00000E+00
 -1      3635-2.67876E+00 8.78206E+01 3.00000E+00
 -1      3636-4.94381E+00 8.40368E+01 3.00000E+00
 -1      3637-4.70938E+00 8.17348E+01 3.00000E+00
 -1      3638-3.08983E+00 8.36594E+01 3.00000E+00
 -1      3639 1.46142E-01 8.56628E+01 3.00000E+00
 -1      3640-1.53482E+00 8.67443E+01 3.00000E+00
 -1      3641-1.64329E+00 8.48799E+01 3.00000E+00
 -1      3642-6.02316E+00 1.00145E+02 3.00000E+00
 -1      3643-5.22430E+00 9.81307E+01 3.00000E+00
 -1      3644-4.12225E+00 9.97086E+01 3.00000E+00
 -1      3645-3.46143E+00 1.01534E+02 3.00000E+00
 -1      3646-2.66257E+00 9.95197E+01 3.00000E+00
 -1      3647-4.95109E+00 9.58203E+01 3.00000E+00
 -1      3648-4.65259E+00 9.35109E+01 3.00000E+00
 -1      3649-3.02489E+00 9.53846E+01 3.00000E+00
 -1      3650 1.99334E-01 9.73787E+01 3.00000E+00
 -1      3651-1.52742E+00 9.84949E+01 3.00000E+00
 -1      3652-1.59664E+00 9.65778E+01 3.00000E+00
 -1      3653-6.03033E+00 1.12005E+02 3.00000E+00
 -1      3654-5.22900E+00 1.09977E+02 3.00000E+00
 -1      3655-4.13076E+00 1.11543E+02 3.00000E+00
 -1      3656-3.46963E+00 1.13369E+02 3.00000E+00
 -1      3657-2.66830E+00 1.11341E+02 3.00000E+00
 -1      3658-4.94665E+00 1.07632E+02 3.00000E+00
 -1      3659-4.63497E+00 1.05273E+02 3.00000E+00
 -1      3660-3.01775E+00 1.07156E+02 3.00000E+00
 -1      3661 2.00677E-01 1.09186E+02 3.00000E+00
 -1      3662-1.53163E+00 1.10309E+02 3.00000E+00
 -1      3663-1.59712E+00 1.08392E+02 3.00000E+00
 -1      3664-6.13908E+00 1.24112E+02 3.00000E+00
 -1      3665-5.24984E+00 1.21865E+02 3.00000E+00
 -1      3666-4.22552E+00 1.23584E+02 3.00000E+00
 -1      3667-3.58917E+00 1.25438E+02 3.00000E+00
 -1      3668-2.69993E+00 1.23191E+02 3.00000E+00
 -1      3669-4.95216E+00 1.19483E+02 3.00000E+00
 -1      3670-4.64004E+00 1.17126E+02 3.00000E+00
 -1      3671-3.02416E+00 1.18980E+02 3.00000E+00
 -1      3672 1.63028E-01 1.20995E+02 3.00000E+00
 -1      3673-1.57458E+00 1.22125E+02 3.00000E+00
 -1      3674-1.59867E+00 1.20206E+02 3.00000E+00
 -1      3675-4.85673E+00 1.30843E+02 3.00000E+00
 -1      3676-4.83665E+00 1.33300E+02 3.00000E+00
 -1      3677-4.64550E+00 1.28880E+02 3.00000E+00
 -1      3678-2.93405E+00 1.30284E+02 3.00000E+00
 -1      3679 1.15384E-01 1.32524E+02 3.00000E+00
 -1      3680-1.49964E+00 1.33301E+02 3.00000E+00
 -1      3681-1.53027E+00 1.31471E+02 3.00000E+00
 -1      3682-3.00894E+00 1.34041E+02 3.00000E+00
 -1      3683-4.70030E+00 1.35093E+02 3.00000E+00
 -1      3684-4.86503E+00 1.42718E+02 3.00000E+00
 -1      3685-4.81346E+00 1.45184E+02 3.00000E+00
 -1      3686-4.72068E+00 1.40663E+02 3.00000E+00
 -1      3687-3.01106E+00 1.42043E+02 3.00000E+00
 -1      3688 8.52995E-02 1.44333E+02 3.00000E+00
 -1      3689-1.53940E+00 1.45135E+02 3.00000E+00
 -1      3690-1.53071E+00 1.43295E+02 3.00000E+00
 -1      3691-2.99527E+00 1.45721E+02 3.00000E+00
 -1      3692-4.65332E+00 1.46808E+02 3.00000E+00
 -1      3693-4.83836E+00 1.54613E+02 3.00000E+00
 -1      3694-4.81661E+00 1.57063E+02 3.00000E+00
 -1      3695-4.67852E+00 1.53020E+02 3.00000E+00
 -1      3696-3.00290E+00 1.54363E+02 3.00000E+00
 -1      3697 7.71976E-02 1.56234E+02 3.00000E+00
 -1      3698-1.54755E+00 1.56990E+02 3.00000E+00
 -1      3699-1.53799E+00 1.55200E+02 3.00000E+00
 -1      3700-3.00273E+00 1.57584E+02 3.00000E+00
 -1      3701-4.65660E+00 1.58691E+02 3.00000E+00
 -1      3702-4.84426E+00 1.66496E+02 3.00000E+00
 -1      3703-4.82444E+00 1.68939E+02 3.00000E+00
 -1      3704-4.68479E+00 1.64907E+02 3.00000E+00
 -1      3705-3.01073E+00 1.66226E+02 3.00000E+00
 -1      3706 6.95399E-02 1.68064E+02 3.00000E+00
 -1      3707-1.55572E+00 1.68832E+02 3.00000E+00
 -1      3708-1.54495E+00 1.67048E+02 3.00000E+00
 -1      3709-3.01090E+00 1.69440E+02 3.00000E+00
 -1      3710-4.66513E+00 1.70565E+02 3.00000E+00
 -1      3711 4.88882E+00 2.04675E+02 3.00000E+00
 -1      3712 4.91330E+00 2.02273E+02 3.00000E+00
 -1      3713 4.77339E+00 2.00680E+02 3.00000E+00
 -1      3714 3.12437E+00 2.01888E+02 3.00000E+00
 -1      3715 4.75646E+00 2.06323E+02 3.00000E+00
 -1      3716 3.13191E+00 2.05129E+02 3.00000E+00
 -1      3717 1.61847E-03 2.03652E+02 3.00000E+00
 -1      3718 1.58969E+00 2.02636E+02 3.00000E+00
 -1      3719 1.67620E+00 2.04497E+02 3.00000E+00
 -1      3720 4.92070E+00 1.92870E+02 3.00000E+00
 -1      3721 4.86509E+00 1.90476E+02 3.00000E+00
 -1      3722 4.63922E+00 1.88853E+02 3.00000E+00
 -1      3723 3.04189E+00 1.90058E+02 3.00000E+00
 -1      3724 4.79037E+00 1.94461E+02 3.00000E+00
 -1      3725 3.13743E+00 1.93272E+02 3.00000E+00
 -1      3726-4.84287E-02 1.91567E+02 3.00000E+00
 -1      3727 1.57871E+00 1.90689E+02 3.00000E+00
 -1      3728 1.64062E+00 1.92560E+02 3.00000E+00
 -1      3729-4.81489E+00 1.78444E+02 3.00000E+00
 -1      3730-4.79605E+00 1.80864E+02 3.00000E+00
 -1      3731-4.66700E+00 1.76834E+02 3.00000E+00
 -1      3732-2.99485E+00 1.78130E+02 3.00000E+00
 -1      3733 4.44402E-02 1.79885E+02 3.00000E+00
 -1      3734-1.55836E+00 1.80701E+02 3.00000E+00
 -1      3735-1.53994E+00 1.78925E+02 3.00000E+00
 -1      3736-2.98399E+00 1.81340E+02 3.00000E+00
 -1      3737-4.63730E+00 1.82465E+02 3.00000E+00
 -1      3738 4.94077E+00 8.67389E+01 3.00000E+00
 -1      3739 4.97353E+00 8.43441E+01 3.00000E+00
 -1      3740 4.79941E+00 8.23225E+01 3.00000E+00
 -1      3741 3.16332E+00 8.35543E+01 3.00000E+00
 -1      3742 1.68755E+00 8.46871E+01 3.00000E+00
 -1      3743 1.79602E+00 8.65515E+01 3.00000E+00
 -1      3744 3.23152E+00 8.71717E+01 3.00000E+00
 -1      3745 4.83486E+00 8.83348E+01 3.00000E+00
 -1      3746-6.16068E+00 2.17198E+02 3.00000E+00
 -1      3747-5.82647E+00 2.18860E+02 3.00000E+00
 -1      3748-4.02168E+00 2.18635E+02 3.00000E+00
 -1      3749-5.64315E+00 2.15484E+02 3.00000E+00
 -1      3750-2.36178E+00 2.18294E+02 3.00000E+00
 -1      3751-2.92257E+00 2.16810E+02 3.00000E+00
 -1      3752-5.05138E+00 2.14114E+02 3.00000E+00
 -1      3753-3.99070E+00 2.15780E+02 3.00000E+00
 -1      3754-2.33079E+00 2.15439E+02 3.00000E+00
 -1      3755-6.13212E+00 7.66965E+01 3.00000E+00
 -1      3756-5.41928E+00 7.45129E+01 3.00000E+00
 -1      3757-4.28717E+00 7.61942E+01 3.00000E+00
 -1      3758-3.63438E+00 7.81347E+01 3.00000E+00
 -1      3759-2.92155E+00 7.59511E+01 3.00000E+00
 -1      3760-4.28297E+00 7.15669E+01 3.00000E+00
 -1      3761-5.37147E+00 7.27861E+01 3.00000E+00
 -1      3762-3.53742E+00 6.96118E+01 3.00000E+00
 -1      3763-2.82879E+00 7.20555E+01 3.00000E+00
 -1      3764 6.46355E-02 7.40894E+01 3.00000E+00
 -1      3765-1.75729E+00 7.49612E+01 3.00000E+00
 -1      3766-1.75242E+00 7.31387E+01 3.00000E+00
 -1      3767 4.94077E+00 9.85473E+01 3.00000E+00
 -1      3768 4.94911E+00 9.61547E+01 3.00000E+00
 -1      3769 4.82880E+00 9.45206E+01 3.00000E+00
 -1      3770 3.22436E+00 9.57549E+01 3.00000E+00
 -1      3771 1.73739E+00 9.64253E+01 3.00000E+00
 -1      3772 1.80661E+00 9.83424E+01 3.00000E+00
 -1      3773 3.23660E+00 9.89774E+01 3.00000E+00
 -1      3774 4.83270E+00 1.00136E+02 3.00000E+00
 -1      3775 4.94448E+00 1.10355E+02 3.00000E+00
 -1      3776 4.95424E+00 1.07963E+02 3.00000E+00
 -1      3777 4.83233E+00 1.06326E+02 3.00000E+00
 -1      3778 3.22915E+00 1.07564E+02 3.00000E+00
 -1      3779 1.74312E+00 1.08235E+02 3.00000E+00
 -1      3780 1.80861E+00 1.10152E+02 3.00000E+00
 -1      3781 3.24019E+00 1.10786E+02 3.00000E+00
 -1      3782 4.83361E+00 1.11940E+02 3.00000E+00
 -1      3783 4.94757E+00 1.22162E+02 3.00000E+00
 -1      3784 4.95866E+00 1.19770E+02 3.00000E+00
 -1      3785 4.83514E+00 1.18130E+02 3.00000E+00
 -1      3786 3.23307E+00 1.19372E+02 3.00000E+00
 -1      3787 1.74776E+00 1.20044E+02 3.00000E+00
 -1      3788 1.77186E+00 1.21963E+02 3.00000E+00
 -1      3789 3.23542E+00 1.22595E+02 3.00000E+00
 -1      3790 4.82639E+00 1.23744E+02 3.00000E+00
 -1      3791 4.96333E+00 1.33966E+02 3.00000E+00
 -1      3792 4.96238E+00 1.31577E+02 3.00000E+00
 -1      3793 4.83158E+00 1.29916E+02 3.00000E+00
 -1      3794 3.23048E+00 1.31161E+02 3.00000E+00
 -1      3795 1.72302E+00 1.31758E+02 3.00000E+00
 -1      3796 1.75365E+00 1.33589E+02 3.00000E+00
 -1      3797 3.23327E+00 1.34354E+02 3.00000E+00
 -1      3798 4.83532E+00 1.35498E+02 3.00000E+00
 -1      3799 4.96533E+00 1.45771E+02 3.00000E+00
 -1      3800 4.97868E+00 1.43381E+02 3.00000E+00
 -1      3801 4.84661E+00 1.41706E+02 3.00000E+00
 -1      3802 3.23305E+00 1.42956E+02 3.00000E+00
 -1      3803 1.72956E+00 1.43563E+02 3.00000E+00
 -1      3804 1.72086E+00 1.45403E+02 3.00000E+00
 -1      3805 3.18713E+00 1.46162E+02 3.00000E+00
 -1      3806 4.78733E+00 1.47302E+02 3.00000E+00
 -1      3807 4.96621E+00 1.57576E+02 3.00000E+00
 -1      3808 4.97922E+00 1.55187E+02 3.00000E+00
 -1      3809 4.80353E+00 1.53524E+02 3.00000E+00
 -1      3810 3.19241E+00 1.54777E+02 3.00000E+00
 -1      3811 1.72743E+00 1.55442E+02 3.00000E+00
 -1      3812 1.71787E+00 1.57232E+02 3.00000E+00
 -1      3813 3.18648E+00 1.57976E+02 3.00000E+00
 -1      3814 4.78459E+00 1.59113E+02 3.00000E+00
 -1      3815 4.96674E+00 1.69380E+02 3.00000E+00
 -1      3816 4.98071E+00 1.66991E+02 3.00000E+00
 -1      3817 4.80219E+00 1.65333E+02 3.00000E+00
 -1      3818 3.19172E+00 1.66589E+02 3.00000E+00
 -1      3819 1.72528E+00 1.67264E+02 3.00000E+00
 -1      3820 1.71451E+00 1.69048E+02 3.00000E+00
 -1      3821 3.18553E+00 1.69783E+02 3.00000E+00
 -1      3822 4.78202E+00 1.70916E+02 3.00000E+00
 -1      3823 4.87436E+00 1.81143E+02 3.00000E+00
 -1      3824 4.92411E+00 1.78755E+02 3.00000E+00
 -1      3825 4.78087E+00 1.77124E+02 3.00000E+00
 -1      3826 3.12783E+00 1.78352E+02 3.00000E+00
 -1      3827 1.66696E+00 1.79047E+02 3.00000E+00
 -1      3828 1.64854E+00 1.80822E+02 3.00000E+00
 -1      3829 3.05903E+00 1.81539E+02 3.00000E+00
 -1      3830 4.66233E+00 1.82698E+02 3.00000E+00
 -1      3831-4.84742E+00 1.90354E+02 3.00000E+00
 -1      3832-4.87989E+00 1.92745E+02 3.00000E+00
 -1      3833-4.68373E+00 1.88710E+02 3.00000E+00
 -1      3834-3.03674E+00 1.89988E+02 3.00000E+00
 -1      3835-1.59347E+00 1.92535E+02 3.00000E+00
 -1      3836-1.65539E+00 1.90664E+02 3.00000E+00
 -1      3837-3.04868E+00 1.93211E+02 3.00000E+00
 -1      3838-4.72813E+00 1.94324E+02 3.00000E+00
 -1      3839-5.33694E+00 2.04265E+02 3.00000E+00
 -1      3840-4.58850E+00 2.05691E+02 3.00000E+00
 -1      3841-4.05163E+00 2.07439E+02 3.00000E+00
 -1      3842-2.97892E+00 2.05708E+02 3.00000E+00
 -1      3843-4.80196E+00 2.00593E+02 3.00000E+00
 -1      3844-3.25314E+00 2.02143E+02 3.00000E+00
 -1      3845-5.06461E+00 2.02409E+02 3.00000E+00
 -1      3846-1.71383E+00 2.04736E+02 3.00000E+00
 -1      3847-1.80034E+00 2.02876E+02 3.00000E+00
 -1      3848 1.76535E+00 7.31250E+01 3.00000E+00
 -1      3849 1.76048E+00 7.49475E+01 3.00000E+00
 -1      3850 3.19632E+00 7.23523E+01 3.00000E+00
 -1      3851 5.00640E+00 7.50733E+01 3.00000E+00
 -1      3852 4.95547E+00 7.26607E+01 3.00000E+00
 -1      3853 4.69059E+00 7.10298E+01 3.00000E+00
 -1      3854 4.61811E+00 7.67397E+01 3.00000E+00
 -1      3855 3.07291E+00 7.56497E+01 3.00000E+00
 -1      3856 3.32953E+00 4.11888E+01 3.00000E+00
 -1      3857 1.98959E+00 4.25039E+01 3.00000E+00
 -1      3858 1.34568E+00 4.40883E+01 3.00000E+00
 -1      3859 3.14269E+00 4.43593E+01 3.00000E+00
 -1      3860 5.19490E+00 4.38014E+01 3.00000E+00
 -1      3861 5.20083E+00 4.15138E+01 3.00000E+00
 -1      3862 4.74377E+00 3.99277E+01 3.00000E+00
 -1      3863 4.55099E+00 4.53858E+01 3.00000E+00
 -1      3864-5.37262E+00 4.42199E+01 3.00000E+00
 -1      3865-4.30084E+00 4.56443E+01 3.00000E+00
 -1      3866-2.46176E+00 4.42526E+01 3.00000E+00
 -1      3867-1.80123E+00 4.27644E+01 3.00000E+00
 -1      3868-3.20671E+00 4.17478E+01 3.00000E+00
 -1      3869-4.67944E-01 4.37211E+01 3.00000E+00
 -1      3870-4.67631E+00 4.08816E+01 3.00000E+00
 -1      3871-5.26465E+00 4.24297E+01 3.00000E+00
 -1      3872 5.74942E+00 6.58317E+01 3.00000E+00
 -1      3873 4.06680E+00 6.53404E+01 3.00000E+00
 -1      3874 5.51472E+00 6.38167E+01 3.00000E+00
 -1      3875 2.52231E+00 6.44515E+01 3.00000E+00
 -1      3876 4.96237E-01 6.40728E+01 3.00000E+00
 -1      3877 1.80603E+00 6.29467E+01 3.00000E+00
 -1      3878 3.26767E+00 6.19091E+01 3.00000E+00
 -1      3879 5.45836E+00 6.20232E+01 3.00000E+00
 -1      3880 4.89393E+00 6.06068E+01 3.00000E+00
 -1      3881 4.29058E+00 5.57510E+01 3.00000E+00
 -1      3882 5.34808E+00 5.42177E+01 3.00000E+00
 -1      3883 2.42473E+00 5.43863E+01 3.00000E+00
 -1      3884 3.23812E+00 5.18009E+01 3.00000E+00
 -1      3885 1.79091E+00 5.28737E+01 3.00000E+00
 -1      3886 4.69093E-01 5.38894E+01 3.00000E+00
 -1      3887 5.20343E+00 5.23487E+01 3.00000E+00
 -1      3888 4.69502E+00 5.07791E+01 3.00000E+00
 -1      3889-1.41856E+00 5.42415E+01 3.00000E+00
 -1      3890-3.18275E+00 5.45580E+01 3.00000E+00
 -1      3891-1.92891E+00 5.26934E+01 3.00000E+00
 -1      3892-3.15272E+00 5.16441E+01 3.00000E+00
 -1      3893-5.17725E+00 5.21377E+01 3.00000E+00
 -1      3894-5.15524E+00 5.39328E+01 3.00000E+00
 -1      3895-4.63687E+00 5.07719E+01 3.00000E+00
 -1      3896-4.64489E+00 5.54810E+01 3.00000E+00
 -1      3897-1.25752E+00 6.45031E+01 3.00000E+00
 -1      3898-3.03748E+00 6.49325E+01 3.00000E+00
 -1      3899-2.00001E+00 6.29975E+01 3.00000E+00
 -1      3900-3.51671E+00 6.18250E+01 3.00000E+00
 -1      3901-5.28950E+00 6.27920E+01 3.00000E+00
 -1      3902-5.11089E+00 6.45385E+01 3.00000E+00
 -1      3903-4.36840E+00 6.60441E+01 3.00000E+00
 -1      3904-5.02624E+00 6.11900E+01 3.00000E+00
 -1      3905-4.30508E+00 3.72902E+01 3.00000E+00
 -1      3906-6.23308E+00 3.68819E+01 3.00000E+00
 -1      3907-6.66237E+00 3.85426E+01 3.00000E+00
 -1      3908-6.02849E+00 4.00156E+01 3.00000E+00
 -1      3909-3.97055E+00 3.93337E+01 3.00000E+00
 -1      3910 3.94976E+00 3.85321E+01 3.00000E+00
 -1      3911 5.82105E+00 3.88571E+01 3.00000E+00
 -1      3912 6.33742E+00 3.71678E+01 3.00000E+00
 -1      3913 5.79528E+00 3.59445E+01 3.00000E+00
 -1      3914 3.69113E+00 3.67439E+01 3.00000E+00
 -1      3915-4.82560E+00 2.09333E+02 3.00000E+00
 -1      3916-5.59791E+00 2.10701E+02 3.00000E+00
 -1      3917-1.92730E+00 2.13890E+02 3.00000E+00
 -1      3918-3.69445E+00 2.12826E+02 3.00000E+00
 -1      3919-5.34691E+00 2.12530E+02 3.00000E+00
 -1      3920-5.84146E+00 1.27635E+02 3.00000E+00
 -1      3921-3.91879E+00 1.27076E+02 3.00000E+00
 -1      3922-6.53804E+00 1.25833E+02 3.00000E+00
 -1      3923-5.75007E+00 1.15600E+02 3.00000E+00
 -1      3924-3.82206E+00 1.15097E+02 3.00000E+00
 -1      3925-6.43906E+00 1.13743E+02 3.00000E+00
 -1      3926-5.85246E+00 1.39547E+02 3.00000E+00
 -1      3927-3.99849E+00 1.38872E+02 3.00000E+00
 -1      3928-6.55032E+00 1.37756E+02 3.00000E+00
 -1      3929-4.00143E+00 1.36795E+02 3.00000E+00
 -1      3930-5.82914E+00 1.36054E+02 3.00000E+00
 -1      3931-5.59899E+00 1.51552E+02 3.00000E+00
 -1      3932-6.21772E+00 1.49772E+02 3.00000E+00
 -1      3933-5.57775E+00 1.48052E+02 3.00000E+00
 -1      3934-5.74249E+00 1.03736E+02 3.00000E+00
 -1      3935-3.81359E+00 1.03260E+02 3.00000E+00
 -1      3936-6.42457E+00 1.01859E+02 3.00000E+00
 -1      3937 5.91342E+00 4.64492E+01 3.00000E+00
 -1      3938 3.86121E+00 4.70072E+01 3.00000E+00
 -1      3939 6.61995E+00 4.81004E+01 3.00000E+00
 -1      3940 3.97668E+00 4.91510E+01 3.00000E+00
 -1      3941 5.94199E+00 4.96987E+01 3.00000E+00
 -1      3942-5.60704E+00 1.63452E+02 3.00000E+00
 -1      3943-6.22608E+00 1.61677E+02 3.00000E+00
 -1      3944-5.58312E+00 1.59949E+02 3.00000E+00
 -1      3945-5.81148E+00 9.21836E+01 3.00000E+00
 -1      3946-3.88528E+00 9.17479E+01 3.00000E+00
 -1      3947-6.47624E+00 9.02481E+01 3.00000E+00
 -1      3948-5.59686E+00 1.75384E+02 3.00000E+00
 -1      3949-6.23250E+00 1.73582E+02 3.00000E+00
 -1      3950-5.59268E+00 1.71841E+02 3.00000E+00
 -1      3951 5.61647E+00 2.11250E+02 3.00000E+00
 -1      3952 6.23024E+00 2.09436E+02 3.00000E+00
 -1      3953 5.60160E+00 2.07670E+02 3.00000E+00
 -1      3954 5.88273E+00 1.99322E+02 3.00000E+00
 -1      3955 6.60389E+00 1.97578E+02 3.00000E+00
 -1      3956 5.88840E+00 1.95818E+02 3.00000E+00
 -1      3957-5.50993E+00 1.87334E+02 3.00000E+00
 -1      3958-6.08156E+00 1.85539E+02 3.00000E+00
 -1      3959-5.48740E+00 1.83790E+02 3.00000E+00
 -1      3960 5.47866E+00 1.87537E+02 3.00000E+00
 -1      3961 6.06534E+00 1.85794E+02 3.00000E+00
 -1      3962 5.48627E+00 1.84053E+02 3.00000E+00
 -1      3963 5.77508E+00 1.75766E+02 3.00000E+00
 -1      3964 6.44135E+00 1.73995E+02 3.00000E+00
 -1      3965 5.76812E+00 1.72259E+02 3.00000E+00
 -1      3966-5.66462E+00 1.99163E+02 3.00000E+00
 -1      3967-6.25076E+00 1.97417E+02 3.00000E+00
 -1      3968-5.63757E+00 1.95663E+02 3.00000E+00
 -1      3969 5.78386E+00 1.63970E+02 3.00000E+00
 -1      3970 6.44459E+00 1.62196E+02 3.00000E+00
 -1      3971 5.77043E+00 1.60459E+02 3.00000E+00
 -1      3972 5.78506E+00 1.52168E+02 3.00000E+00
 -1      3973 6.44722E+00 1.50396E+02 3.00000E+00
 -1      3974 5.77265E+00 1.48657E+02 3.00000E+00
 -1      3975 5.79890E+00 1.40367E+02 3.00000E+00
 -1      3976 6.46166E+00 1.38596E+02 3.00000E+00
 -1      3977 5.78547E+00 1.36856E+02 3.00000E+00
 -1      3978 5.69178E+00 1.28579E+02 3.00000E+00
 -1      3979 6.30895E+00 1.26812E+02 3.00000E+00
 -1      3980 5.67931E+00 1.25069E+02 3.00000E+00
 -1      3981 5.69035E+00 1.16776E+02 3.00000E+00
 -1      3982 6.30916E+00 1.15011E+02 3.00000E+00
 -1      3983 5.67894E+00 1.13266E+02 3.00000E+00
 -1      3984 5.68835E+00 1.04973E+02 3.00000E+00
 -1      3985 6.30895E+00 1.03210E+02 3.00000E+00
 -1      3986 5.67808E+00 1.01464E+02 3.00000E+00
 -1      3987 5.68578E+00 9.31695E+01 3.00000E+00
 -1      3988 6.30874E+00 9.14085E+01 3.00000E+00
 -1      3989 5.68106E+00 8.96604E+01 3.00000E+00
 -1      3990 4.11442E+00 8.05628E+01 3.00000E+00
 -1      3991 5.92463E+00 8.13526E+01 3.00000E+00
 -1      3992 6.63281E+00 7.95929E+01 3.00000E+00
 -1      3993 5.89562E+00 7.78781E+01 3.00000E+00
 -1      3994 3.96213E+00 7.84545E+01 3.00000E+00
 -1      3995-4.70569E+00 5.93082E+01 3.00000E+00
 -1      3996-4.41517E+00 5.72498E+01 3.00000E+00
 -1      3997-5.78168E+00 8.02450E+01 3.00000E+00
 -1      3998-3.92770E+00 7.98676E+01 3.00000E+00
 -1      3999-6.41797E+00 7.82667E+01 3.00000E+00
 -1      4000 5.37562E+00 6.93468E+01 3.00000E+00
 -1      4001 5.99629E+00 6.75477E+01 3.00000E+00
 -1      4002-3.64330E+00 6.77807E+01 3.00000E+00
 -1      4003 2.66880E+01-5.59336E+00 0.00000E+00
 -1      4004-2.58126E+01 1.04579E+01 0.00000E+00
 -1      4005-2.68862E+01 6.65560E+00 0.00000E+00
 -1      4006 2.54521E+01-9.34598E+00 0.00000E+00
 -1      4007 2.72435E+01-1.68156E+00 0.00000E+00
 -1      4008-2.40850E+01 1.40112E+01 0.00000E+00
 -1      4009-2.72739E+01 2.72362E+00 0.00000E+00
 -1      4010 2.35749E+01-1.28226E+01 0.00000E+00
 -1      4011-2.17672E+01 1.72111E+01 0.00000E+00
 -1      4012 2.71104E+01 2.26739E+00 0.00000E+00
 -1      4013-2.69772E+01-1.21656E+00 0.00000E+00
 -1      4014 2.11256E+01-1.59232E+01 0.00000E+00
 -1      4015 2.63150E+01 6.13804E+00 0.00000E+00
 -1      4016 1.81925E+01-1.85712E+01 0.00000E+00
 -1      4017-2.60264E+01-5.05208E+00 0.00000E+00
 -1      4018 2.49023E+01 9.82891E+00 0.00000E+00
 -1      4019 1.48733E+01-2.07164E+01 0.00000E+00
 -1      4020-2.44740E+01-8.68647E+00 0.00000E+00
 -1      4021 2.29366E+01 1.32576E+01 0.00000E+00
 -1      4022 1.02821E+01-2.26628E+01-1.12567E+00
 -1      4023-2.17562E+01-1.28675E+01-1.12567E+00
 -1      4024 2.04868E+01 1.63596E+01 0.00000E+00
 -1      4025-2.64338E+01 8.58056E+00 0.00000E+00
 -1      4026 2.61536E+01-7.49718E+00 0.00000E+00
 -1      4027 2.70517E+01-3.64969E+00 0.00000E+00
 -1      4028-2.50272E+01 1.22726E+01 0.00000E+00
 -1      4029-2.71661E+01 4.69810E+00 0.00000E+00
 -1      4030 2.45899E+01-1.11255E+01 0.00000E+00
 -1      4031-2.29950E+01 1.56610E+01 8.88178E-16
 -1      4032 2.72617E+01 2.95749E-01 0.00000E+00
 -1      4033 2.24163E+01-1.44250E+01 0.00000E+00
 -1      4034-2.72094E+01 7.47230E-01 0.00000E+00
 -1      4035 2.67931E+01 4.21925E+00 0.00000E+00
 -1      4036-1.94314E+01 1.95580E+01 6.39488E-14
 -1      4037-2.65809E+01-3.15393E+00 0.00000E+00
 -1      4038 1.97138E+01-1.73078E+01 0.00000E+00
 -1      4039 2.56818E+01 8.01151E+00 0.00000E+00
 -1      4040 1.65750E+01-1.97088E+01 0.00000E+00
 -1      4041-2.53218E+01-6.89983E+00 0.00000E+00
 -1      4042 1.26951E+01-2.17668E+01 3.73010E-01
 -1      4043 2.39848E+01 1.15807E+01 0.00000E+00
 -1      4044-2.32561E+01-1.07756E+01 3.73010E-01
 -1      4045 2.17683E+01 1.48532E+01 0.00000E+00
 -1      4046 8.25718E+00-2.32226E+01 1.92690E+00
 -1      4047-2.03909E+01-1.44642E+01 1.92690E+00
 -1      4048 1.83372E+01 1.84746E+01-8.34888E-14
 -1      4049 7.32469E+00-2.34264E+01-1.44388E+00
 -1      4050-1.97316E+01-1.51545E+01-1.44388E+00
 -1      4051-1.80969E+01 2.06445E+01 2.60000E+00
 -1      4052-1.80969E+01 2.06445E+01-2.60000E+00
 -1      4053 1.73649E+01 1.92972E+01 2.00000E+00
 -1      4054 1.73649E+01 1.92972E+01-2.00000E+00
 -1      4055 1.07668E+01-2.25038E+01 2.23485E+00
 -1      4056-2.20688E+01-1.24645E+01 2.23485E+00
 -1      4057 1.66593E+01 1.98503E+01-1.00000E+00
 -1      4058 1.66593E+01 1.98503E+01-2.50000E+00
 -1      4059 1.43530E+01 2.14359E+01-4.00000E+00
 -1      4060 1.26970E+01 2.23908E+01-4.00000E+00
 -1      4061 1.59982E+01 2.03383E+01-4.00000E+00
 -1      4062 1.75661E+01 1.91330E+01-4.00000E+00
 -1      4063 1.82492E+01 1.85522E+01-3.50000E+00
 -1      4064 1.66593E+01 1.98503E+01 1.00000E+00
 -1      4065 1.66593E+01 1.98503E+01 2.50000E+00
 -1      4066 1.26970E+01 2.23908E+01 4.00000E+00
 -1      4067 1.43530E+01 2.14359E+01 4.00000E+00
 -1      4068 1.59982E+01 2.03383E+01 4.00000E+00
 -1      4069 1.75661E+01 1.91330E+01 4.00000E+00
 -1      4070 1.82492E+01 1.85522E+01 3.50000E+00
 -1      4071-1.35578E+01 2.33797E+01-4.00000E+00
 -1      4072-1.52574E+01 2.25049E+01-4.00000E+00
 -1      4073-1.69414E+01 2.14683E+01-4.00000E+00
 -1      4074-1.77361E+01 2.09125E+01-3.80000E+00
 -1      4075-1.73125E+01 2.12145E+01-2.80000E+00
 -1      4076-1.73125E+01 2.12145E+01-1.30000E+00
 -1      4077-1.52574E+01 2.25049E+01 4.00000E+00
 -1      4078-1.35578E+01 2.33797E+01 4.00000E+00
 -1      4079-1.69414E+01 2.14683E+01 4.00000E+00
 -1      4080-1.77361E+01 2.09125E+01 3.80000E+00
 -1      4081-1.73125E+01 2.12145E+01 2.80000E+00
 -1      4082-1.73125E+01 2.12145E+01 1.30000E+00
 -1      4083-1.90745E+01-1.57985E+01-1.55528E+00
 -1      4084-1.90745E+01-1.57985E+01-3.22194E+00
 -1      4085-2.04609E+01-1.43882E+01-3.22194E+00
 -1      4086-1.94180E+01-1.54671E+01 1.79678E+00
 -1      4087-1.94180E+01-1.54671E+01 3.46345E+00
 -1      4088-2.07803E+01-1.40335E+01 3.46345E+00
 -1      4089 8.82084E+00-2.30832E+01 3.46345E+00
 -1      4090 6.88985E+00-2.35102E+01 3.46345E+00
 -1      4091 6.88985E+00-2.35102E+01 1.79678E+00
 -1      4092 6.41980E+00-2.35929E+01-1.55528E+00
 -1      4093 6.41980E+00-2.35929E+01-3.22194E+00
 -1      4094 8.35775E+00-2.31986E+01-3.22194E+00
 -1      4095 1.78556E+01 1.88913E+01 1.00000E+00
 -1      4096 1.71622E+01 1.94597E+01-1.03917E-13
 -1      4097 1.78556E+01 1.88913E+01-1.00000E+00
 -1      4098 1.09843E+01 2.32397E+01-4.00000E+00
 -1      4099 9.15945E+00 2.40022E+01-4.00000E+00
 -1      4100 7.35202E+00 2.46247E+01-4.00000E+00
 -1      4101 5.44515E+00 2.51492E+01-4.00000E+00
 -1      4102 3.57356E+00 2.55383E+01-4.00000E+00
 -1      4103 1.61530E+00 2.58149E+01-4.00000E+00
 -1      4104-2.90730E-01 2.59606E+01-4.00000E+00
 -1      4105-2.26831E+00 2.59828E+01-4.00000E+00
 -1      4106-4.17702E+00 2.58781E+01-4.00000E+00
 -1      4107-6.14013E+00 2.56385E+01-4.00000E+00
 -1      4108-8.01741E+00 2.52782E+01-4.00000E+00
 -1      4109-9.92915E+00 2.47719E+01-4.00000E+00
 -1      4110-1.17379E+01 2.41536E+01-4.00000E+00
 -1      4111 1.09843E+01 2.32397E+01 4.00000E+00
 -1      4112 7.35202E+00 2.46247E+01 4.00000E+00
 -1      4113 9.15945E+00 2.40022E+01 4.00000E+00
 -1      4114 3.57356E+00 2.55383E+01 4.00000E+00
 -1      4115 5.44515E+00 2.51492E+01 4.00000E+00
 -1      4116-2.90730E-01 2.59606E+01 4.00000E+00
 -1      4117 1.61530E+00 2.58149E+01 4.00000E+00
 -1      4118-4.17702E+00 2.58781E+01 4.00000E+00
 -1      4119-2.26831E+00 2.59828E+01 4.00000E+00
 -1      4120-8.01741E+00 2.52782E+01 4.00000E+00
 -1      4121-6.14013E+00 2.56385E+01 4.00000E+00
 -1      4122-1.17379E+01 2.41536E+01 4.00000E+00
 -1      4123-9.92915E+00 2.47719E+01 4.00000E+00
 -1      4124-1.90745E+01-1.57985E+01 1.11391E-01
 -1      4125-2.00642E+01-1.48122E+01 2.41507E-01
 -1      4126-2.28048E+01-1.14506E+01 3.61742E+00
 -1      4127-2.16222E+01-1.30356E+01 3.61742E+00
 -1      4128-2.12537E+01-1.34844E+01 2.08087E+00
 -1      4129-2.49154E+01-7.80145E+00 2.50000E+00
 -1      4130-2.39988E+01-9.55378E+00 2.50000E+00
 -1      4131-2.33749E+01-1.05898E+01 2.68650E+00
 -1      4132-2.38885E+01-9.74471E+00 1.86505E-01
 -1      4133-2.26786E+01-1.16314E+01 1.30393E+00
 -1      4134-2.56924E+01-5.98291E+00 2.50000E+00
 -1      4135-2.63230E+01-4.10864E+00 2.50000E+00
 -1      4136-2.53218E+01-6.89982E+00 2.50000E+00
 -1      4137-2.56924E+01-5.98291E+00 0.00000E+00
 -1      4138-2.49154E+01-7.80145E+00 0.00000E+00
 -1      4139-2.71141E+01-2.37115E-01 2.50000E+00
 -1      4140-2.67993E+01-2.18937E+00 2.50000E+00
 -1      4141-2.65809E+01-3.15392E+00 2.50000E+00
 -1      4142-2.67993E+01-2.18938E+00 0.00000E+00
 -1      4143-2.63230E+01-4.10865E+00 0.00000E+00
 -1      4144-2.72629E+01 1.73473E+00 2.50000E+00
 -1      4145-2.72416E+01 3.71204E+00 2.50000E+00
 -1      4146-2.72094E+01 7.47235E-01 2.50000E+00
 -1      4147-2.72629E+01 1.73473E+00 0.00000E+00
 -1      4148-2.71140E+01-2.37119E-01 0.00000E+00
 -1      4149-2.66814E+01 7.62311E+00 2.50000E+00
 -1      4150-2.70477E+01 5.67993E+00 2.50000E+00
 -1      4151-2.71661E+01 4.69810E+00 2.50000E+00
 -1      4152-2.70477E+01 5.67993E+00 0.00000E+00
 -1      4153-2.72416E+01 3.71204E+00 0.00000E+00
 -1      4154-2.61439E+01 9.52608E+00 2.50000E+00
 -1      4155-2.54401E+01 1.13740E+01 2.50000E+00
 -1      4156-2.64338E+01 8.58056E+00 2.50000E+00
 -1      4157-2.61439E+01 9.52608E+00 8.88178E-16
 -1      4158-2.66814E+01 7.62311E+00 0.00000E+00
 -1      4159-2.35580E+01 1.48479E+01 2.50000E+00
 -1      4160-2.45751E+01 1.31522E+01 2.50000E+00
 -1      4161-2.50272E+01 1.22726E+01 2.50000E+00
 -1      4162-2.54401E+01 1.13740E+01 0.00000E+00
 -1      4163-2.45751E+01 1.31522E+01 0.00000E+00
 -1      4164-2.23977E+01 1.64492E+01 2.50000E+00
 -1      4165-2.11048E+01 1.79454E+01 2.50000E+00
 -1      4166-2.29950E+01 1.56610E+01 2.50000E+00
 -1      4167-2.35580E+01 1.48479E+01 0.00000E+00
 -1      4168-2.23977E+01 1.64492E+01 0.00000E+00
 -1      4169-1.92859E+01 1.96843E+01 3.80000E+00
 -1      4170-1.99280E+01 1.91114E+01 2.50000E+00
 -1      4171-2.06402E+01 1.84253E+01 3.19744E-14
 -1      4172-1.87738E+01 2.01130E+01 1.30000E+00
 -1      4173 1.98068E+01 1.70777E+01 2.50000E+00
 -1      4174 2.11411E+01 1.56180E+01 2.50000E+00
 -1      4175 1.87231E+01 1.81268E+01 2.50000E+00
 -1      4176 1.94399E+01 1.74454E+01-4.17444E-14
 -1      4177 2.23671E+01 1.40661E+01 2.50000E+00
 -1      4178 2.34764E+01 1.24289E+01 2.50000E+00
 -1      4179 2.17683E+01 1.48533E+01 2.50000E+00
 -1      4180 2.23671E+01 1.40661E+01 0.00000E+00
 -1      4181 2.11411E+01 1.56180E+01 0.00000E+00
 -1      4182 2.53098E+01 8.92781E+00 2.50000E+00
 -1      4183 2.44603E+01 1.07136E+01 2.50000E+00
 -1      4184 2.39848E+01 1.15807E+01 2.50000E+00
 -1      4185 2.44603E+01 1.07136E+01 0.00000E+00
 -1      4186 2.34764E+01 1.24289E+01 0.00000E+00
 -1      4187 2.65739E+01 5.18359E+00 2.50000E+00
 -1      4188 2.60173E+01 7.08114E+00 2.50000E+00
 -1      4189 2.56818E+01 8.01149E+00 2.50000E+00
 -1      4190 2.60173E+01 7.08115E+00 0.00000E+00
 -1      4191 2.53098E+01 8.92782E+00 0.00000E+00
 -1      4192 2.72070E+01 1.28317E+00 2.50000E+00
 -1      4193 2.69722E+01 3.24664E+00 2.50000E+00
 -1      4194 2.67931E+01 4.21924E+00 2.50000E+00
 -1      4195 2.69722E+01 3.24664E+00 0.00000E+00
 -1      4196 2.65739E+01 5.18359E+00 0.00000E+00
 -1      4197 2.71692E+01-2.66773E+00 2.50000E+00
 -1      4198 2.72742E+01-6.93109E-01 2.50000E+00
 -1      4199 2.72617E+01 2.95741E-01 2.50000E+00
 -1      4200 2.72742E+01-6.93101E-01 0.00000E+00
 -1      4201 2.72070E+01 1.28318E+00 0.00000E+00
 -1      4202 2.68913E+01-4.62555E+00 2.50000E+00
 -1      4203 2.64419E+01-6.55121E+00 2.50000E+00
 -1      4204 2.70517E+01-3.64970E+00 2.50000E+00
 -1      4205 2.68913E+01-4.62554E+00 0.00000E+00
 -1      4206 2.71692E+01-2.66773E+00 0.00000E+00
 -1      4207 2.50406E+01-1.02453E+01 2.50000E+00
 -1      4208 2.58234E+01-8.42938E+00 2.50000E+00
 -1      4209 2.61536E+01-7.49718E+00 2.50000E+00
 -1      4210 2.64419E+01-6.55121E+00 0.00000E+00
 -1      4211 2.58234E+01-8.42938E+00 0.00000E+00
 -1      4212 2.41010E+01-1.19852E+01 2.50000E+00
 -1      4213 2.30129E+01-1.36363E+01 2.50000E+00
 -1      4214 2.45899E+01-1.11255E+01 2.50000E+00
 -1      4215 2.50406E+01-1.02453E+01 0.00000E+00
 -1      4216 2.41010E+01-1.19852E+01 0.00000E+00
 -1      4217 2.17867E+01-1.51877E+01 2.50000E+00
 -1      4218 2.04344E+01-1.66304E+01 2.50000E+00
 -1      4219 2.24163E+01-1.44250E+01 2.50000E+00
 -1      4220 2.30129E+01-1.36363E+01 0.00000E+00
 -1      4221 2.17867E+01-1.51877E+01 0.00000E+00
 -1      4222 1.73951E+01-1.91562E+01 2.50000E+00
 -1      4223 1.89658E+01-1.79547E+01 2.50000E+00
 -1      4224 1.97138E+01-1.73078E+01 2.50000E+00
 -1      4225 2.04343E+01-1.66305E+01 0.00000E+00
 -1      4226 1.89657E+01-1.79547E+01 0.00000E+00
 -1      4227 1.57339E+01-2.02291E+01 2.50000E+00
 -1      4228 1.39945E+01-2.11701E+01 2.50000E+00
 -1      4229 1.65750E+01-1.97088E+01 2.50000E+00
 -1      4230 1.73951E+01-1.91562E+01 0.00000E+00
 -1      4231 1.57339E+01-2.02291E+01 0.00000E+00
 -1      4232 1.19438E+01-2.20744E+01 3.61742E+00
 -1      4233 1.00769E+01-2.27271E+01 3.61742E+00
 -1      4234 1.28976E+01-2.16793E+01 2.68650E+00
 -1      4235 1.37963E+01-2.12667E+01 1.86505E-01
 -1      4236 1.17381E+01-2.21540E+01 1.30393E+00
 -1      4237 9.52041E+00-2.28927E+01 2.08087E+00
 -1      4238 6.41980E+00-2.35929E+01 1.11391E-01
 -1      4239 7.79180E+00-2.33285E+01 2.41507E-01
 -1      4240-2.26587E+01-1.16597E+01-3.06283E+00
 -1      4241-2.14615E+01-1.32337E+01-3.06283E+00
 -1      4242-2.07755E+01-1.40390E+01-1.28478E+00
 -1      4243-2.39988E+01-9.55378E+00-2.50000E+00
 -1      4244-2.49154E+01-7.80145E+00-2.50000E+00
 -1      4245-2.33749E+01-1.05898E+01-2.31350E+00
 -1      4246-2.25309E+01-1.18393E+01-3.76329E-01
 -1      4247-2.63230E+01-4.10864E+00-2.50000E+00
 -1      4248-2.56924E+01-5.98291E+00-2.50000E+00
 -1      4249-2.53218E+01-6.89982E+00-2.50000E+00
 -1      4250-2.67993E+01-2.18937E+00-2.50000E+00
 -1      4251-2.71141E+01-2.37115E-01-2.50000E+00
 -1      4252-2.65809E+01-3.15392E+00-2.50000E+00
 -1      4253-2.72416E+01 3.71204E+00-2.50000E+00
 -1      4254-2.72629E+01 1.73473E+00-2.50000E+00
 -1      4255-2.72094E+01 7.47235E-01-2.50000E+00
 -1      4256-2.70477E+01 5.67993E+00-2.50000E+00
 -1      4257-2.66814E+01 7.62311E+00-2.50000E+00
 -1      4258-2.71661E+01 4.69810E+00-2.50000E+00
 -1      4259-2.54401E+01 1.13740E+01-2.50000E+00
 -1      4260-2.61439E+01 9.52608E+00-2.50000E+00
 -1      4261-2.64338E+01 8.58056E+00-2.50000E+00
 -1      4262-2.45751E+01 1.31522E+01-2.50000E+00
 -1      4263-2.35580E+01 1.48479E+01-2.50000E+00
 -1      4264-2.50272E+01 1.22726E+01-2.50000E+00
 -1      4265-2.11048E+01 1.79454E+01-2.50000E+00
 -1      4266-2.23977E+01 1.64492E+01-2.50000E+00
 -1      4267-2.29950E+01 1.56610E+01-2.50000E+00
 -1      4268-1.92859E+01 1.96843E+01-3.80000E+00
 -1      4269-1.99280E+01 1.91114E+01-2.50000E+00
 -1      4270-1.87738E+01 2.01130E+01-1.30000E+00
 -1      4271 2.11411E+01 1.56180E+01-2.50000E+00
 -1      4272 1.98068E+01 1.70777E+01-2.50000E+00
 -1      4273 1.87231E+01 1.81268E+01-2.50000E+00
 -1      4274 2.34764E+01 1.24289E+01-2.50000E+00
 -1      4275 2.23671E+01 1.40661E+01-2.50000E+00
 -1      4276 2.17683E+01 1.48533E+01-2.50000E+00
 -1      4277 2.44603E+01 1.07136E+01-2.50000E+00
 -1      4278 2.53098E+01 8.92781E+00-2.50000E+00
 -1      4279 2.39848E+01 1.15807E+01-2.50000E+00
 -1      4280 2.60173E+01 7.08114E+00-2.50000E+00
 -1      4281 2.65739E+01 5.18359E+00-2.50000E+00
 -1      4282 2.56818E+01 8.01149E+00-2.50000E+00
 -1      4283 2.69722E+01 3.24664E+00-2.50000E+00
 -1      4284 2.72070E+01 1.28317E+00-2.50000E+00
 -1      4285 2.67931E+01 4.21924E+00-2.50000E+00
 -1      4286 2.72742E+01-6.93109E-01-2.50000E+00
 -1      4287 2.71692E+01-2.66773E+00-2.50000E+00
 -1      4288 2.72617E+01 2.95741E-01-2.50000E+00
 -1      4289 2.64419E+01-6.55121E+00-2.50000E+00
 -1      4290 2.68913E+01-4.62555E+00-2.50000E+00
 -1      4291 2.70517E+01-3.64970E+00-2.50000E+00
 -1      4292 2.58234E+01-8.42938E+00-2.50000E+00
 -1      4293 2.50406E+01-1.02453E+01-2.50000E+00
 -1      4294 2.61536E+01-7.49718E+00-2.50000E+00
 -1      4295 2.30129E+01-1.36363E+01-2.50000E+00
 -1      4296 2.41010E+01-1.19852E+01-2.50000E+00
 -1      4297 2.45899E+01-1.11255E+01-2.50000E+00
 -1      4298 2.04344E+01-1.66304E+01-2.50000E+00
 -1      4299 2.17867E+01-1.51877E+01-2.50000E+00
 -1      4300 2.24163E+01-1.44250E+01-2.50000E+00
 -1      4301 1.89658E+01-1.79547E+01-2.50000E+00
 -1      4302 1.73951E+01-1.91562E+01-2.50000E+00
 -1      4303 1.97138E+01-1.73078E+01-2.50000E+00
 -1      4304 1.39945E+01-2.11701E+01-2.50000E+00
 -1      4305 1.57339E+01-2.02291E+01-2.50000E+00
 -1      4306 1.65750E+01-1.97088E+01-2.50000E+00
 -1      4307 1.17058E+01-2.21663E+01-3.06283E+00
 -1      4308 9.83294E+00-2.28013E+01-3.06283E+00
 -1      4309 1.28976E+01-2.16793E+01-2.31350E+00
 -1      4310 1.14994E+01-2.22439E+01-3.76329E-01
 -1      4311 8.81382E+00-2.30850E+01-1.28478E+00
 -1      4312-1.80097E+01 2.07102E+01 1.27010E-13
 -1      4313 1.05248E+01-2.25844E+01 5.54590E-01
 -1      4314 9.27491E+00-2.29618E+01 4.00616E-01
 -1      4315-2.19134E+01-1.26667E+01 5.54590E-01
 -1      4316-2.10888E+01-1.36789E+01 4.00616E-01
 -1      4317 4.36779E+00 2.55411E+02 2.18399E+00
 -1      4318 3.41546E+00 2.55643E+02-2.55930E+00
 -1      4319-6.07228E+00 2.54842E+02 2.00324E+00
 -1      4320-1.19394E+01 2.50889E+02-3.09227E+00
 -1      4321-1.53272E+01 2.33391E+02 1.92313E+00
 -1      4322-1.55578E+01 2.44996E+02-2.63351E+00
 -1      4323-1.53464E+01 2.33439E+02-1.86896E+00
 -1      4324-1.63001E+01 2.42061E+02-2.81421E+00
 -1      4325 1.62231E+01 2.42510E+02-4.75441E-01
 -1      4326-7.31562E+00 2.54290E+02-1.01632E+00
 -1      4327 1.51159E+01 2.46115E+02-1.79468E+00
 -1      4328 1.52505E+01 2.45799E+02 2.95215E+00
 -1      4329 1.64582E+01 2.40674E+02-3.30817E+00
 -1      4330-1.41877E+01 2.47924E+02-2.97668E+00
 -1      4331-5.07805E+00 2.55199E+02-3.18136E+00
 -1      4332-1.67315E+00 2.55915E+02-3.37563E+00
 -1      4333-2.56967E+00 2.55799E+02 2.14619E+00
 -1      4334 8.66036E+00 2.53545E+02-2.87458E+00
 -1      4335 1.07246E+01 2.52039E+02 3.12551E+00
 -1      4336-8.99537E+00 2.53332E+02 3.22355E+00
 -1      4337 1.11517E+01 2.51661E+02-3.06629E+00
 -1      4338 1.25391E+01 2.50225E+02 2.25479E+00
 -1      4339 1.56584E+01 2.44702E+02-3.55268E+00
 -1      4340-1.61937E+01 2.36336E+02 1.06788E-01
 -1      4341-1.37694E+01 2.30409E+02 1.28164E-02
 -1      4342-1.62707E+01 2.36758E+02 2.74458E+00
 -1      4343-1.62683E+01 2.36744E+02-2.68765E+00
 -1      4344 2.59767E+00 2.55794E+02-7.30421E-02
 -1      4345 1.42189E+01 2.47871E+02 1.25858E+00
 -1      4346-1.40284E+01 2.48186E+02 2.35087E+00
 -1      4347 1.25671E+01 2.50192E+02-4.20181E-01
 -1      4348 1.57908E+01 2.34715E+02-2.93624E-01
 -1      4349-1.27761E+01 2.49941E+02-1.83501E-01
 -1      4350-2.56940E-01 2.55998E+02 1.41576E-01
 -1      4351 1.62626E+01 2.36711E+02 2.48102E+00
 -1      4352 1.08671E+01 2.51916E+02 1.27258E+00
 -1      4353 1.64006E+01 2.37691E+02-2.54816E+00
 -1      4354 1.56536E+01 2.34283E+02-2.94456E+00
 -1      4355 3.19976E-01 2.55997E+02-2.27174E+00
 -1      4356-9.83721E+00 2.52747E+02 9.55797E-01
 -1      4357-8.72378E+00 2.53505E+02-3.19976E+00
 -1      4358 1.33411E+01 2.49209E+02-3.21500E+00
 -1      4359 1.39063E+01 2.48381E+02 3.29223E+00
 -1      4360-4.44199E+00 2.55391E+02 4.09264E+00
 -1      4361-1.50380E+01 2.46290E+02-2.05767E-01
 -1      4362-3.20444E+00 2.55686E+02-7.50964E-01
 -1      4363 1.54664E+01 2.45248E+02 8.39949E-01
 -1      4364 9.76008E+00 2.52804E+02-7.17497E-01
 -1      4365 6.16737E+00 2.54804E+02-1.02250E+00
 -1      4366-1.02166E+01 2.52456E+02-1.22312E+00
 -1      4367 1.64962E+01 2.39148E+02 3.73951E-01
 -1      4368 8.27430E+00 2.53775E+02 2.12030E+00
 -1      4369 7.10250E-01 2.55985E+02 2.39065E+00
 -1      4370 1.47689E+01 2.32143E+02-2.22548E+00
 -1      4371 1.62654E+01 2.42272E+02 2.32212E+00
 -1      4372 1.61327E+01 2.42962E+02-2.63261E+00
 -1      4373 1.39274E+01 2.30652E+02 6.14774E-02
 -1      4374 1.52578E+01 2.33219E+02 2.56676E+00
 -1      4375-1.55443E+01 2.45034E+02 2.36117E+00
 -1      4376-1.61782E+01 2.42743E+02 2.29144E-01
 -1      4377 1.64876E+01 2.40140E+02-1.66469E+00
 -1      4378 1.38078E+01 2.30467E+02 3.12565E+00
 -1      4379-1.37963E+01 2.30449E+02 2.98719E+00
 -1      4380-1.38019E+01 2.30458E+02-2.97123E+00
 -1      4381 1.64997E+01 2.39408E+02 2.54427E+00
 -1      4382-1.13818E+01 2.51446E+02 2.72445E+00
 -1      4383-1.62989E+01 2.42068E+02 2.85140E+00
 -1      4384 1.31466E+01 2.29529E+02 3.07387E-02
 -1      4385 1.31466E+01 2.29529E+02-1.46926E+00
 -1      4386 9.33992E+00 2.25898E+02-4.00000E+00
 -1      4387 1.08993E+01 2.27112E+02-4.00000E+00
 -1      4388 1.35472E+01 2.30081E+02-4.00000E+00
 -1      4389 1.23130E+01 2.28516E+02-4.00000E+00
 -1      4390 1.36460E+01 2.30224E+02-2.61274E+00
 -1      4391 1.46903E+01 2.31987E+02-3.61274E+00
 -1      4392 1.43675E+01 2.31387E+02-1.08200E+00
 -1      4393 1.31466E+01 2.29529E+02 1.53074E+00
 -1      4394 1.08993E+01 2.27112E+02 4.00000E+00
 -1      4395 9.33992E+00 2.25898E+02 4.00000E+00
 -1      4396 1.23130E+01 2.28516E+02 4.00000E+00
 -1      4397 1.30796E+01 2.29441E+02 3.06282E+00
 -1      4398 1.31139E+01 2.29486E+02 4.06282E+00
 -1      4399 1.38679E+01 2.30560E+02 1.59356E+00
 -1      4400-1.08993E+01 2.27112E+02-4.00000E+00
 -1      4401-9.33992E+00 2.25898E+02-4.00000E+00
 -1      4402-1.23130E+01 2.28516E+02-4.00000E+00
 -1      4403-1.30764E+01 2.29437E+02-2.98561E+00
 -1      4404-1.31106E+01 2.29482E+02-3.98561E+00
 -1      4405-1.30583E+01 2.29414E+02 6.40822E-03
 -1      4406-1.30583E+01 2.29414E+02-1.49359E+00
 -1      4407-1.37857E+01 2.30433E+02-1.47921E+00
 -1      4408-9.33992E+00 2.25898E+02 4.00000E+00
 -1      4409-1.08993E+01 2.27112E+02 4.00000E+00
 -1      4410-1.23130E+01 2.28516E+02 4.00000E+00
 -1      4411-1.31075E+01 2.29478E+02 3.99360E+00
 -1      4412-1.30732E+01 2.29433E+02 2.99360E+00
 -1      4413-1.30583E+01 2.29414E+02 1.50641E+00
 -1      4414-1.37829E+01 2.30429E+02 1.50000E+00
 -1      4415-1.61752E+01 2.42758E+02-3.90710E+00
 -1      4416-1.64500E+01 2.40784E+02-3.90710E+00
 -1      4417-1.64420E+01 2.38117E+02-3.84383E+00
 -1      4418-1.61554E+01 2.36146E+02-3.84383E+00
 -1      4419-1.64500E+01 2.40784E+02-2.24044E+00
 -1      4420-1.64420E+01 2.38117E+02-2.17716E+00
 -1      4421-1.64426E+01 2.38124E+02 2.20562E+00
 -1      4422-1.64426E+01 2.38124E+02 3.87229E+00
 -1      4423-1.64496E+01 2.40788E+02 2.25903E+00
 -1      4424-1.64496E+01 2.40788E+02 3.92570E+00
 -1      4425-1.61744E+01 2.42762E+02 3.92570E+00
 -1      4426-1.61569E+01 2.36153E+02 3.87229E+00
 -1      4427 5.82840E+00 2.24064E+02-4.00000E+00
 -1      4428 7.63228E+00 2.24871E+02-4.00000E+00
 -1      4429 1.98087E+00 2.23119E+02-4.00000E+00
 -1      4430 3.92526E+00 2.23474E+02-4.00000E+00
 -1      4431-1.98087E+00 2.23119E+02-4.00000E+00
 -1      4432-8.04840E-03 2.23000E+02-4.00000E+00
 -1      4433-3.92526E+00 2.23474E+02-4.00000E+00
 -1      4434-7.63228E+00 2.24871E+02-4.00000E+00
 -1      4435-5.82840E+00 2.24064E+02-4.00000E+00
 -1      4436 7.63228E+00 2.24871E+02 4.00000E+00
 -1      4437 5.82840E+00 2.24064E+02 4.00000E+00
 -1      4438 3.92526E+00 2.23474E+02 4.00000E+00
 -1      4439 1.98087E+00 2.23119E+02 4.00000E+00
 -1      4440-8.04840E-03 2.23000E+02 4.00000E+00
 -1      4441-1.98087E+00 2.23119E+02 4.00000E+00
 -1      4442-3.92526E+00 2.23474E+02 4.00000E+00
 -1      4443-5.82840E+00 2.24064E+02 4.00000E+00
 -1      4444-7.63228E+00 2.24871E+02 4.00000E+00
 -1      4445-1.51229E+01 2.46099E+02-3.81675E+00
 -1      4446-1.58081E+01 2.44228E+02-3.81675E+00
 -1      4447-1.59964E+01 2.43545E+02-2.72386E+00
 -1      4448-1.33286E+01 2.49226E+02-3.98834E+00
 -1      4449-1.44038E+01 2.47549E+02-3.98834E+00
 -1      4450-1.49446E+01 2.46493E+02-2.80509E+00
 -1      4451-1.07124E+01 2.52050E+02-4.04614E+00
 -1      4452-1.21470E+01 2.50667E+02-4.04614E+00
 -1      4453-1.31474E+01 2.49470E+02-3.03447E+00
 -1      4454-7.32201E+00 2.54286E+02-4.09988E+00
 -1      4455-9.05093E+00 2.53296E+02-4.09988E+00
 -1      4456-1.04141E+01 2.52298E+02-3.14602E+00
 -1      4457-3.54980E+00 2.55614E+02-4.09068E+00
 -1      4458-5.46620E+00 2.55068E+02-4.09068E+00
 -1      4459-6.95270E+00 2.54464E+02-3.19056E+00
 -1      4460 1.58832E-01 2.55999E+02-4.18782E+00
 -1      4461-1.83109E+00 2.55898E+02-4.18782E+00
 -1      4462-3.39452E+00 2.55647E+02-3.27849E+00
 -1      4463 2.70475E+00 2.55777E+02-3.77965E+00
 -1      4464 4.64698E+00 2.55332E+02-3.77965E+00
 -1      4465 1.87610E+00 2.55893E+02-2.41552E+00
 -1      4466 1.15590E+00 2.55959E+02-3.63587E+00
 -1      4467-6.77828E-01 2.55986E+02-2.82368E+00
 -1      4468 7.28856E+00 2.54303E+02-3.93729E+00
 -1      4469 9.01972E+00 2.53316E+02-3.93729E+00
 -1      4470 4.80972E+00 2.55283E+02-1.79090E+00
 -1      4471 6.00949E+00 2.54867E+02-3.01125E+00
 -1      4472 7.44057E+00 2.54227E+02-1.94854E+00
 -1      4473 1.02869E+01 2.52401E+02-4.03315E+00
 -1      4474 1.17669E+01 2.51067E+02-4.03315E+00
 -1      4475 9.95071E+00 2.52662E+02-2.97044E+00
 -1      4476 1.28605E+01 2.49837E+02-4.10750E+00
 -1      4477 1.40128E+01 2.48212E+02-4.10750E+00
 -1      4478 1.23076E+01 2.50490E+02-3.14065E+00
 -1      4479 1.51844E+01 2.45956E+02-4.27634E+00
 -1      4480 1.58519E+01 2.44079E+02-4.27634E+00
 -1      4481 1.48723E+01 2.46646E+02-3.39734E+00
 -1      4482 1.54034E+01 2.45415E+02-2.67368E+00
 -1      4483 1.43123E+01 2.47710E+02-2.50484E+00
 -1      4484 1.62985E+01 2.42071E+02-4.15409E+00
 -1      4485 1.64895E+01 2.40087E+02-4.15409E+00
 -1      4486 1.60784E+01 2.43206E+02-3.81631E+00
 -1      4487 1.63355E+01 2.41824E+02-2.97039E+00
 -1      4488 1.59193E+01 2.43839E+02-3.09265E+00
 -1      4489 1.64751E+01 2.38594E+02-3.77408E+00
 -1      4490 1.62458E+01 2.36615E+02-3.77408E+00
 -1      4491 1.64969E+01 2.39181E+02-2.92817E+00
 -1      4492 1.58497E+01 2.34914E+02-3.97228E+00
 -1      4493 1.51813E+01 2.33037E+02-3.97228E+00
 -1      4494 1.61174E+01 2.35967E+02-2.74636E+00
 -1      4495 1.52488E+01 2.33197E+02-2.58502E+00
 -1      4496-1.42226E+01 2.31135E+02-3.98561E+00
 -1      4497-1.57190E+01 2.34484E+02-3.43448E+00
 -1      4498-1.49997E+01 2.32626E+02-3.43448E+00
 -1      4499-1.46502E+01 2.31909E+02-2.42009E+00
 -1      4500-1.58935E+01 2.35067E+02-2.27830E+00
 -1      4501-1.64232E+01 2.37910E+02 8.86727E-01
 -1      4502-1.64232E+01 2.37910E+02-7.79939E-01
 -1      4503-1.64194E+01 2.41129E+02 9.47905E-01
 -1      4504-1.64194E+01 2.41129E+02-7.18762E-01
 -1      4505-1.62427E+01 2.42402E+02-1.29253E+00
 -1      4506-1.62323E+01 2.36540E+02-1.29043E+00
 -1      4507-1.62336E+01 2.36547E+02 1.42568E+00
 -1      4508-1.62420E+01 2.42406E+02 1.54027E+00
 -1      4509-1.51149E+01 2.46117E+02 3.68058E+00
 -1      4510-1.58023E+01 2.44247E+02 3.68058E+00
 -1      4511-1.59905E+01 2.43569E+02 2.60628E+00
 -1      4512-1.32375E+01 2.49350E+02 3.67543E+00
 -1      4513-1.43283E+01 2.47682E+02 3.67543E+00
 -1      4514-1.48701E+01 2.46650E+02 2.35602E+00
 -1      4515-1.04095E+01 2.52302E+02 3.86223E+00
 -1      4516-1.18767E+01 2.50954E+02 3.86223E+00
 -1      4517-1.28092E+01 2.49901E+02 2.53766E+00
 -1      4518-7.46592E+00 2.54214E+02 4.11177E+00
 -1      4519-9.18509E+00 2.53207E+02 4.11177E+00
 -1      4520-1.02321E+01 2.52444E+02 2.97400E+00
 -1      4521-3.22470E+00 2.55682E+02 4.54632E+00
 -1      4522-5.15169E+00 2.55175E+02 4.54632E+00
 -1      4523-5.96178E+00 2.54885E+02 3.50162E+00
 -1      4524-7.57155E+00 2.54160E+02 2.61339E+00
 -1      4525-5.26429E+00 2.55138E+02 3.04794E+00
 -1      4526-6.41455E-01 2.55988E+02 3.69533E+00
 -1      4527 1.35057E+00 2.55945E+02 3.69533E+00
 -1      4528-2.27962E+00 2.55842E+02 3.57310E+00
 -1      4529-3.51176E+00 2.55622E+02 3.11941E+00
 -1      4530-9.34351E-01 2.55974E+02 2.26842E+00
 -1      4531 3.18694E+00 2.55689E+02 3.59199E+00
 -1      4532 5.11511E+00 2.55187E+02 3.59199E+00
 -1      4533 2.55515E+00 2.55801E+02 2.28732E+00
 -1      4534 8.83055E+00 2.53438E+02 3.56015E+00
 -1      4535 7.08611E+00 2.54401E+02 3.56015E+00
 -1      4536 6.37376E+00 2.54719E+02 2.15214E+00
 -1      4537 1.15651E+01 2.51269E+02 4.06276E+00
 -1      4538 1.00623E+01 2.52577E+02 4.06276E+00
 -1      4539 9.53902E+00 2.52963E+02 2.62291E+00
 -1      4540 1.31688E+01 2.49442E+02 4.14611E+00
 -1      4541 1.42711E+01 2.47782E+02 4.14611E+00
 -1      4542 1.24452E+01 2.50334E+02 3.62739E+00
 -1      4543 1.16672E+01 2.51167E+02 2.69015E+00
 -1      4544 1.32548E+01 2.49326E+02 2.77351E+00
 -1      4545 1.49459E+01 2.46491E+02 3.97607E+00
 -1      4546 1.56796E+01 2.44638E+02 3.97607E+00
 -1      4547 1.46355E+01 2.47119E+02 3.12219E+00
 -1      4548 1.61537E+01 2.42863E+02 3.66106E+00
 -1      4549 1.64413E+01 2.40891E+02 3.66106E+00
 -1      4550 1.58563E+01 2.44064E+02 2.63713E+00
 -1      4551 1.64405E+01 2.38100E+02 3.74051E+00
 -1      4552 1.61520E+01 2.36129E+02 3.74051E+00
 -1      4553 1.64366E+01 2.38055E+02 2.51265E+00
 -1      4554 1.64999E+01 2.39454E+02 3.77214E+00
 -1      4555 1.64451E+01 2.40845E+02 2.43320E+00
 -1      4556 1.56826E+01 2.34371E+02 3.78338E+00
 -1      4557 1.49500E+01 2.32518E+02 3.78338E+00
 -1      4558 1.58566E+01 2.34937E+02 2.52389E+00
 -1      4559 1.42253E+01 2.31140E+02 4.06282E+00
 -1      4560 1.45978E+01 2.31809E+02 2.84620E+00
 -1      4561-1.42200E+01 2.31131E+02 3.99360E+00
 -1      4562-1.57111E+01 2.34459E+02 3.46157E+00
 -1      4563-1.49889E+01 2.32602E+02 3.46157E+00
 -1      4564-1.46358E+01 2.31881E+02 2.45516E+00
 -1      4565-1.58884E+01 2.35049E+02 2.33386E+00
 -1      4566 4.41040E+00 2.55400E+02-5.47769E-01
 -1      4567 3.48799E+00 2.55627E+02 1.05547E+00
 -1      4568 5.27633E+00 2.55134E+02 5.80747E-01
 -1      4569 1.65670E+00 2.55917E+02 1.15881E+00
 -1      4570 7.23913E+00 2.54327E+02 5.48902E-01
 -1      4571 3.00752E+00 2.55724E+02-1.31617E+00
 -1      4572 1.46234E+00 2.55935E+02-1.17239E+00
 -1      4573-8.02343E+00 2.53918E+02 1.47952E+00
 -1      4574-6.69965E+00 2.54579E+02 4.93458E-01
 -1      4575-8.61104E+00 2.53575E+02-3.02638E-02
 -1      4576-5.30616E+00 2.55124E+02-8.83644E-01
 -1      4577-4.65751E+00 2.55329E+02 6.26138E-01
 -1      4578-4.34737E+00 2.55417E+02 2.07472E+00
 -1      4579-2.88761E+00 2.55745E+02 6.97613E-01
 -1      4580-9.42084E+00 2.53046E+02 2.08967E+00
 -1      4581-1.35196E+01 2.48959E+02-1.58009E+00
 -1      4582-1.23668E+01 2.50423E+02-1.63789E+00
 -1      4583-1.15649E+01 2.51269E+02-7.03309E-01
 -1      4584-1.11057E+01 2.51703E+02-2.15770E+00
 -1      4585-9.48471E+00 2.53001E+02-2.21144E+00
 -1      4586-1.58291E+01 2.34843E+02 1.01496E+00
 -1      4587-1.58364E+01 2.34868E+02-8.81085E-01
 -1      4588-1.53368E+01 2.33415E+02 2.70883E-02
 -1      4589-1.46365E+01 2.31883E+02-9.28070E-01
 -1      4590-1.46245E+01 2.31860E+02 9.67975E-01
 -1      4591-1.59079E+01 2.43880E+02-1.20218E+00
 -1      4592-1.53116E+01 2.45649E+02-1.41964E+00
 -1      4593-1.46357E+01 2.47119E+02-1.59122E+00
 -1      4594-1.57086E+01 2.44549E+02 1.16881E-02
 -1      4595 1.59037E+01 2.43896E+02 1.82254E-01
 -1      4596 1.57728E+01 2.44344E+02-1.13506E+00
 -1      4597 1.52973E+01 2.45684E+02-4.77365E-01
 -1      4598 1.57036E+01 2.44564E+02-2.21364E+00
 -1      4599 1.61794E+01 2.42737E+02-1.55403E+00
 -1      4600 1.59355E+01 2.43779E+02 1.58103E+00
 -1      4601 1.62447E+01 2.42391E+02 9.23338E-01
 -1      4602 1.64458E+01 2.40836E+02-5.07448E-02
 -1      4603 1.64552E+01 2.40716E+02 1.34803E+00
 -1      4604 1.63982E+01 2.41330E+02-1.07007E+00
 -1      4605 1.64994E+01 2.39644E+02-6.45371E-01
 -1      4606 1.63711E+01 2.41559E+02-2.14865E+00
 -1      4607-8.02928E+00 2.53915E+02-2.10804E+00
 -1      4608-6.21350E+00 2.54785E+02-2.09884E+00
 -1      4609-4.14839E+00 2.55470E+02-1.96616E+00
 -1      4610-8.81391E+00 2.53449E+02-1.11972E+00
 -1      4611-1.00280E+01 2.52603E+02-1.33660E-01
 -1      4612 1.39908E+01 2.48247E+02-1.10743E+00
 -1      4613 1.34432E+01 2.49067E+02 4.19199E-01
 -1      4614 1.46937E+01 2.47006E+02-2.68050E-01
 -1      4615 1.49005E+01 2.46587E+02 1.04926E+00
 -1      4616 1.29634E+01 2.49708E+02-1.81759E+00
 -1      4617 1.40649E+01 2.48127E+02 2.27540E+00
 -1      4618 1.47711E+01 2.46853E+02 2.10536E+00
 -1      4619 1.53609E+01 2.45524E+02 1.89605E+00
 -1      4620 1.64750E+01 2.40407E+02-2.48643E+00
 -1      4621 1.64896E+01 2.38914E+02-2.10643E+00
 -1      4622-1.40264E+01 2.48190E+02-1.94634E-01
 -1      4623-2.44149E+00 2.55818E+02-2.06330E+00
 -1      4624-1.45059E+00 2.55936E+02-1.51135E+00
 -1      4625-1.73771E+00 2.55908E+02-3.04694E-01
 -1      4626-1.41681E+00 2.55939E+02 1.14388E+00
 -1      4627 2.26753E-01 2.55998E+02 1.26612E+00
 -1      4628 1.04715E+01 2.52251E+02-1.89190E+00
 -1      4629 9.21766E+00 2.53185E+02-1.79604E+00
 -1      4630 8.02628E+00 2.53916E+02-8.69996E-01
 -1      4631 1.17336E+01 2.51101E+02 1.76369E+00
 -1      4632 1.07960E+01 2.51978E+02 2.19905E+00
 -1      4633 9.61576E+00 2.52908E+02 1.69644E+00
 -1      4634-1.06294E+01 2.52120E+02 1.84012E+00
 -1      4635 1.18821E+01 2.50948E+02-1.74324E+00
 -1      4636 1.12397E+01 2.51580E+02-5.68839E-01
 -1      4637 1.25531E+01 2.50208E+02 9.17302E-01
 -1      4638 1.34307E+01 2.49085E+02 1.75668E+00
 -1      4639 1.17488E+01 2.51085E+02 4.26201E-01
 -1      4640 1.17479E+00 2.55958E+02 3.42672E-02
 -1      4641 3.15231E-02 2.56000E+02-1.06508E+00
 -1      4642-1.34309E+01 2.49084E+02 1.08368E+00
 -1      4643-1.45641E+01 2.47255E+02 1.07255E+00
 -1      4644-1.21023E+01 2.50715E+02 1.27048E+00
 -1      4645-1.53040E+01 2.45667E+02 1.07770E+00
 -1      4646 1.03231E+01 2.52372E+02 2.77543E-01
 -1      4647 1.60578E+01 2.35706E+02 1.09370E+00
 -1      4648 1.62950E+01 2.36907E+02 4.01637E-02
 -1      4649 1.64247E+01 2.37925E+02 1.42749E+00
 -1      4650 1.55423E+01 2.33960E+02 1.13657E+00
 -1      4651 1.61644E+01 2.36189E+02-1.42089E+00
 -1      4652 1.57237E+01 2.34498E+02-1.61909E+00
 -1      4653 1.64645E+01 2.38419E+02-1.08710E+00
 -1      4654 1.53339E+01 2.33407E+02-1.25955E+00
 -1      4655 1.49973E+01 2.32620E+02-1.16073E-01
 -1      4656 1.46489E+01 2.31907E+02 1.31412E+00
 -1      4657-1.13933E+01 2.51435E+02 3.86148E-01
 -1      4658 1.64985E+01 2.39278E+02 1.45911E+00
 -1      4659 9.03026E+00 2.53310E+02 7.01401E-01
 -1      4660-1.59026E+01 2.43900E+02 1.29516E+00
 -1      4661-1.22205E+01 2.90826E+01 0.00000E+00
 -1      4662-1.36091E+01 2.61431E+01 0.00000E+00
 -1      4663-1.50041E+01 2.38198E+01 6.39488E-14
 -1      4664-1.03448E+01 3.58756E+01 3.42857E-03
 -1      4665-1.11022E+01 3.23516E+01 4.44089E-16
 -1      4666-1.56164E+01 2.29330E+01-1.50000E+00
 -1      4667-1.56164E+01 2.29330E+01 1.50000E+00
 -1      4668-1.00625E+01 3.84725E+01-9.95314E-01
 -1      4669-1.00645E+01 3.84416E+01 1.00162E+00
 -1      4670-1.60542E+01 2.23378E+01-2.25000E+00
 -1      4671-1.50812E+01 2.37044E+01-2.25000E+00
 -1      4672-1.60542E+01 2.23378E+01-7.50000E-01
 -1      4673-1.01166E+01 3.77658E+01-1.99766E+00
 -1      4674-1.00156E+01 3.94403E+01-1.99766E+00
 -1      4675-1.00156E+01 3.94403E+01-4.97657E-01
 -1      4676-1.50812E+01 2.37044E+01 2.25000E+00
 -1      4677-1.60542E+01 2.23378E+01 2.25000E+00
 -1      4678-1.60542E+01 2.23378E+01 7.50000E-01
 -1      4679-1.00161E+01 3.94248E+01 2.00081E+00
 -1      4680-1.01180E+01 3.77503E+01 2.00081E+00
 -1      4681-1.00161E+01 3.94248E+01 5.00811E-01
 -1      4682-1.05275E+01 3.48111E+01-1.49829E+00
 -1      4683-1.02602E+01 3.64672E+01-1.49829E+00
 -1      4684-1.01752E+01 3.71710E+01-4.95943E-01
 -1      4685-1.13734E+01 3.14364E+01-1.50000E+00
 -1      4686-1.09166E+01 3.30506E+01-1.50000E+00
 -1      4687-1.06710E+01 3.41023E+01 1.71429E-03
 -1      4688-1.25740E+01 2.82508E+01-1.50000E+00
 -1      4689-1.19379E+01 2.98030E+01-1.50000E+00
 -1      4690-1.16147E+01 3.07011E+01 0.00000E+00
 -1      4691-1.40766E+01 2.53099E+01-1.50000E+00
 -1      4692-1.32733E+01 2.67827E+01-1.50000E+00
 -1      4693-1.28748E+01 2.75939E+01 0.00000E+00
 -1      4694-1.47850E+01 2.41545E+01-1.50000E+00
 -1      4695-1.42801E+01 2.49656E+01 3.24185E-14
 -1      4696-1.53062E+01 2.33737E+01-7.50000E-01
 -1      4697-1.02602E+01 3.64672E+01 1.50171E+00
 -1      4698-1.05275E+01 3.48111E+01 1.50171E+00
 -1      4699-1.01769E+01 3.71556E+01 5.02526E-01
 -1      4700-1.09166E+01 3.30506E+01 1.50000E+00
 -1      4701-1.13734E+01 3.14364E+01 1.50000E+00
 -1      4702-1.19379E+01 2.98030E+01 1.50000E+00
 -1      4703-1.25740E+01 2.82508E+01 1.50000E+00
 -1      4704-1.32733E+01 2.67827E+01 1.50000E+00
 -1      4705-1.40766E+01 2.53099E+01 1.50000E+00
 -1      4706-1.47850E+01 2.41545E+01 1.50000E+00
 -1      4707-1.53062E+01 2.33737E+01 7.50000E-01
 -1      4708-1.57334E+01 2.27708E+01 1.27010E-13
 -1      4709-1.00635E+01 3.84571E+01 3.15429E-03
 -1      4710-1.00000E+01 1.69542E+02 0.00000E+00
 -1      4711-1.00000E+01 2.13165E+02-1.56790E-02
 -1      4712-1.00000E+01 2.05302E+02 0.00000E+00
 -1      4713-1.00000E+01 1.97356E+02 8.88178E-16
 -1      4714-1.00000E+01 1.61596E+02 8.88178E-16
 -1      4715-1.00000E+01 1.29809E+02-4.44089E-16
 -1      4716-1.00000E+01 8.61023E+01-1.33227E-15
 -1      4717-1.00000E+01 7.02090E+01-1.77636E-15
 -1      4718-1.00000E+01 6.22623E+01-3.55271E-15
 -1      4719-1.00000E+01 5.03423E+01 0.00000E+00
 -1      4720-1.00000E+01 7.81557E+01-4.44089E-16
 -1      4721-1.00000E+01 1.85436E+02 0.00000E+00
 -1      4722-1.00000E+01 1.81462E+02 0.00000E+00
 -1      4723-1.00000E+01 1.49676E+02 0.00000E+00
 -1      4724-1.00000E+01 1.45702E+02 0.00000E+00
 -1      4725-1.00000E+01 1.13916E+02-4.44089E-16
 -1      4726-1.00000E+01 1.05969E+02 0.00000E+00
 -1      4727-1.00000E+01 2.09276E+02 0.00000E+00
 -1      4728-1.00000E+01 2.01329E+02 0.00000E+00
 -1      4729-1.00000E+01 1.89409E+02 0.00000E+00
 -1      4730-1.00000E+01 1.93382E+02-4.44089E-16
 -1      4731-1.00000E+01 1.77489E+02 0.00000E+00
 -1      4732-1.00000E+01 1.73516E+02 0.00000E+00
 -1      4733-1.00000E+01 1.65569E+02 0.00000E+00
 -1      4734-1.00000E+01 1.53649E+02 0.00000E+00
 -1      4735-1.00000E+01 1.57622E+02 0.00000E+00
 -1      4736-1.00000E+01 1.41729E+02-4.44089E-16
 -1      4737-1.00000E+01 1.37756E+02 0.00000E+00
 -1      4738-1.00000E+01 1.33782E+02 0.00000E+00
 -1      4739-1.00000E+01 1.09942E+02 0.00000E+00
 -1      4740-1.00000E+01 9.00757E+01 0.00000E+00
 -1      4741-1.00000E+01 8.21290E+01-9.76996E-15
 -1      4742-1.00000E+01 7.41823E+01-4.44089E-16
 -1      4743-1.00000E+01 6.62357E+01-3.55271E-15
 -1      4744-1.00000E+01 5.43157E+01-1.77636E-15
 -1      4745-1.00000E+01 5.82890E+01-1.33227E-15
 -1      4746-1.00000E+01 4.64535E+01-1.56790E-02
 -1      4747-1.00000E+01 9.40490E+01 0.00000E+00
 -1      4748-1.00000E+01 1.21862E+02-4.44089E-16
 -1      4749-1.00000E+01 1.01996E+02 0.00000E+00
 -1      4750-1.00000E+01 9.80223E+01 0.00000E+00
 -1      4751-1.00000E+01 1.25836E+02 0.00000E+00
 -1      4752-1.00000E+01 1.17889E+02 0.00000E+00
 -1      4753-1.00000E+01 2.16229E+02-1.84385E-01
 -1      4754-1.00000E+01 4.33890E+01-1.84385E-01
 -1      4755-1.00000E+01 2.15732E+02-1.59219E+00
 -1      4756-1.00000E+01 2.17719E+02-1.59219E+00
 -1      4757-1.00000E+01 2.17719E+02-9.21926E-02
 -1      4758-1.00000E+01 4.18990E+01-1.59219E+00
 -1      4759-1.00000E+01 4.38857E+01-1.59219E+00
 -1      4760-1.00000E+01 4.18990E+01-9.21926E-02
 -1      4761-1.00000E+01 2.17719E+02 1.40781E+00
 -1      4762-1.00000E+01 2.15732E+02 1.40781E+00
 -1      4763-1.00000E+01 4.38857E+01 1.40781E+00
 -1      4764-1.00000E+01 4.18990E+01 1.40781E+00
 -1      4765-1.00000E+01 2.12213E+02-1.50784E+00
 -1      4766-1.00000E+01 2.14200E+02-1.50784E+00
 -1      4767-1.00000E+01 2.14697E+02-1.00032E-01
 -1      4768-1.00000E+01 2.08282E+02-1.50000E+00
 -1      4769-1.00000E+01 2.10269E+02-1.50000E+00
 -1      4770-1.00000E+01 2.11220E+02-7.83951E-03
 -1      4771-1.00000E+01 2.04309E+02-1.50000E+00
 -1      4772-1.00000E+01 2.06296E+02-1.50000E+00
 -1      4773-1.00000E+01 2.07289E+02 0.00000E+00
 -1      4774-1.00000E+01 2.00336E+02-1.50000E+00
 -1      4775-1.00000E+01 2.02322E+02-1.50000E+00
 -1      4776-1.00000E+01 2.03316E+02 0.00000E+00
 -1      4777-1.00000E+01 1.96362E+02-1.50000E+00
 -1      4778-1.00000E+01 1.98349E+02-1.50000E+00
 -1      4779-1.00000E+01 1.99342E+02 4.44089E-16
 -1      4780-1.00000E+01 1.92389E+02-1.50000E+00
 -1      4781-1.00000E+01 1.94376E+02-1.50000E+00
 -1      4782-1.00000E+01 1.95369E+02 0.00000E+00
 -1      4783-1.00000E+01 1.88416E+02-1.50000E+00
 -1      4784-1.00000E+01 1.90402E+02-1.50000E+00
 -1      4785-1.00000E+01 1.91396E+02 0.00000E+00
 -1      4786-1.00000E+01 1.84442E+02-1.50000E+00
 -1      4787-1.00000E+01 1.86429E+02-1.50000E+00
 -1      4788-1.00000E+01 1.87422E+02 0.00000E+00
 -1      4789-1.00000E+01 1.80469E+02-1.50000E+00
 -1      4790-1.00000E+01 1.82456E+02-1.50000E+00
 -1      4791-1.00000E+01 1.83449E+02 0.00000E+00
 -1      4792-1.00000E+01 1.76496E+02-1.50000E+00
 -1      4793-1.00000E+01 1.78482E+02-1.50000E+00
 -1      4794-1.00000E+01 1.79476E+02 0.00000E+00
 -1      4795-1.00000E+01 1.72522E+02-1.50000E+00
 -1      4796-1.00000E+01 1.74509E+02-1.50000E+00
 -1      4797-1.00000E+01 1.75502E+02 0.00000E+00
 -1      4798-1.00000E+01 1.68549E+02-1.50000E+00
 -1      4799-1.00000E+01 1.70536E+02-1.50000E+00
 -1      4800-1.00000E+01 1.71529E+02 0.00000E+00
 -1      4801-1.00000E+01 1.64576E+02-1.50000E+00
 -1      4802-1.00000E+01 1.66562E+02-1.50000E+00
 -1      4803-1.00000E+01 1.67556E+02 0.00000E+00
 -1      4804-1.00000E+01 1.60602E+02-1.50000E+00
 -1      4805-1.00000E+01 1.62589E+02-1.50000E+00
 -1      4806-1.00000E+01 1.63582E+02 4.44089E-16
 -1      4807-1.00000E+01 1.56629E+02-1.50000E+00
 -1      4808-1.00000E+01 1.58616E+02-1.50000E+00
 -1      4809-1.00000E+01 1.59609E+02 4.44089E-16
 -1      4810-1.00000E+01 1.52656E+02-1.50000E+00
 -1      4811-1.00000E+01 1.54642E+02-1.50000E+00
 -1      4812-1.00000E+01 1.55636E+02 0.00000E+00
 -1      4813-1.00000E+01 1.48682E+02-1.50000E+00
 -1      4814-1.00000E+01 1.50669E+02-1.50000E+00
 -1      4815-1.00000E+01 1.51662E+02 0.00000E+00
 -1      4816-1.00000E+01 1.44709E+02-1.50000E+00
 -1      4817-1.00000E+01 1.46696E+02-1.50000E+00
 -1      4818-1.00000E+01 1.47689E+02 0.00000E+00
 -1      4819-1.00000E+01 1.40736E+02-1.50000E+00
 -1      4820-1.00000E+01 1.42722E+02-1.50000E+00
 -1      4821-1.00000E+01 1.43716E+02 0.00000E+00
 -1      4822-1.00000E+01 1.36762E+02-1.50000E+00
 -1      4823-1.00000E+01 1.38749E+02-1.50000E+00
 -1      4824-1.00000E+01 1.39742E+02 0.00000E+00
 -1      4825-1.00000E+01 1.32789E+02-1.50000E+00
 -1      4826-1.00000E+01 1.34776E+02-1.50000E+00
 -1      4827-1.00000E+01 1.35769E+02 0.00000E+00
 -1      4828-1.00000E+01 1.28816E+02-1.50000E+00
 -1      4829-1.00000E+01 1.30802E+02-1.50000E+00
 -1      4830-1.00000E+01 1.31796E+02 0.00000E+00
 -1      4831-1.00000E+01 1.24842E+02-1.50000E+00
 -1      4832-1.00000E+01 1.26829E+02-1.50000E+00
 -1      4833-1.00000E+01 1.27822E+02 0.00000E+00
 -1      4834-1.00000E+01 1.20869E+02-1.50000E+00
 -1      4835-1.00000E+01 1.22856E+02-1.50000E+00
 -1      4836-1.00000E+01 1.23849E+02 0.00000E+00
 -1      4837-1.00000E+01 1.16896E+02-1.50000E+00
 -1      4838-1.00000E+01 1.18882E+02-1.50000E+00
 -1      4839-1.00000E+01 1.19876E+02 0.00000E+00
 -1      4840-1.00000E+01 1.12922E+02-1.50000E+00
 -1      4841-1.00000E+01 1.14909E+02-1.50000E+00
 -1      4842-1.00000E+01 1.15902E+02 0.00000E+00
 -1      4843-1.00000E+01 1.08949E+02-1.50000E+00
 -1      4844-1.00000E+01 1.10936E+02-1.50000E+00
 -1      4845-1.00000E+01 1.11929E+02 0.00000E+00
 -1      4846-1.00000E+01 1.04976E+02-1.50000E+00
 -1      4847-1.00000E+01 1.06962E+02-1.50000E+00
 -1      4848-1.00000E+01 1.07956E+02 0.00000E+00
 -1      4849-1.00000E+01 1.01002E+02-1.50000E+00
 -1      4850-1.00000E+01 1.02989E+02-1.50000E+00
 -1      4851-1.00000E+01 1.03982E+02 0.00000E+00
 -1      4852-1.00000E+01 9.70290E+01-1.50000E+00
 -1      4853-1.00000E+01 9.90157E+01-1.50000E+00
 -1      4854-1.00000E+01 1.00009E+02 0.00000E+00
 -1      4855-1.00000E+01 9.30557E+01-1.50000E+00
 -1      4856-1.00000E+01 9.50423E+01-1.50000E+00
 -1      4857-1.00000E+01 9.60357E+01 0.00000E+00
 -1      4858-1.00000E+01 8.90823E+01-1.50000E+00
 -1      4859-1.00000E+01 9.10690E+01-1.50000E+00
 -1      4860-1.00000E+01 9.20623E+01 0.00000E+00
 -1      4861-1.00000E+01 8.51090E+01-1.50000E+00
 -1      4862-1.00000E+01 8.70957E+01-1.50000E+00
 -1      4863-1.00000E+01 8.80890E+01-8.88178E-16
 -1      4864-1.00000E+01 8.11357E+01-1.50000E+00
 -1      4865-1.00000E+01 8.31223E+01-1.50000E+00
 -1      4866-1.00000E+01 8.41157E+01-5.32907E-15
 -1      4867-1.00000E+01 7.71623E+01-1.50000E+00
 -1      4868-1.00000E+01 7.91490E+01-1.50000E+00
 -1      4869-1.00000E+01 8.01423E+01-5.32907E-15
 -1      4870-1.00000E+01 7.31890E+01-1.50000E+00
 -1      4871-1.00000E+01 7.51757E+01-1.50000E+00
 -1      4872-1.00000E+01 7.61690E+01-4.44089E-16
 -1      4873-1.00000E+01 6.92157E+01-1.50000E+00
 -1      4874-1.00000E+01 7.12023E+01-1.50000E+00
 -1      4875-1.00000E+01 7.21957E+01-8.88178E-16
 -1      4876-1.00000E+01 6.52423E+01-1.50000E+00
 -1      4877-1.00000E+01 6.72290E+01-1.50000E+00
 -1      4878-1.00000E+01 6.82223E+01-2.66454E-15
 -1      4879-1.00000E+01 6.12690E+01-1.50000E+00
 -1      4880-1.00000E+01 6.32557E+01-1.50000E+00
 -1      4881-1.00000E+01 6.42490E+01-3.55271E-15
 -1      4882-1.00000E+01 5.72957E+01-1.50000E+00
 -1      4883-1.00000E+01 5.92823E+01-1.50000E+00
 -1      4884-1.00000E+01 6.02757E+01-2.66454E-15
 -1      4885-1.00000E+01 5.33223E+01-1.50000E+00
 -1      4886-1.00000E+01 5.53090E+01-1.50000E+00
 -1      4887-1.00000E+01 5.63023E+01-1.77636E-15
 -1      4888-1.00000E+01 4.93490E+01-1.50000E+00
 -1      4889-1.00000E+01 5.13357E+01-1.50000E+00
 -1      4890-1.00000E+01 5.23290E+01-8.88178E-16
 -1      4891-1.00000E+01 4.54179E+01-1.50784E+00
 -1      4892-1.00000E+01 4.74046E+01-1.50784E+00
 -1      4893-1.00000E+01 4.83979E+01-7.83951E-03
 -1      4894-1.00000E+01 4.49212E+01-1.00032E-01
 -1      4895-1.00000E+01 2.14200E+02 1.49216E+00
 -1      4896-1.00000E+01 2.12213E+02 1.49216E+00
 -1      4897-1.00000E+01 2.10269E+02 1.50000E+00
 -1      4898-1.00000E+01 2.08282E+02 1.50000E+00
 -1      4899-1.00000E+01 2.06296E+02 1.50000E+00
 -1      4900-1.00000E+01 2.04309E+02 1.50000E+00
 -1      4901-1.00000E+01 2.02322E+02 1.50000E+00
 -1      4902-1.00000E+01 2.00336E+02 1.50000E+00
 -1      4903-1.00000E+01 1.98349E+02 1.50000E+00
 -1      4904-1.00000E+01 1.96362E+02 1.50000E+00
 -1      4905-1.00000E+01 1.94376E+02 1.50000E+00
 -1      4906-1.00000E+01 1.92389E+02 1.50000E+00
 -1      4907-1.00000E+01 1.90402E+02 1.50000E+00
 -1      4908-1.00000E+01 1.88416E+02 1.50000E+00
 -1      4909-1.00000E+01 1.86429E+02 1.50000E+00
 -1      4910-1.00000E+01 1.84442E+02 1.50000E+00
 -1      4911-1.00000E+01 1.82456E+02 1.50000E+00
 -1      4912-1.00000E+01 1.80469E+02 1.50000E+00
 -1      4913-1.00000E+01 1.78482E+02 1.50000E+00
 -1      4914-1.00000E+01 1.76496E+02 1.50000E+00
 -1      4915-1.00000E+01 1.74509E+02 1.50000E+00
 -1      4916-1.00000E+01 1.72522E+02 1.50000E+00
 -1      4917-1.00000E+01 1.70536E+02 1.50000E+00
 -1      4918-1.00000E+01 1.68549E+02 1.50000E+00
 -1      4919-1.00000E+01 1.66562E+02 1.50000E+00
 -1      4920-1.00000E+01 1.64576E+02 1.50000E+00
 -1      4921-1.00000E+01 1.62589E+02 1.50000E+00
 -1      4922-1.00000E+01 1.60602E+02 1.50000E+00
 -1      4923-1.00000E+01 1.58616E+02 1.50000E+00
 -1      4924-1.00000E+01 1.56629E+02 1.50000E+00
 -1      4925-1.00000E+01 1.54642E+02 1.50000E+00
 -1      4926-1.00000E+01 1.52656E+02 1.50000E+00
 -1      4927-1.00000E+01 1.50669E+02 1.50000E+00
 -1      4928-1.00000E+01 1.48682E+02 1.50000E+00
 -1      4929-1.00000E+01 1.46696E+02 1.50000E+00
 -1      4930-1.00000E+01 1.44709E+02 1.50000E+00
 -1      4931-1.00000E+01 1.42722E+02 1.50000E+00
 -1      4932-1.00000E+01 1.40736E+02 1.50000E+00
 -1      4933-1.00000E+01 1.38749E+02 1.50000E+00
 -1      4934-1.00000E+01 1.36762E+02 1.50000E+00
 -1      4935-1.00000E+01 1.34776E+02 1.50000E+00
 -1      4936-1.00000E+01 1.32789E+02 1.50000E+00
 -1      4937-1.00000E+01 1.30802E+02 1.50000E+00
 -1      4938-1.00000E+01 1.28816E+02 1.50000E+00
 -1      4939-1.00000E+01 1.26829E+02 1.50000E+00
 -1      4940-1.00000E+01 1.24842E+02 1.50000E+00
 -1      4941-1.00000E+01 1.22856E+02 1.50000E+00
 -1      4942-1.00000E+01 1.20869E+02 1.50000E+00
 -1      4943-1.00000E+01 1.18882E+02 1.50000E+00
 -1      4944-1.00000E+01 1.16896E+02 1.50000E+00
 -1      4945-1.00000E+01 1.14909E+02 1.50000E+00
 -1      4946-1.00000E+01 1.12922E+02 1.50000E+00
 -1      4947-1.00000E+01 1.10936E+02 1.50000E+00
 -1      4948-1.00000E+01 1.08949E+02 1.50000E+00
 -1      4949-1.00000E+01 1.06962E+02 1.50000E+00
 -1      4950-1.00000E+01 1.04976E+02 1.50000E+00
 -1      4951-1.00000E+01 1.02989E+02 1.50000E+00
 -1      4952-1.00000E+01 1.01002E+02 1.50000E+00
 -1      4953-1.00000E+01 9.90157E+01 1.50000E+00
 -1      4954-1.00000E+01 9.70290E+01 1.50000E+00
 -1      4955-1.00000E+01 9.50423E+01 1.50000E+00
 -1      4956-1.00000E+01 9.30557E+01 1.50000E+00
 -1      4957-1.00000E+01 9.10690E+01 1.50000E+00
 -1      4958-1.00000E+01 8.90823E+01 1.50000E+00
 -1      4959-1.00000E+01 8.70957E+01 1.50000E+00
 -1      4960-1.00000E+01 8.51090E+01 1.50000E+00
 -1      4961-1.00000E+01 8.31223E+01 1.50000E+00
 -1      4962-1.00000E+01 8.11357E+01 1.50000E+00
 -1      4963-1.00000E+01 7.91490E+01 1.50000E+00
 -1      4964-1.00000E+01 7.71623E+01 1.50000E+00
 -1      4965-1.00000E+01 7.51757E+01 1.50000E+00
 -1      4966-1.00000E+01 7.31890E+01 1.50000E+00
 -1      4967-1.00000E+01 7.12023E+01 1.50000E+00
 -1      4968-1.00000E+01 6.92157E+01 1.50000E+00
 -1      4969-1.00000E+01 6.72290E+01 1.50000E+00
 -1      4970-1.00000E+01 6.52423E+01 1.50000E+00
 -1      4971-1.00000E+01 6.32557E+01 1.50000E+00
 -1      4972-1.00000E+01 6.12690E+01 1.50000E+00
 -1      4973-1.00000E+01 5.92823E+01 1.50000E+00
 -1      4974-1.00000E+01 5.72957E+01 1.50000E+00
 -1      4975-1.00000E+01 5.53090E+01 1.50000E+00
 -1      4976-1.00000E+01 5.33223E+01 1.50000E+00
 -1      4977-1.00000E+01 5.13357E+01 1.50000E+00
 -1      4978-1.00000E+01 4.93490E+01 1.50000E+00
 -1      4979-1.00000E+01 4.74046E+01 1.49216E+00
 -1      4980-1.00000E+01 4.54179E+01 1.49216E+00
 -1      4981-1.11976E+01 2.26027E+02 1.99840E-14
 -1      4982-1.04475E+01 2.23416E+02 3.10862E-15
 -1      4983-1.16423E+01 2.27146E+02-1.50000E+00
 -1      4984-1.16423E+01 2.27146E+02 1.50000E+00
 -1      4985-1.00866E+01 2.21068E+02-9.96000E-01
 -1      4986-1.00862E+01 2.21063E+02 1.02000E+00
 -1      4987-1.13143E+01 2.26341E+02-2.25000E+00
 -1      4988-1.19468E+01 2.27816E+02-2.25000E+00
 -1      4989-1.19468E+01 2.27816E+02-7.50000E-01
 -1      4990-1.00217E+01 2.20139E+02-1.99800E+00
 -1      4991-1.01605E+01 2.21738E+02-1.99800E+00
 -1      4992-1.00217E+01 2.20139E+02-4.98000E-01
 -1      4993-1.19468E+01 2.27816E+02 2.25000E+00
 -1      4994-1.13143E+01 2.26341E+02 2.25000E+00
 -1      4995-1.19468E+01 2.27816E+02 7.50000E-01
 -1      4996-1.01603E+01 2.21736E+02 2.01000E+00
 -1      4997-1.00216E+01 2.20137E+02 2.01000E+00
 -1      4998-1.00216E+01 2.20137E+02 5.10000E-01
 -1      4999-1.03458E+01 2.22912E+02-1.50000E+00
 -1      5000-1.07061E+01 2.24477E+02-1.50000E+00
 -1      5001-1.07783E+01 2.24734E+02 1.15463E-14
 -1      5002-1.11080E+01 2.25775E+02-1.50000E+00
 -1      5003-1.14115E+01 2.26590E+02-7.50000E-01
 -1      5004-1.02320E+01 2.22247E+02-4.98000E-01
 -1      5005-1.07061E+01 2.24477E+02 1.50000E+00
 -1      5006-1.03458E+01 2.22912E+02 1.50000E+00
 -1      5007-1.11080E+01 2.25775E+02 1.50000E+00
 -1      5008-1.14115E+01 2.26590E+02 7.50000E-01
 -1      5009-1.02317E+01 2.22245E+02 5.10000E-01
 -1      5010-1.16959E+01 2.27269E+02 8.88178E-15
 -1      5011-1.00864E+01 2.21065E+02 1.20000E-02
 -1      5012-1.70002E+01-1.18520E+01-1.77636E-15
 -1      5013-1.39468E+01-1.86405E+00 8.88178E-16
 -1      5014-1.55570E+01-7.13123E+00 7.86320E-01
 -1      5015-1.46311E+01-4.10244E+00-1.62874E+00
 -1      5016-1.62184E+01-9.29475E+00-1.81500E+00
 -1      5017-1.64319E+01-9.99295E+00 1.88336E+00
 -1      5018-1.46926E+01-4.30377E+00 1.89416E+00
 -1      5019-1.75515E+01-1.36553E+01 2.25834E+00
 -1      5020-1.75159E+01-1.35389E+01-2.24694E+00
 -1      5021-1.33946E+01-5.76734E-02 2.26665E+00
 -1      5022-1.34148E+01-1.23938E-01-2.21590E+00
 -1      5023-1.31323E+01 8.00308E-01 5.17885E-03
 -1      5024-1.78130E+01-1.45106E+01 1.16267E-03
 -1      5025-1.79565E+01-1.49800E+01-1.95681E+00
 -1      5026-1.79565E+01-1.49800E+01-3.62347E+00
 -1      5027-1.73718E+01-1.30674E+01-3.62347E+00
 -1      5028-1.79742E+01-1.50381E+01 1.96250E+00
 -1      5029-1.79742E+01-1.50381E+01 3.62917E+00
 -1      5030-1.73895E+01-1.31255E+01 3.62917E+00
 -1      5031-1.29824E+01 1.29053E+00-1.94128E+00
 -1      5032-1.29824E+01 1.29053E+00-3.60795E+00
 -1      5033-1.35671E+01-6.22069E-01-3.60795E+00
 -1      5034-1.29723E+01 1.32366E+00 1.96666E+00
 -1      5035-1.29723E+01 1.32366E+00 3.63333E+00
 -1      5036-1.35570E+01-5.88937E-01 3.63333E+00
 -1      5037-1.81050E+01-1.54658E+01 8.33915E-01
 -1      5038-1.81050E+01-1.54658E+01-8.32752E-01
 -1      5039-1.76644E+01-1.40248E+01-1.12289E+00
 -1      5040-1.76822E+01-1.40829E+01 1.12975E+00
 -1      5041-1.28411E+01 1.75265E+00 8.35923E-01
 -1      5042-1.28411E+01 1.75265E+00-8.30744E-01
 -1      5043-1.32736E+01 3.38185E-01-1.10536E+00
 -1      5044-1.32634E+01 3.71317E-01 1.13592E+00
 -1      5045-1.47907E+01-4.62458E+00 3.44708E+00
 -1      5046-1.42060E+01-2.71198E+00 3.44708E+00
 -1      5047-1.40436E+01-2.18072E+00 2.08041E+00
 -1      5048-1.53754E+01-6.53718E+00 3.44708E+00
 -1      5049-1.68297E+01-1.12944E+01 3.44168E+00
 -1      5050-1.62450E+01-9.38178E+00 3.44168E+00
 -1      5051-1.59945E+01-8.56209E+00 1.33484E+00
 -1      5052-1.58076E+01-7.95091E+00 2.89316E+00
 -1      5053-1.51248E+01-5.71750E+00 1.34024E+00
 -1      5054-1.69917E+01-1.18241E+01 2.07085E+00
 -1      5055-1.47599E+01-4.52392E+00-3.31437E+00
 -1      5056-1.41752E+01-2.61132E+00-3.31437E+00
 -1      5057-1.40230E+01-2.11319E+00-1.92232E+00
 -1      5058-1.61383E+01-9.03268E+00-3.40750E+00
 -1      5059-1.55536E+01-7.12008E+00-3.40750E+00
 -1      5060-1.54248E+01-6.69860E+00-1.72187E+00
 -1      5061-1.67230E+01-1.09453E+01-3.40750E+00
 -1      5062-1.68672E+01-1.14168E+01-2.03097E+00
 -1      5063-1.63252E+01-9.64385E+00 3.41826E-02
 -1      5064-1.67160E+01-1.09225E+01 9.41682E-01
 -1      5065-1.66093E+01-1.05734E+01-9.07499E-01
 -1      5066-1.72581E+01-1.26954E+01-1.12347E+00
 -1      5067-1.72758E+01-1.27536E+01 1.12917E+00
 -1      5068-1.74066E+01-1.31813E+01 5.81336E-04
 -1      5069-1.46619E+01-4.20310E+00 1.32712E-01
 -1      5070-1.42889E+01-2.98324E+00-8.14369E-01
 -1      5071-1.43197E+01-3.08391E+00 9.47082E-01
 -1      5072-1.36808E+01-9.93992E-01-1.10795E+00
 -1      5073-1.36707E+01-9.60860E-01 1.13333E+00
 -1      5074-1.35395E+01-5.31870E-01 2.58942E-03
 -1      5075-1.50941E+01-5.61683E+00-4.21209E-01
 -1      5076-1.58877E+01-8.21299E+00-5.14339E-01
 -1      5077 6.97574E+00 1.35642E+01-5.00000E+00
 -1      5078-4.63865E+00 1.55076E+01-5.00000E+00
 -1      5079 1.60171E+01 5.98489E+00-5.00000E+00
 -1      5080-1.34251E+01 1.28429E+01-5.00000E+00
 -1      5081 1.92018E+01-1.39604E+00-5.00000E+00
 -1      5082-1.92774E+01 7.09007E+00-5.00000E+00
 -1      5083 1.75848E+01-7.90067E+00-5.00000E+00
 -1      5084 7.81795E-01 1.87047E+01-5.00000E+00
 -1      5085 1.48652E+01 1.21189E+01-5.00000E+00
 -1      5086 3.25364E-01 1.22626E+01-5.00000E+00
 -1      5087-2.01389E+01 1.01927E+00-5.00000E+00
 -1      5088 1.05229E+01 7.55195E+00-5.00000E+00
 -1      5089-1.03021E+01 1.83679E+01-5.00000E+00
 -1      5090-8.04025E+00 1.10921E+01-5.00000E+00
 -1      5091 1.45637E+01-1.41928E+01-5.00000E+00
 -1      5092 2.12514E+01 3.70091E+00-5.00000E+00
 -1      5093 5.06363E+00 9.23074E+00-5.00000E+00
 -1      5094 1.46039E+01 1.00990E+00-5.00000E+00
 -1      5095 1.13837E+01 1.73391E+01-5.00000E+00
 -1      5096-1.33416E+01 8.49886E+00-5.00000E+00
 -1      5097-1.86722E+01 1.23849E+01-5.00000E+00
 -1      5098-2.03105E+01-4.82728E+00-5.00000E+00
 -1      5099-3.08423E+00 2.07301E+01-5.00000E+00
 -1      5100 1.88502E+01 1.05033E+01-5.00000E+00
 -1      5101 6.72498E+00 1.96439E+01-5.00000E+00
 -1      5102 2.14771E+01-5.99650E+00-5.00000E+00
 -1      5103-2.67354E+00 1.03065E+01-5.00000E+00
 -1      5104-1.66564E+01 1.74831E+01-5.00000E+00
 -1      5105-2.24143E+01 4.36421E+00-5.00000E+00
 -1      5106 1.56598E+01-4.74621E+00-5.00000E+00
 -1      5107-1.69035E+01 3.54601E+00-5.00000E+00
 -1      5108 1.09656E+01 4.13914E+00-5.00000E+00
 -1      5109-7.43896E+00 2.14405E+01-5.00000E+00
 -1      5110 2.30266E+01-1.98962E+00-5.00000E+00
 -1      5111 1.25977E+01-1.74553E+01-5.00000E+00
 -1      5112 2.19990E+01 8.12145E+00-5.00000E+00
 -1      5113 1.85905E+01-1.29007E+01-5.00000E+00
 -1      5114 2.57732E+00 1.49676E+01-5.00000E+00
 -1      5115-2.27414E+01 9.51816E+00-5.00000E+00
 -1      5116-8.60009E-01 1.56901E+01-5.00000E+00
 -1      5117 1.09218E+01 1.10470E+01-5.00000E+00
 -1      5118 1.36567E+01 8.90671E+00-5.00000E+00
 -1      5119 1.36147E+01-1.07732E+01-5.00000E+00
 -1      5120-8.96021E+00 1.45835E+01-5.00000E+00
 -1      5121 1.48889E+01 1.64948E+01-5.00000E+00
 -1      5122-1.99089E+01-8.80610E+00-5.00000E+00
 -1      5123-1.76513E+01-2.20690E+00-5.00000E+00
 -1      5124-3.20711E-01 2.26012E+01-5.00000E+00
 -1      5125 1.84458E+01 1.39706E+01-5.00000E+00
 -1      5126-2.24891E+01-2.82418E+00-5.00000E+00
 -1      5127-9.40113E+00 7.93910E+00-5.00000E+00
 -1      5128 2.12099E+01-9.79161E+00-5.00000E+00
 -1      5129-1.37720E+01 1.95860E+01-5.00000E+00
 -1      5130 1.77775E+01 2.39472E+00-5.00000E+00
 -1      5131-1.66687E+01 1.02220E+01-5.00000E+00
 -1      5132 1.34771E+00 8.84329E+00-5.00000E+00
 -1      5133 3.88618E+00 2.18123E+01-5.00000E+00
 -1      5134 7.24687E+00 6.14541E+00-5.00000E+00
 -1      5135 1.33877E+01-1.80977E+00-5.00000E+00
 -1      5136-2.39149E+01 1.20770E+00-5.00000E+00
 -1      5137 2.38722E+01 1.99303E+00-5.00000E+00
 -1      5138 9.72697E+00 2.02918E+01-5.00000E+00
 -1      5139-6.47557E+00 1.80716E+01-5.00000E+00
 -1      5140-1.29475E+01 1.60845E+01-5.00000E+00
 -1      5141-1.11559E+01 2.14468E+01-5.00000E+00
 -1      5142 1.35592E+01-7.11254E+00-5.00000E+00
 -1      5143 3.25795E+00 1.17737E+01-5.00000E+00
 -1      5144-1.92788E+01 1.55299E+01-5.00000E+00
 -1      5145-2.18612E+01 1.22788E+01-5.00000E+00
 -1      5146 2.39195E+01 5.20922E+00-5.00000E+00
 -1      5147-5.49689E+00 1.24061E+01-5.00000E+00
 -1      5148 8.33463E+00 1.69641E+01-5.00000E+00
 -1      5149 1.14700E+01-1.42910E+01-5.00000E+00
 -1      5150-5.63587E+00 8.94667E+00-5.00000E+00
 -1      5151 1.65847E+01-1.64888E+01-5.00000E+00
 -1      5152-1.07516E+01 1.09944E+01-5.00000E+00
 -1      5153 9.85901E+00-1.97505E+01-5.00000E+00
 -1      5154 8.14620E+00 9.50786E+00-5.00000E+00
 -1      5155-2.63562E+00 1.32333E+01-5.00000E+00
 -1      5156 1.88709E+01 6.34129E+00-5.00000E+00
 -1      5157 1.31777E+01 6.05937E+00-5.00000E+00
 -1      5158-1.43095E+01 5.21473E+00-5.00000E+00
 -1      5159 2.41451E+01-4.79718E+00-5.00000E+00
 -1      5160 1.88266E+01-4.39271E+00-5.00000E+00
 -1      5161 2.10259E+01 9.40600E-01-5.00000E+00
 -1      5162 1.14020E+01 1.44463E+01-5.00000E+00
 -1      5163-4.26600E+00 2.35092E+01-5.00000E+00
 -1      5164-1.96835E+01 4.00489E+00-5.00000E+00
 -1      5165 1.18393E+01 1.14578E+00-5.00000E+00
 -1      5166 4.64787E+00 1.76370E+01-5.00000E+00
 -1      5167-2.85533E+00 1.77408E+01-5.00000E+00
 -1      5168-1.76635E+01-6.12430E+00-5.00000E+00
 -1      5169 1.32149E+01 1.94695E+01-5.00000E+00
 -1      5170 3.89103E+00 6.60408E+00-5.00000E+00
 -1      5171-2.23045E+01-6.75208E+00-5.00000E+00
 -1      5172 1.64520E+01 8.77102E+00-5.00000E+00
 -1      5173-1.61694E+01 5.63510E-01-5.00000E+00
 -1      5174 1.63083E+01-1.20875E+00-5.00000E+00
 -1      5175-1.62748E+01 1.40912E+01-5.00000E+00
 -1      5176-1.97758E+01 1.01200E+01-5.00000E+00
 -1      5177 6.82262E+00 2.23388E+01-5.00000E+00
 -1      5178 2.11995E+01 1.20811E+01-5.00000E+00
 -1      5179-2.38699E+01 6.90069E+00-5.00000E+00
 -1      5180 1.44848E+01 3.61994E+00-5.00000E+00
 -1      5181 2.34056E+01-8.02372E+00-5.00000E+00
 -1      5182-1.18556E+01 5.72940E+00-5.00000E+00
 -1      5183-1.61360E+01 7.02139E+00-5.00000E+00
 -1      5184-1.91941E+01-1.30953E+01-5.00000E+00
 -1      5185 8.03055E+00-2.14184E+01-5.00000E+00
 -1      5186-1.49444E+01-2.78345E-01-5.00000E+00
 -1      5187-1.43597E+01 1.63425E+00-5.00000E+00
 -1      5188-1.22028E+01 4.21720E+00-5.00000E+00
 -1      5189-1.06469E+01 5.20393E+00-5.00000E+00
 -1      5190-1.47268E+01 3.12550E+00-5.00000E+00
 -1      5191-1.56065E+01 4.38037E+00-5.00000E+00
 -1      5192-1.34298E+01 3.95987E+00-5.00000E+00
 -1      5193-1.65365E+01 2.05476E+00-5.00000E+00
 -1      5194-1.30826E+01 5.47207E+00-5.00000E+00
 -1      5195 1.24586E+01-5.85827E+00-5.00000E+00
 -1      5196 1.18738E+01-7.77087E+00-5.00000E+00
 -1      5197 1.16347E+01-1.51883E+00-5.00000E+00
 -1      5198 1.23728E+01-3.20689E+00-5.00000E+00
 -1      5199 1.45237E+01-3.27799E+00-5.00000E+00
 -1      5200 1.35089E+01-4.67511E+00-5.00000E+00
 -1      5201 1.46095E+01-5.92937E+00-5.00000E+00
 -1      5202-2.17005E+01-9.60457E+00-5.00000E+00
 -1      5203-2.05347E+01-1.12004E+01-5.00000E+00
 -1      5204-1.85683E+01-1.07009E+01-5.00000E+00
 -1      5205-2.38131E+01-6.82595E+00-5.00000E+00
 -1      5206-2.28983E+01-8.57756E+00-5.00000E+00
 -1      5207-2.11067E+01-7.77909E+00-5.00000E+00
 -1      5208-2.45350E+01-2.98904E+00-5.00000E+00
 -1      5209-2.39054E+01-4.86200E+00-5.00000E+00
 -1      5210-2.23968E+01-4.78813E+00-5.00000E+00
 -1      5211-2.52479E+01-9.73105E-01-5.00000E+00
 -1      5212-2.55621E+01 9.77468E-01-5.00000E+00
 -1      5213-2.32020E+01-8.08239E-01-5.00000E+00
 -1      5214-2.55405E+01 2.95290E+00-5.00000E+00
 -1      5215-2.51519E+01 7.74062E+00-5.00000E+00
 -1      5216-2.55180E+01 5.79940E+00-5.00000E+00
 -1      5217-2.47902E+01 4.53116E+00-5.00000E+00
 -1      5218-2.31646E+01 2.78595E+00-5.00000E+00
 -1      5219-2.31421E+01 5.63245E+00-5.00000E+00
 -1      5220-2.38843E+01 1.08954E+01-5.00000E+00
 -1      5221-2.45876E+01 9.04936E+00-5.00000E+00
 -1      5222-2.33057E+01 8.20943E+00-5.00000E+00
 -1      5223-2.24281E+01 1.39699E+01-5.00000E+00
 -1      5224-2.34442E+01 1.22757E+01-5.00000E+00
 -1      5225-2.23013E+01 1.08985E+01-5.00000E+00
 -1      5226-1.98455E+01 1.70906E+01-5.00000E+00
 -1      5227-2.11369E+01 1.55955E+01-5.00000E+00
 -1      5228-2.05700E+01 1.39044E+01-5.00000E+00
 -1      5229-1.70134E+01 1.93286E+01-5.00000E+00
 -1      5230-1.85343E+01 1.80672E+01-5.00000E+00
 -1      5231-1.79676E+01 1.65065E+01-5.00000E+00
 -1      5232-1.38695E+01 2.13846E+01-5.00000E+00
 -1      5233-1.55712E+01 2.03800E+01-5.00000E+00
 -1      5234-1.52142E+01 1.85346E+01-5.00000E+00
 -1      5235-1.07277E+01 2.30517E+01-5.00000E+00
 -1      5236-1.25615E+01 2.23150E+01-5.00000E+00
 -1      5237-1.24640E+01 2.05164E+01-5.00000E+00
 -1      5238-6.94835E+00 2.35136E+01-5.00000E+00
 -1      5239-8.86925E+00 2.30485E+01-5.00000E+00
 -1      5240-9.29745E+00 2.14436E+01-5.00000E+00
 -1      5241-3.39496E+00 2.47426E+01-5.00000E+00
 -1      5242-5.36188E+00 2.45480E+01-5.00000E+00
 -1      5243-5.85248E+00 2.24748E+01-5.00000E+00
 -1      5244 5.53022E-01 2.42179E+01-5.00000E+00
 -1      5245-1.42231E+00 2.42886E+01-5.00000E+00
 -1      5246-2.29336E+00 2.30552E+01-5.00000E+00
 -1      5247 4.60563E+00 2.34951E+01-5.00000E+00
 -1      5248 2.65647E+00 2.38235E+01-5.00000E+00
 -1      5249 1.78273E+00 2.22067E+01-5.00000E+00
 -1      5250 7.96423E+00 2.31806E+01-5.00000E+00
 -1      5251 6.07385E+00 2.37584E+01-5.00000E+00
 -1      5252 5.35440E+00 2.20756E+01-5.00000E+00
 -1      5253 1.12159E+01 2.13392E+01-5.00000E+00
 -1      5254 9.41640E+00 2.21571E+01-5.00000E+00
 -1      5255 8.27480E+00 2.13153E+01-5.00000E+00
 -1      5256 1.46370E+01 1.98820E+01-5.00000E+00
 -1      5257 1.29598E+01 2.09281E+01-5.00000E+00
 -1      5258 1.14709E+01 1.98806E+01-5.00000E+00
 -1      5259 1.69957E+01 1.71334E+01-5.00000E+00
 -1      5260 1.54740E+01 1.83947E+01-5.00000E+00
 -1      5261 1.40519E+01 1.79822E+01-5.00000E+00
 -1      5262 2.01070E+01 1.44119E+01-5.00000E+00
 -1      5263 1.87742E+01 1.58713E+01-5.00000E+00
 -1      5264 1.66673E+01 1.52327E+01-5.00000E+00
 -1      5265 2.25921E+01 1.18309E+01-5.00000E+00
 -1      5266 2.14839E+01 1.34672E+01-5.00000E+00
 -1      5267 1.98226E+01 1.30258E+01-5.00000E+00
 -1      5268 2.38404E+01 8.06646E+00-5.00000E+00
 -1      5269 2.29919E+01 9.85109E+00-5.00000E+00
 -1      5270 2.15992E+01 1.01013E+01-5.00000E+00
 -1      5271 2.53563E+01 4.71423E+00-5.00000E+00
 -1      5272 2.48007E+01 6.61035E+00-5.00000E+00
 -1      5273 2.29593E+01 6.66533E+00-5.00000E+00
 -1      5274 2.55670E+01 1.14438E+00-5.00000E+00
 -1      5275 2.53327E+01 3.10614E+00-5.00000E+00
 -1      5276 2.38959E+01 3.60113E+00-5.00000E+00
 -1      5277 2.50392E+01-2.81966E+00-5.00000E+00
 -1      5278 2.51442E+01-8.46943E-01-5.00000E+00
 -1      5279 2.34494E+01 1.70818E-03-5.00000E+00
 -1      5280 2.51493E+01-6.14718E+00-5.00000E+00
 -1      5281 2.55984E+01-4.22344E+00-5.00000E+00
 -1      5282 2.35858E+01-3.39340E+00-5.00000E+00
 -1      5283 2.39977E+01-9.57463E+00-5.00000E+00
 -1      5284 2.47796E+01-7.76045E+00-5.00000E+00
 -1      5285 2.37753E+01-6.41045E+00-5.00000E+00
 -1      5286 2.18131E+01-1.21083E+01-5.00000E+00
 -1      5287 2.28999E+01-1.04586E+01-5.00000E+00
 -1      5288 2.23077E+01-8.90767E+00-5.00000E+00
 -1      5289 1.91521E+01-1.51042E+01-5.00000E+00
 -1      5290 2.05034E+01-1.36629E+01-5.00000E+00
 -1      5291 1.99002E+01-1.13461E+01-5.00000E+00
 -1      5292 1.65799E+01-1.80988E+01-5.00000E+00
 -1      5293 1.81493E+01-1.68983E+01-5.00000E+00
 -1      5294 1.75876E+01-1.46948E+01-5.00000E+00
 -1      5295 1.28485E+01-1.95228E+01-5.00000E+00
 -1      5296 1.45863E+01-1.85821E+01-5.00000E+00
 -1      5297 1.45912E+01-1.69721E+01-5.00000E+00
 -1      5298 9.62025E+00-2.13413E+01-5.00000E+00
 -1      5299 1.14791E+01-2.06703E+01-5.00000E+00
 -1      5300 1.12283E+01-1.86029E+01-5.00000E+00
 -1      5301 8.26931E+00-1.98276E+01-5.00000E+00
 -1      5302-1.62701E+01-3.57615E+00-5.00000E+00
 -1      5303-1.56854E+01-1.66355E+00-5.00000E+00
 -1      5304-1.69104E+01-8.21696E-01-5.00000E+00
 -1      5305-1.68608E+01-7.44745E+00-5.00000E+00
 -1      5306-1.62761E+01-5.53485E+00-5.00000E+00
 -1      5307-1.76574E+01-4.16560E+00-5.00000E+00
 -1      5308-1.79836E+01-8.78835E+00-5.00000E+00
 -1      5309-1.87862E+01-7.46520E+00-5.00000E+00
 -1      5310 8.85411E+00-1.79150E+01-5.00000E+00
 -1      5311 1.02444E+01-1.32727E+01-5.00000E+00
 -1      5312 9.65960E+00-1.51853E+01-5.00000E+00
 -1      5313 1.20338E+01-1.58731E+01-5.00000E+00
 -1      5314 1.02234E+01-1.67675E+01-5.00000E+00
 -1      5315 1.19016E+01-9.60122E+00-5.00000E+00
 -1      5316 1.13168E+01-1.15138E+01-5.00000E+00
 -1      5317 1.25424E+01-1.25321E+01-5.00000E+00
 -1      5318 1.35870E+01-8.94288E+00-5.00000E+00
 -1      5319 9.73326E+00 1.41629E+00-5.00000E+00
 -1      5320 1.08605E+01-4.10515E-02-5.00000E+00
 -1      5321 1.26135E+01-3.31996E-01-5.00000E+00
 -1      5322 5.98853E+00 5.05467E+00-5.00000E+00
 -1      5323 7.43703E+00 3.91611E+00-5.00000E+00
 -1      5324 9.10623E+00 5.14228E+00-5.00000E+00
 -1      5325 9.29639E+00 2.91297E+00-5.00000E+00
 -1      5326 1.14025E+01 2.64246E+00-5.00000E+00
 -1      5327 2.62819E+00 6.03498E+00-5.00000E+00
 -1      5328 4.31061E+00 5.28401E+00-5.00000E+00
 -1      5329 5.56895E+00 6.37474E+00-5.00000E+00
 -1      5330-4.58227E-01 7.47279E+00-5.00000E+00
 -1      5331 1.35653E+00 7.15459E+00-5.00000E+00
 -1      5332 2.61937E+00 7.72369E+00-5.00000E+00
 -1      5333-5.78755E+00 7.39031E+00-5.00000E+00
 -1      5334-3.95002E+00 7.52448E+00-5.00000E+00
 -1      5335-2.46886E+00 8.20440E+00-5.00000E+00
 -1      5336-6.62915E-01 9.57490E+00-5.00000E+00
 -1      5337-4.15471E+00 9.62659E+00-5.00000E+00
 -1      5338-9.41964E+00 6.30878E+00-5.00000E+00
 -1      5339-7.67018E+00 6.88653E+00-5.00000E+00
 -1      5340-7.51850E+00 8.44289E+00-5.00000E+00
 -1      5341-1.06284E+01 6.83425E+00-5.00000E+00
 -1      5342 4.16079E+00 1.05022E+01-5.00000E+00
 -1      5343 5.11685E+00 1.26690E+01-5.00000E+00
 -1      5344 6.01969E+00 1.13975E+01-5.00000E+00
 -1      5345 6.60492E+00 9.36930E+00-5.00000E+00
 -1      5346 7.56097E+00 1.15361E+01-5.00000E+00
 -1      5347 2.91764E+00 1.33706E+01-5.00000E+00
 -1      5348 4.77653E+00 1.42659E+01-5.00000E+00
 -1      5349 3.61260E+00 1.63023E+01-5.00000E+00
 -1      5350 5.81181E+00 1.56006E+01-5.00000E+00
 -1      5351 8.94878E+00 1.23056E+01-5.00000E+00
 -1      5352 9.53401E+00 1.02774E+01-5.00000E+00
 -1      5353 9.18887E+00 1.40053E+01-5.00000E+00
 -1      5354 1.11619E+01 1.27467E+01-5.00000E+00
 -1      5355 7.65519E+00 1.52642E+01-5.00000E+00
 -1      5356 9.86831E+00 1.57052E+01-5.00000E+00
 -1      5357 6.49125E+00 1.73005E+01-5.00000E+00
 -1      5358-2.74933E+00 1.55988E+01-5.00000E+00
 -1      5359-1.74782E+00 1.44617E+01-5.00000E+00
 -1      5360-3.63713E+00 1.43705E+01-5.00000E+00
 -1      5361-3.74699E+00 1.66242E+01-5.00000E+00
 -1      5362-1.85767E+00 1.67154E+01-5.00000E+00
 -1      5363-6.79943E+00 1.50455E+01-5.00000E+00
 -1      5364-7.71789E+00 1.63275E+01-5.00000E+00
 -1      5365-5.55711E+00 1.67896E+01-5.00000E+00
 -1      5366-5.06777E+00 1.39568E+01-5.00000E+00
 -1      5367-7.22855E+00 1.34948E+01-5.00000E+00
 -1      5368-4.66545E+00 1.79062E+01-5.00000E+00
 -1      5369-4.06626E+00 1.28197E+01-5.00000E+00
 -1      5370 1.45974E+01 6.02213E+00-5.00000E+00
 -1      5371 1.34172E+01 7.48304E+00-5.00000E+00
 -1      5372 1.48369E+01 7.44580E+00-5.00000E+00
 -1      5373 1.50543E+01 8.83887E+00-5.00000E+00
 -1      5374 1.62345E+01 7.37795E+00-5.00000E+00
 -1      5375 1.74440E+01 6.16309E+00-5.00000E+00
 -1      5376 1.83242E+01 4.36800E+00-5.00000E+00
 -1      5377 1.68973E+01 4.18981E+00-5.00000E+00
 -1      5378 1.61312E+01 3.00733E+00-5.00000E+00
 -1      5379 1.52509E+01 4.80241E+00-5.00000E+00
 -1      5380 1.76615E+01 7.55615E+00-5.00000E+00
 -1      5381 1.38313E+01 4.83965E+00-5.00000E+00
 -1      5382-1.33834E+01 1.06709E+01-5.00000E+00
 -1      5383-1.50052E+01 9.36044E+00-5.00000E+00
 -1      5384-1.50469E+01 1.15325E+01-5.00000E+00
 -1      5385-1.20884E+01 1.19187E+01-5.00000E+00
 -1      5386-1.20466E+01 9.74664E+00-5.00000E+00
 -1      5387-1.31863E+01 1.44637E+01-5.00000E+00
 -1      5388-1.09539E+01 1.53340E+01-5.00000E+00
 -1      5389-1.11927E+01 1.37132E+01-5.00000E+00
 -1      5390-9.85592E+00 1.27889E+01-5.00000E+00
 -1      5391-1.64718E+01 1.21566E+01-5.00000E+00
 -1      5392-1.48500E+01 1.34671E+01-5.00000E+00
 -1      5393-1.46112E+01 1.50878E+01-5.00000E+00
 -1      5394 1.90142E+01-2.89438E+00-5.00000E+00
 -1      5395 2.11142E+01-1.69283E+00-5.00000E+00
 -1      5396 2.09266E+01-3.19117E+00-5.00000E+00
 -1      5397 2.01139E+01-2.27722E-01-5.00000E+00
 -1      5398 2.20263E+01-5.24509E-01-5.00000E+00
 -1      5399 1.84897E+01 4.99338E-01-5.00000E+00
 -1      5400 1.94017E+01 1.66766E+00-5.00000E+00
 -1      5401 1.77551E+01-1.30240E+00-5.00000E+00
 -1      5402 1.70429E+01 5.92983E-01-5.00000E+00
 -1      5403 1.75675E+01-2.80073E+00-5.00000E+00
 -1      5404-1.94805E+01 5.54748E+00-5.00000E+00
 -1      5405-2.10489E+01 4.18455E+00-5.00000E+00
 -1      5406-2.08458E+01 5.72714E+00-5.00000E+00
 -1      5407-2.15737E+01 6.99538E+00-5.00000E+00
 -1      5408-1.80905E+01 5.31804E+00-5.00000E+00
 -1      5409-1.82935E+01 3.77545E+00-5.00000E+00
 -1      5410-1.65198E+01 5.28370E+00-5.00000E+00
 -1      5411-1.77067E+01 7.05573E+00-5.00000E+00
 -1      5412-2.10094E+01 8.30412E+00-5.00000E+00
 -1      5413-2.12586E+01 9.81906E+00-5.00000E+00
 -1      5414-1.95266E+01 8.60502E+00-5.00000E+00
 -1      5415-1.82223E+01 1.01710E+01-5.00000E+00
 -1      5416-1.79731E+01 8.65605E+00-5.00000E+00
 -1      5417-1.64024E+01 8.62171E+00-5.00000E+00
 -1      5418 1.95310E+01-6.94859E+00-5.00000E+00
 -1      5419 2.13435E+01-7.89406E+00-5.00000E+00
 -1      5420 1.93974E+01-8.84614E+00-5.00000E+00
 -1      5421 1.82057E+01-6.14669E+00-5.00000E+00
 -1      5422 2.01518E+01-5.19461E+00-5.00000E+00
 -1      5423 1.55720E+01-7.50661E+00-5.00000E+00
 -1      5424 1.66223E+01-6.32344E+00-5.00000E+00
 -1      5425 1.72432E+01-4.56946E+00-5.00000E+00
 -1      5426 1.80877E+01-1.04007E+01-5.00000E+00
 -1      5427 1.61026E+01-1.18370E+01-5.00000E+00
 -1      5428 1.55998E+01-9.33695E+00-5.00000E+00
 -1      5429-1.15122E+00 1.97174E+01-5.00000E+00
 -1      5430-1.70247E+00 2.16656E+01-5.00000E+00
 -1      5431 2.30542E-01 2.06529E+01-5.00000E+00
 -1      5432-1.03677E+00 1.82227E+01-5.00000E+00
 -1      5433-2.96978E+00 1.92355E+01-5.00000E+00
 -1      5434 1.67956E+00 1.68361E+01-5.00000E+00
 -1      5435 8.58656E-01 1.53288E+01-5.00000E+00
 -1      5436-3.91067E-02 1.71974E+01-5.00000E+00
 -1      5437 2.71483E+00 1.81708E+01-5.00000E+00
 -1      5438 2.33399E+00 2.02585E+01-5.00000E+00
 -1      5439 4.26702E+00 1.97246E+01-5.00000E+00
 -1      5440 1.66555E+01 1.30448E+01-5.00000E+00
 -1      5441 1.86480E+01 1.22369E+01-5.00000E+00
 -1      5442 1.68577E+01 1.13111E+01-5.00000E+00
 -1      5443 1.76511E+01 9.63714E+00-5.00000E+00
 -1      5444 1.56586E+01 1.04450E+01-5.00000E+00
 -1      5445 1.42610E+01 1.05128E+01-5.00000E+00
 -1      5446 1.22892E+01 9.97684E+00-5.00000E+00
 -1      5447 1.28935E+01 1.15830E+01-5.00000E+00
 -1      5448 1.31336E+01 1.32826E+01-5.00000E+00
 -1      5449 1.48771E+01 1.43069E+01-5.00000E+00
 -1      5450 1.31454E+01 1.54706E+01-5.00000E+00
 -1      5451 8.36539E-01 1.05530E+01-5.00000E+00
 -1      5452-1.17409E+00 1.12846E+01-5.00000E+00
 -1      5453-2.65458E+00 1.17699E+01-5.00000E+00
 -1      5454-1.15513E+00 1.27480E+01-5.00000E+00
 -1      5455-2.67322E-01 1.39764E+01-5.00000E+00
 -1      5456 1.45134E+00 1.36151E+01-5.00000E+00
 -1      5457 1.79166E+00 1.20182E+01-5.00000E+00
 -1      5458 2.30283E+00 1.03085E+01-5.00000E+00
 -1      5459-2.20269E+01 1.11348E+00-5.00000E+00
 -1      5460-2.12766E+01 2.69174E+00-5.00000E+00
 -1      5461-1.99112E+01 2.51208E+00-5.00000E+00
 -1      5462-1.85212E+01 2.28264E+00-5.00000E+00
 -1      5463-1.81541E+01 7.91389E-01-5.00000E+00
 -1      5464-1.88951E+01-5.93816E-01-5.00000E+00
 -1      5465-2.00702E+01-2.51554E+00-5.00000E+00
 -1      5466-2.13140E+01-9.02453E-01-5.00000E+00
 -1      5467 1.07443E+01 5.84555E+00-5.00000E+00
 -1      5468 8.88490E+00 6.84868E+00-5.00000E+00
 -1      5469 1.18503E+01 6.80566E+00-5.00000E+00
 -1      5470 1.20717E+01 5.09926E+00-5.00000E+00
 -1      5471 1.07224E+01 9.29946E+00-5.00000E+00
 -1      5472 1.20898E+01 8.22933E+00-5.00000E+00
 -1      5473 9.33456E+00 8.52991E+00-5.00000E+00
 -1      5474 7.69653E+00 7.82664E+00-5.00000E+00
 -1      5475-8.87051E+00 1.99042E+01-5.00000E+00
 -1      5476-6.95726E+00 1.97560E+01-5.00000E+00
 -1      5477-8.38881E+00 1.82198E+01-5.00000E+00
 -1      5478-1.07290E+01 1.99074E+01-5.00000E+00
 -1      5479-9.63114E+00 1.64757E+01-5.00000E+00
 -1      5480-1.16248E+01 1.72262E+01-5.00000E+00
 -1      5481-1.33598E+01 1.78352E+01-5.00000E+00
 -1      5482-1.20370E+01 1.89770E+01-5.00000E+00
 -1      5483-8.50023E+00 1.28378E+01-5.00000E+00
 -1      5484-6.76857E+00 1.17491E+01-5.00000E+00
 -1      5485-9.39594E+00 1.10433E+01-5.00000E+00
 -1      5486-6.83806E+00 1.00194E+01-5.00000E+00
 -1      5487-8.72069E+00 9.51560E+00-5.00000E+00
 -1      5488-1.00764E+01 9.46676E+00-5.00000E+00
 -1      5489-5.56638E+00 1.06764E+01-5.00000E+00
 -1      5490 1.35807E+01-1.58240E+01-5.00000E+00
 -1      5491 1.30169E+01-1.42419E+01-5.00000E+00
 -1      5492 1.55742E+01-1.53408E+01-5.00000E+00
 -1      5493 1.40892E+01-1.24830E+01-5.00000E+00
 -1      5494 1.65771E+01-1.35467E+01-5.00000E+00
 -1      5495 2.16252E+01 5.91118E+00-5.00000E+00
 -1      5496 2.25855E+01 4.45507E+00-5.00000E+00
 -1      5497 2.00612E+01 5.02110E+00-5.00000E+00
 -1      5498 2.04350E+01 7.23137E+00-5.00000E+00
 -1      5499 1.95145E+01 3.04781E+00-5.00000E+00
 -1      5500 2.11387E+01 2.32075E+00-5.00000E+00
 -1      5501 2.25618E+01 2.84697E+00-5.00000E+00
 -1      5502 2.24491E+01 1.46682E+00-5.00000E+00
 -1      5503 3.20567E+00 9.03701E+00-5.00000E+00
 -1      5504 4.47733E+00 7.91741E+00-5.00000E+00
 -1      5505 6.15525E+00 7.68807E+00-5.00000E+00
 -1      5506 1.61907E+01 1.70231E+00-5.00000E+00
 -1      5507 1.54561E+01-9.94263E-02-5.00000E+00
 -1      5508 1.45444E+01 2.31492E+00-5.00000E+00
 -1      5509 1.39958E+01-3.99935E-01-5.00000E+00
 -1      5510 1.32216E+01 1.07784E+00-5.00000E+00
 -1      5511 1.48480E+01-1.50926E+00-5.00000E+00
 -1      5512 1.31621E+01 2.38286E+00-5.00000E+00
 -1      5513 1.31363E+01 1.69170E+01-5.00000E+00
 -1      5514 1.13928E+01 1.58927E+01-5.00000E+00
 -1      5515 1.22993E+01 1.84043E+01-5.00000E+00
 -1      5516 9.85915E+00 1.71516E+01-5.00000E+00
 -1      5517 9.03080E+00 1.86279E+01-5.00000E+00
 -1      5518 1.05553E+01 1.88154E+01-5.00000E+00
 -1      5519-1.13714E+01 8.21898E+00-5.00000E+00
 -1      5520-1.25986E+01 7.11413E+00-5.00000E+00
 -1      5521-1.47388E+01 7.76013E+00-5.00000E+00
 -1      5522-1.38256E+01 6.85680E+00-5.00000E+00
 -1      5523-1.52228E+01 6.11806E+00-5.00000E+00
 -1      5524-1.74735E+01 1.32381E+01-5.00000E+00
 -1      5525-1.76705E+01 1.13035E+01-5.00000E+00
 -1      5526-1.92240E+01 1.12524E+01-5.00000E+00
 -1      5527-2.02667E+01 1.23319E+01-5.00000E+00
 -1      5528-1.89755E+01 1.39574E+01-5.00000E+00
 -1      5529-1.77768E+01 1.48106E+01-5.00000E+00
 -1      5530-2.08185E+01 1.11994E+01-5.00000E+00
 -1      5531-1.89870E+01-5.47579E+00-5.00000E+00
 -1      5532-2.01097E+01-6.81669E+00-5.00000E+00
 -1      5533-2.13075E+01-5.78968E+00-5.00000E+00
 -1      5534-2.13998E+01-3.82573E+00-5.00000E+00
 -1      5535-1.89809E+01-3.51709E+00-5.00000E+00
 -1      5536-4.77990E+00 1.94009E+01-5.00000E+00
 -1      5537-5.26159E+00 2.10853E+01-5.00000E+00
 -1      5538-3.67512E+00 2.21197E+01-5.00000E+00
 -1      5539 2.04246E+01 9.31235E+00-5.00000E+00
 -1      5540 1.88606E+01 8.42227E+00-5.00000E+00
 -1      5541 2.00249E+01 1.12922E+01-5.00000E+00
 -1      5542 5.68642E+00 1.86404E+01-5.00000E+00
 -1      5543 5.30558E+00 2.07281E+01-5.00000E+00
 -1      5544 6.77380E+00 2.09913E+01-5.00000E+00
 -1      5545 8.22597E+00 1.99678E+01-5.00000E+00
 -1      5546 7.52980E+00 1.83040E+01-5.00000E+00
 -1      5547 2.22519E+01-3.99306E+00-5.00000E+00
 -1      5548 2.28111E+01-5.39684E+00-5.00000E+00
 -1      5549 2.24413E+01-7.01011E+00-5.00000E+00
 -1      5550-4.08522E+00 1.13563E+01-5.00000E+00
 -1      5551-1.48020E+01 1.67838E+01-5.00000E+00
 -1      5552-1.64656E+01 1.57872E+01-5.00000E+00
 -1      5553 1.59841E+01-2.97748E+00-5.00000E+00
 -1      5554 1.27252E+01 3.87954E+00-5.00000E+00
 -1      5555 6.97574E+00 1.35642E+01 5.00000E+00
 -1      5556-4.63865E+00 1.55076E+01 5.00000E+00
 -1      5557 1.60171E+01 5.98489E+00 5.00000E+00
 -1      5558-1.34251E+01 1.28429E+01 5.00000E+00
 -1      5559 1.92018E+01-1.39604E+00 5.00000E+00
 -1      5560-1.92774E+01 7.09007E+00 5.00000E+00
 -1      5561 1.75848E+01-7.90067E+00 5.00000E+00
 -1      5562 7.81795E-01 1.87047E+01 5.00000E+00
 -1      5563 1.48652E+01 1.21189E+01 5.00000E+00
 -1      5564 3.25364E-01 1.22626E+01 5.00000E+00
 -1      5565-2.01389E+01 1.01927E+00 5.00000E+00
 -1      5566 1.05229E+01 7.55195E+00 5.00000E+00
 -1      5567-1.03021E+01 1.83679E+01 5.00000E+00
 -1      5568-8.04025E+00 1.10921E+01 5.00000E+00
 -1      5569 1.45637E+01-1.41928E+01 5.00000E+00
 -1      5570 2.12514E+01 3.70091E+00 5.00000E+00
 -1      5571 5.06363E+00 9.23074E+00 5.00000E+00
 -1      5572 1.46039E+01 1.00990E+00 5.00000E+00
 -1      5573 1.13837E+01 1.73391E+01 5.00000E+00
 -1      5574-1.33416E+01 8.49886E+00 5.00000E+00
 -1      5575-1.86722E+01 1.23849E+01 5.00000E+00
 -1      5576-2.03105E+01-4.82728E+00 5.00000E+00
 -1      5577-3.08423E+00 2.07301E+01 5.00000E+00
 -1      5578 1.88502E+01 1.05033E+01 5.00000E+00
 -1      5579 6.72498E+00 1.96439E+01 5.00000E+00
 -1      5580 2.14771E+01-5.99650E+00 5.00000E+00
 -1      5581-2.67354E+00 1.03065E+01 5.00000E+00
 -1      5582-1.66564E+01 1.74831E+01 5.00000E+00
 -1      5583-2.24143E+01 4.36421E+00 5.00000E+00
 -1      5584 1.56598E+01-4.74621E+00 5.00000E+00
 -1      5585-1.69035E+01 3.54601E+00 5.00000E+00
 -1      5586 1.09656E+01 4.13914E+00 5.00000E+00
 -1      5587-7.43896E+00 2.14405E+01 5.00000E+00
 -1      5588 2.30266E+01-1.98962E+00 5.00000E+00
 -1      5589 1.25977E+01-1.74553E+01 5.00000E+00
 -1      5590 2.19990E+01 8.12145E+00 5.00000E+00
 -1      5591 1.85905E+01-1.29007E+01 5.00000E+00
 -1      5592 2.57732E+00 1.49676E+01 5.00000E+00
 -1      5593-2.27414E+01 9.51816E+00 5.00000E+00
 -1      5594-8.60009E-01 1.56901E+01 5.00000E+00
 -1      5595 1.09218E+01 1.10470E+01 5.00000E+00
 -1      5596 1.36567E+01 8.90671E+00 5.00000E+00
 -1      5597 1.36147E+01-1.07732E+01 5.00000E+00
 -1      5598-8.96021E+00 1.45835E+01 5.00000E+00
 -1      5599 1.48889E+01 1.64948E+01 5.00000E+00
 -1      5600-1.99089E+01-8.80610E+00 5.00000E+00
 -1      5601-1.76513E+01-2.20690E+00 5.00000E+00
 -1      5602-3.20711E-01 2.26012E+01 5.00000E+00
 -1      5603 1.84458E+01 1.39706E+01 5.00000E+00
 -1      5604-2.24891E+01-2.82418E+00 5.00000E+00
 -1      5605-9.40113E+00 7.93910E+00 5.00000E+00
 -1      5606 2.12099E+01-9.79161E+00 5.00000E+00
 -1      5607-1.37720E+01 1.95860E+01 5.00000E+00
 -1      5608 1.77775E+01 2.39472E+00 5.00000E+00
 -1      5609-1.66687E+01 1.02220E+01 5.00000E+00
 -1      5610 1.34771E+00 8.84329E+00 5.00000E+00
 -1      5611 3.88618E+00 2.18123E+01 5.00000E+00
 -1      5612 7.24687E+00 6.14541E+00 5.00000E+00
 -1      5613 1.33877E+01-1.80977E+00 5.00000E+00
 -1      5614-2.39149E+01 1.20770E+00 5.00000E+00
 -1      5615 2.38722E+01 1.99303E+00 5.00000E+00
 -1      5616 9.72697E+00 2.02918E+01 5.00000E+00
 -1      5617-6.47557E+00 1.80716E+01 5.00000E+00
 -1      5618-1.29475E+01 1.60845E+01 5.00000E+00
 -1      5619-1.11559E+01 2.14468E+01 5.00000E+00
 -1      5620 1.35592E+01-7.11254E+00 5.00000E+00
 -1      5621 3.25795E+00 1.17737E+01 5.00000E+00
 -1      5622-1.92788E+01 1.55299E+01 5.00000E+00
 -1      5623-2.18612E+01 1.22788E+01 5.00000E+00
 -1      5624 2.39195E+01 5.20922E+00 5.00000E+00
 -1      5625-5.49689E+00 1.24061E+01 5.00000E+00
 -1      5626 8.33463E+00 1.69641E+01 5.00000E+00
 -1      5627 1.14700E+01-1.42910E+01 5.00000E+00
 -1      5628-5.63587E+00 8.94667E+00 5.00000E+00
 -1      5629 1.65847E+01-1.64888E+01 5.00000E+00
 -1      5630-1.07516E+01 1.09944E+01 5.00000E+00
 -1      5631 9.85901E+00-1.97505E+01 5.00000E+00
 -1      5632 8.14620E+00 9.50786E+00 5.00000E+00
 -1      5633-2.63562E+00 1.32333E+01 5.00000E+00
 -1      5634 1.88709E+01 6.34129E+00 5.00000E+00
 -1      5635 1.31777E+01 6.05937E+00 5.00000E+00
 -1      5636-1.43095E+01 5.21473E+00 5.00000E+00
 -1      5637 2.41451E+01-4.79718E+00 5.00000E+00
 -1      5638 1.88266E+01-4.39271E+00 5.00000E+00
 -1      5639 2.10259E+01 9.40600E-01 5.00000E+00
 -1      5640 1.14020E+01 1.44463E+01 5.00000E+00
 -1      5641-4.26600E+00 2.35092E+01 5.00000E+00
 -1      5642-1.96835E+01 4.00489E+00 5.00000E+00
 -1      5643 1.18393E+01 1.14578E+00 5.00000E+00
 -1      5644 4.64787E+00 1.76370E+01 5.00000E+00
 -1      5645-2.85533E+00 1.77408E+01 5.00000E+00
 -1      5646-1.76635E+01-6.12430E+00 5.00000E+00
 -1      5647 1.32149E+01 1.94695E+01 5.00000E+00
 -1      5648 3.89103E+00 6.60408E+00 5.00000E+00
 -1      5649-2.23045E+01-6.75208E+00 5.00000E+00
 -1      5650 1.64520E+01 8.77102E+00 5.00000E+00
 -1      5651-1.61694E+01 5.63510E-01 5.00000E+00
 -1      5652 1.63083E+01-1.20875E+00 5.00000E+00
 -1      5653-1.62748E+01 1.40912E+01 5.00000E+00
 -1      5654-1.97758E+01 1.01200E+01 5.00000E+00
 -1      5655 6.82262E+00 2.23388E+01 5.00000E+00
 -1      5656 2.11995E+01 1.20811E+01 5.00000E+00
 -1      5657-2.38699E+01 6.90069E+00 5.00000E+00
 -1      5658 1.44848E+01 3.61994E+00 5.00000E+00
 -1      5659 2.34056E+01-8.02372E+00 5.00000E+00
 -1      5660-1.18556E+01 5.72940E+00 5.00000E+00
 -1      5661-1.61360E+01 7.02139E+00 5.00000E+00
 -1      5662-1.91941E+01-1.30953E+01 5.00000E+00
 -1      5663 8.03055E+00-2.14184E+01 5.00000E+00
 -1      5664-1.49444E+01-2.78345E-01 5.00000E+00
 -1      5665-1.43597E+01 1.63425E+00 5.00000E+00
 -1      5666-1.06469E+01 5.20393E+00 5.00000E+00
 -1      5667-1.22028E+01 4.21720E+00 5.00000E+00
 -1      5668-1.56065E+01 4.38037E+00 5.00000E+00
 -1      5669-1.47268E+01 3.12550E+00 5.00000E+00
 -1      5670-1.34298E+01 3.95987E+00 5.00000E+00
 -1      5671-1.65365E+01 2.05476E+00 5.00000E+00
 -1      5672-1.30826E+01 5.47207E+00 5.00000E+00
 -1      5673 1.18738E+01-7.77087E+00 5.00000E+00
 -1      5674 1.24586E+01-5.85827E+00 5.00000E+00
 -1      5675 1.16347E+01-1.51883E+00 5.00000E+00
 -1      5676 1.23728E+01-3.20689E+00 5.00000E+00
 -1      5677 1.45237E+01-3.27799E+00 5.00000E+00
 -1      5678 1.35089E+01-4.67511E+00 5.00000E+00
 -1      5679 1.46095E+01-5.92937E+00 5.00000E+00
 -1      5680-2.17005E+01-9.60457E+00 5.00000E+00
 -1      5681-2.05347E+01-1.12004E+01 5.00000E+00
 -1      5682-1.85683E+01-1.07009E+01 5.00000E+00
 -1      5683-2.38131E+01-6.82595E+00 5.00000E+00
 -1      5684-2.28983E+01-8.57756E+00 5.00000E+00
 -1      5685-2.11067E+01-7.77909E+00 5.00000E+00
 -1      5686-2.45350E+01-2.98904E+00 5.00000E+00
 -1      5687-2.39054E+01-4.86200E+00 5.00000E+00
 -1      5688-2.23968E+01-4.78813E+00 5.00000E+00
 -1      5689-2.52479E+01-9.73105E-01 5.00000E+00
 -1      5690-2.55621E+01 9.77468E-01 5.00000E+00
 -1      5691-2.32020E+01-8.08239E-01 5.00000E+00
 -1      5692-2.55405E+01 2.95290E+00 5.00000E+00
 -1      5693-2.51519E+01 7.74062E+00 5.00000E+00
 -1      5694-2.55180E+01 5.79940E+00 5.00000E+00
 -1      5695-2.31646E+01 2.78595E+00 5.00000E+00
 -1      5696-2.47902E+01 4.53116E+00 5.00000E+00
 -1      5697-2.31421E+01 5.63245E+00 5.00000E+00
 -1      5698-2.38843E+01 1.08954E+01 5.00000E+00
 -1      5699-2.45876E+01 9.04936E+00 5.00000E+00
 -1      5700-2.33057E+01 8.20943E+00 5.00000E+00
 -1      5701-2.24281E+01 1.39699E+01 5.00000E+00
 -1      5702-2.34442E+01 1.22757E+01 5.00000E+00
 -1      5703-2.23013E+01 1.08985E+01 5.00000E+00
 -1      5704-1.98455E+01 1.70906E+01 5.00000E+00
 -1      5705-2.11369E+01 1.55955E+01 5.00000E+00
 -1      5706-2.05700E+01 1.39044E+01 5.00000E+00
 -1      5707-1.70134E+01 1.93286E+01 5.00000E+00
 -1      5708-1.85343E+01 1.80672E+01 5.00000E+00
 -1      5709-1.79676E+01 1.65065E+01 5.00000E+00
 -1      5710-1.38695E+01 2.13846E+01 5.00000E+00
 -1      5711-1.55712E+01 2.03800E+01 5.00000E+00
 -1      5712-1.52142E+01 1.85346E+01 5.00000E+00
 -1      5713-1.07277E+01 2.30517E+01 5.00000E+00
 -1      5714-1.25615E+01 2.23150E+01 5.00000E+00
 -1      5715-1.24640E+01 2.05164E+01 5.00000E+00
 -1      5716-6.94835E+00 2.35136E+01 5.00000E+00
 -1      5717-8.86925E+00 2.30485E+01 5.00000E+00
 -1      5718-9.29745E+00 2.14436E+01 5.00000E+00
 -1      5719-3.39496E+00 2.47426E+01 5.00000E+00
 -1      5720-5.36188E+00 2.45480E+01 5.00000E+00
 -1      5721-5.85248E+00 2.24748E+01 5.00000E+00
 -1      5722 5.53022E-01 2.42179E+01 5.00000E+00
 -1      5723-1.42231E+00 2.42886E+01 5.00000E+00
 -1      5724-2.29336E+00 2.30552E+01 5.00000E+00
 -1      5725 4.60563E+00 2.34951E+01 5.00000E+00
 -1      5726 2.65647E+00 2.38235E+01 5.00000E+00
 -1      5727 1.78273E+00 2.22067E+01 5.00000E+00
 -1      5728 7.96423E+00 2.31806E+01 5.00000E+00
 -1      5729 6.07385E+00 2.37584E+01 5.00000E+00
 -1      5730 5.35440E+00 2.20756E+01 5.00000E+00
 -1      5731 1.12159E+01 2.13392E+01 5.00000E+00
 -1      5732 9.41640E+00 2.21571E+01 5.00000E+00
 -1      5733 8.27480E+00 2.13153E+01 5.00000E+00
 -1      5734 1.46370E+01 1.98820E+01 5.00000E+00
 -1      5735 1.29598E+01 2.09281E+01 5.00000E+00
 -1      5736 1.14709E+01 1.98806E+01 5.00000E+00
 -1      5737 1.69957E+01 1.71334E+01 5.00000E+00
 -1      5738 1.54740E+01 1.83947E+01 5.00000E+00
 -1      5739 1.40519E+01 1.79822E+01 5.00000E+00
 -1      5740 2.01070E+01 1.44119E+01 5.00000E+00
 -1      5741 1.87742E+01 1.58713E+01 5.00000E+00
 -1      5742 1.66673E+01 1.52327E+01 5.00000E+00
 -1      5743 2.25921E+01 1.18309E+01 5.00000E+00
 -1      5744 2.14839E+01 1.34672E+01 5.00000E+00
 -1      5745 1.98226E+01 1.30258E+01 5.00000E+00
 -1      5746 2.38404E+01 8.06646E+00 5.00000E+00
 -1      5747 2.29919E+01 9.85109E+00 5.00000E+00
 -1      5748 2.15992E+01 1.01013E+01 5.00000E+00
 -1      5749 2.53563E+01 4.71423E+00 5.00000E+00
 -1      5750 2.48007E+01 6.61035E+00 5.00000E+00
 -1      5751 2.29593E+01 6.66533E+00 5.00000E+00
 -1      5752 2.55670E+01 1.14438E+00 5.00000E+00
 -1      5753 2.53327E+01 3.10614E+00 5.00000E+00
 -1      5754 2.38959E+01 3.60113E+00 5.00000E+00
 -1      5755 2.50392E+01-2.81966E+00 5.00000E+00
 -1      5756 2.51442E+01-8.46943E-01 5.00000E+00
 -1      5757 2.34494E+01 1.70818E-03 5.00000E+00
 -1      5758 2.51493E+01-6.14718E+00 5.00000E+00
 -1      5759 2.55984E+01-4.22344E+00 5.00000E+00
 -1      5760 2.35858E+01-3.39340E+00 5.00000E+00
 -1      5761 2.39977E+01-9.57463E+00 5.00000E+00
 -1      5762 2.47796E+01-7.76045E+00 5.00000E+00
 -1      5763 2.37753E+01-6.41045E+00 5.00000E+00
 -1      5764 2.18131E+01-1.21083E+01 5.00000E+00
 -1      5765 2.28999E+01-1.04586E+01 5.00000E+00
 -1      5766 2.23077E+01-8.90767E+00 5.00000E+00
 -1      5767 1.91521E+01-1.51042E+01 5.00000E+00
 -1      5768 2.05034E+01-1.36629E+01 5.00000E+00
 -1      5769 1.99002E+01-1.13461E+01 5.00000E+00
 -1      5770 1.65799E+01-1.80988E+01 5.00000E+00
 -1      5771 1.81493E+01-1.68983E+01 5.00000E+00
 -1      5772 1.75876E+01-1.46948E+01 5.00000E+00
 -1      5773 1.28485E+01-1.95228E+01 5.00000E+00
 -1      5774 1.45863E+01-1.85821E+01 5.00000E+00
 -1      5775 1.45912E+01-1.69721E+01 5.00000E+00
 -1      5776 9.62025E+00-2.13413E+01 5.00000E+00
 -1      5777 1.14791E+01-2.06703E+01 5.00000E+00
 -1      5778 1.12283E+01-1.86029E+01 5.00000E+00
 -1      5779 8.26931E+00-1.98276E+01 5.00000E+00
 -1      5780-1.62701E+01-3.57615E+00 5.00000E+00
 -1      5781-1.56854E+01-1.66355E+00 5.00000E+00
 -1      5782-1.69104E+01-8.21696E-01 5.00000E+00
 -1      5783-1.68608E+01-7.44745E+00 5.00000E+00
 -1      5784-1.62761E+01-5.53485E+00 5.00000E+00
 -1      5785-1.76574E+01-4.16560E+00 5.00000E+00
 -1      5786-1.79836E+01-8.78835E+00 5.00000E+00
 -1      5787-1.87862E+01-7.46520E+00 5.00000E+00
 -1      5788 8.85411E+00-1.79150E+01 5.00000E+00
 -1      5789 1.02444E+01-1.32727E+01 5.00000E+00
 -1      5790 9.65960E+00-1.51853E+01 5.00000E+00
 -1      5791 1.20338E+01-1.58731E+01 5.00000E+00
 -1      5792 1.02234E+01-1.67675E+01 5.00000E+00
 -1      5793 1.19016E+01-9.60122E+00 5.00000E+00
 -1      5794 1.13168E+01-1.15138E+01 5.00000E+00
 -1      5795 1.25424E+01-1.25321E+01 5.00000E+00
 -1      5796 1.35870E+01-8.94288E+00 5.00000E+00
 -1      5797 9.73326E+00 1.41629E+00 5.00000E+00
 -1      5798 1.08605E+01-4.10515E-02 5.00000E+00
 -1      5799 1.26135E+01-3.31996E-01 5.00000E+00
 -1      5800 5.98853E+00 5.05467E+00 5.00000E+00
 -1      5801 7.43703E+00 3.91611E+00 5.00000E+00
 -1      5802 9.10623E+00 5.14228E+00 5.00000E+00
 -1      5803 9.29639E+00 2.91297E+00 5.00000E+00
 -1      5804 1.14025E+01 2.64246E+00 5.00000E+00
 -1      5805 2.62819E+00 6.03498E+00 5.00000E+00
 -1      5806 4.31061E+00 5.28401E+00 5.00000E+00
 -1      5807 5.56895E+00 6.37474E+00 5.00000E+00
 -1      5808-4.58227E-01 7.47279E+00 5.00000E+00
 -1      5809 1.35653E+00 7.15459E+00 5.00000E+00
 -1      5810 2.61937E+00 7.72369E+00 5.00000E+00
 -1      5811-5.78755E+00 7.39031E+00 5.00000E+00
 -1      5812-3.95002E+00 7.52448E+00 5.00000E+00
 -1      5813-6.62915E-01 9.57490E+00 5.00000E+00
 -1      5814-2.46886E+00 8.20440E+00 5.00000E+00
 -1      5815-4.15471E+00 9.62659E+00 5.00000E+00
 -1      5816-9.41964E+00 6.30878E+00 5.00000E+00
 -1      5817-7.67018E+00 6.88653E+00 5.00000E+00
 -1      5818-7.51850E+00 8.44289E+00 5.00000E+00
 -1      5819-1.06284E+01 6.83425E+00 5.00000E+00
 -1      5820 5.11685E+00 1.26690E+01 5.00000E+00
 -1      5821 4.16079E+00 1.05022E+01 5.00000E+00
 -1      5822 6.01969E+00 1.13975E+01 5.00000E+00
 -1      5823 6.60492E+00 9.36930E+00 5.00000E+00
 -1      5824 7.56097E+00 1.15361E+01 5.00000E+00
 -1      5825 2.91764E+00 1.33706E+01 5.00000E+00
 -1      5826 4.77653E+00 1.42659E+01 5.00000E+00
 -1      5827 3.61260E+00 1.63023E+01 5.00000E+00
 -1      5828 5.81181E+00 1.56006E+01 5.00000E+00
 -1      5829 9.53401E+00 1.02774E+01 5.00000E+00
 -1      5830 8.94878E+00 1.23056E+01 5.00000E+00
 -1      5831 1.11619E+01 1.27467E+01 5.00000E+00
 -1      5832 9.18887E+00 1.40053E+01 5.00000E+00
 -1      5833 9.86831E+00 1.57052E+01 5.00000E+00
 -1      5834 7.65519E+00 1.52642E+01 5.00000E+00
 -1      5835 6.49125E+00 1.73005E+01 5.00000E+00
 -1      5836-1.74782E+00 1.44617E+01 5.00000E+00
 -1      5837-2.74933E+00 1.55988E+01 5.00000E+00
 -1      5838-3.63713E+00 1.43705E+01 5.00000E+00
 -1      5839-1.85767E+00 1.67154E+01 5.00000E+00
 -1      5840-3.74699E+00 1.66242E+01 5.00000E+00
 -1      5841-7.71789E+00 1.63275E+01 5.00000E+00
 -1      5842-6.79943E+00 1.50455E+01 5.00000E+00
 -1      5843-5.55711E+00 1.67896E+01 5.00000E+00
 -1      5844-7.22855E+00 1.34948E+01 5.00000E+00
 -1      5845-5.06777E+00 1.39568E+01 5.00000E+00
 -1      5846-4.66545E+00 1.79062E+01 5.00000E+00
 -1      5847-4.06626E+00 1.28197E+01 5.00000E+00
 -1      5848 1.34172E+01 7.48304E+00 5.00000E+00
 -1      5849 1.45974E+01 6.02213E+00 5.00000E+00
 -1      5850 1.48369E+01 7.44580E+00 5.00000E+00
 -1      5851 1.50543E+01 8.83887E+00 5.00000E+00
 -1      5852 1.62345E+01 7.37795E+00 5.00000E+00
 -1      5853 1.83242E+01 4.36800E+00 5.00000E+00
 -1      5854 1.74440E+01 6.16309E+00 5.00000E+00
 -1      5855 1.68973E+01 4.18981E+00 5.00000E+00
 -1      5856 1.61312E+01 3.00733E+00 5.00000E+00
 -1      5857 1.52509E+01 4.80241E+00 5.00000E+00
 -1      5858 1.76615E+01 7.55615E+00 5.00000E+00
 -1      5859 1.38313E+01 4.83965E+00 5.00000E+00
 -1      5860-1.50052E+01 9.36044E+00 5.00000E+00
 -1      5861-1.33834E+01 1.06709E+01 5.00000E+00
 -1      5862-1.50469E+01 1.15325E+01 5.00000E+00
 -1      5863-1.20466E+01 9.74664E+00 5.00000E+00
 -1      5864-1.20884E+01 1.19187E+01 5.00000E+00
 -1      5865-1.09539E+01 1.53340E+01 5.00000E+00
 -1      5866-1.31863E+01 1.44637E+01 5.00000E+00
 -1      5867-1.11927E+01 1.37132E+01 5.00000E+00
 -1      5868-9.85592E+00 1.27889E+01 5.00000E+00
 -1      5869-1.64718E+01 1.21566E+01 5.00000E+00
 -1      5870-1.48500E+01 1.34671E+01 5.00000E+00
 -1      5871-1.46112E+01 1.50878E+01 5.00000E+00
 -1      5872 2.11142E+01-1.69283E+00 5.00000E+00
 -1      5873 1.90142E+01-2.89438E+00 5.00000E+00
 -1      5874 2.09266E+01-3.19117E+00 5.00000E+00
 -1      5875 2.20263E+01-5.24509E-01 5.00000E+00
 -1      5876 2.01139E+01-2.27722E-01 5.00000E+00
 -1      5877 1.94017E+01 1.66766E+00 5.00000E+00
 -1      5878 1.84897E+01 4.99338E-01 5.00000E+00
 -1      5879 1.70429E+01 5.92983E-01 5.00000E+00
 -1      5880 1.77551E+01-1.30240E+00 5.00000E+00
 -1      5881 1.75675E+01-2.80073E+00 5.00000E+00
 -1      5882-2.10489E+01 4.18455E+00 5.00000E+00
 -1      5883-1.94805E+01 5.54748E+00 5.00000E+00
 -1      5884-2.08458E+01 5.72714E+00 5.00000E+00
 -1      5885-2.15737E+01 6.99538E+00 5.00000E+00
 -1      5886-1.82935E+01 3.77545E+00 5.00000E+00
 -1      5887-1.80905E+01 5.31804E+00 5.00000E+00
 -1      5888-1.65198E+01 5.28370E+00 5.00000E+00
 -1      5889-1.77067E+01 7.05573E+00 5.00000E+00
 -1      5890-2.12586E+01 9.81906E+00 5.00000E+00
 -1      5891-2.10094E+01 8.30412E+00 5.00000E+00
 -1      5892-1.95266E+01 8.60502E+00 5.00000E+00
 -1      5893-1.82223E+01 1.01710E+01 5.00000E+00
 -1      5894-1.79731E+01 8.65605E+00 5.00000E+00
 -1      5895-1.64024E+01 8.62171E+00 5.00000E+00
 -1      5896 2.13435E+01-7.89406E+00 5.00000E+00
 -1      5897 1.95310E+01-6.94859E+00 5.00000E+00
 -1      5898 1.93974E+01-8.84614E+00 5.00000E+00
 -1      5899 2.01518E+01-5.19461E+00 5.00000E+00
 -1      5900 1.82057E+01-6.14669E+00 5.00000E+00
 -1      5901 1.55720E+01-7.50661E+00 5.00000E+00
 -1      5902 1.66223E+01-6.32344E+00 5.00000E+00
 -1      5903 1.72432E+01-4.56946E+00 5.00000E+00
 -1      5904 1.61026E+01-1.18370E+01 5.00000E+00
 -1      5905 1.80877E+01-1.04007E+01 5.00000E+00
 -1      5906 1.55998E+01-9.33695E+00 5.00000E+00
 -1      5907-1.70247E+00 2.16656E+01 5.00000E+00
 -1      5908-1.15122E+00 1.97174E+01 5.00000E+00
 -1      5909 2.30542E-01 2.06529E+01 5.00000E+00
 -1      5910-2.96978E+00 1.92355E+01 5.00000E+00
 -1      5911-1.03677E+00 1.82227E+01 5.00000E+00
 -1      5912 8.58656E-01 1.53288E+01 5.00000E+00
 -1      5913 1.67956E+00 1.68361E+01 5.00000E+00
 -1      5914-3.91067E-02 1.71974E+01 5.00000E+00
 -1      5915 2.71483E+00 1.81708E+01 5.00000E+00
 -1      5916 2.33399E+00 2.02585E+01 5.00000E+00
 -1      5917 4.26702E+00 1.97246E+01 5.00000E+00
 -1      5918 1.86480E+01 1.22369E+01 5.00000E+00
 -1      5919 1.66555E+01 1.30448E+01 5.00000E+00
 -1      5920 1.68577E+01 1.13111E+01 5.00000E+00
 -1      5921 1.76511E+01 9.63714E+00 5.00000E+00
 -1      5922 1.56586E+01 1.04450E+01 5.00000E+00
 -1      5923 1.22892E+01 9.97684E+00 5.00000E+00
 -1      5924 1.42610E+01 1.05128E+01 5.00000E+00
 -1      5925 1.28935E+01 1.15830E+01 5.00000E+00
 -1      5926 1.31336E+01 1.32826E+01 5.00000E+00
 -1      5927 1.48771E+01 1.43069E+01 5.00000E+00
 -1      5928 1.31454E+01 1.54706E+01 5.00000E+00
 -1      5929 8.36539E-01 1.05530E+01 5.00000E+00
 -1      5930-1.17409E+00 1.12846E+01 5.00000E+00
 -1      5931-2.65458E+00 1.17699E+01 5.00000E+00
 -1      5932-1.15513E+00 1.27480E+01 5.00000E+00
 -1      5933-2.67322E-01 1.39764E+01 5.00000E+00
 -1      5934 1.45134E+00 1.36151E+01 5.00000E+00
 -1      5935 1.79166E+00 1.20182E+01 5.00000E+00
 -1      5936 2.30283E+00 1.03085E+01 5.00000E+00
 -1      5937-2.20269E+01 1.11348E+00 5.00000E+00
 -1      5938-2.12766E+01 2.69174E+00 5.00000E+00
 -1      5939-1.99112E+01 2.51208E+00 5.00000E+00
 -1      5940-1.85212E+01 2.28264E+00 5.00000E+00
 -1      5941-1.81541E+01 7.91389E-01 5.00000E+00
 -1      5942-2.00702E+01-2.51554E+00 5.00000E+00
 -1      5943-1.88951E+01-5.93816E-01 5.00000E+00
 -1      5944-2.13140E+01-9.02453E-01 5.00000E+00
 -1      5945 1.07443E+01 5.84555E+00 5.00000E+00
 -1      5946 8.88490E+00 6.84868E+00 5.00000E+00
 -1      5947 1.20717E+01 5.09926E+00 5.00000E+00
 -1      5948 1.18503E+01 6.80566E+00 5.00000E+00
 -1      5949 1.07224E+01 9.29946E+00 5.00000E+00
 -1      5950 1.20898E+01 8.22933E+00 5.00000E+00
 -1      5951 9.33456E+00 8.52991E+00 5.00000E+00
 -1      5952 7.69653E+00 7.82664E+00 5.00000E+00
 -1      5953-6.95726E+00 1.97560E+01 5.00000E+00
 -1      5954-8.87051E+00 1.99042E+01 5.00000E+00
 -1      5955-8.38881E+00 1.82198E+01 5.00000E+00
 -1      5956-1.07290E+01 1.99074E+01 5.00000E+00
 -1      5957-9.63114E+00 1.64757E+01 5.00000E+00
 -1      5958-1.16248E+01 1.72262E+01 5.00000E+00
 -1      5959-1.33598E+01 1.78352E+01 5.00000E+00
 -1      5960-1.20370E+01 1.89770E+01 5.00000E+00
 -1      5961-8.50023E+00 1.28378E+01 5.00000E+00
 -1      5962-6.76857E+00 1.17491E+01 5.00000E+00
 -1      5963-9.39594E+00 1.10433E+01 5.00000E+00
 -1      5964-6.83806E+00 1.00194E+01 5.00000E+00
 -1      5965-8.72069E+00 9.51560E+00 5.00000E+00
 -1      5966-1.00764E+01 9.46676E+00 5.00000E+00
 -1      5967-5.56638E+00 1.06764E+01 5.00000E+00
 -1      5968 1.35807E+01-1.58240E+01 5.00000E+00
 -1      5969 1.30169E+01-1.42419E+01 5.00000E+00
 -1      5970 1.55742E+01-1.53408E+01 5.00000E+00
 -1      5971 1.40892E+01-1.24830E+01 5.00000E+00
 -1      5972 1.65771E+01-1.35467E+01 5.00000E+00
 -1      5973 2.16252E+01 5.91118E+00 5.00000E+00
 -1      5974 2.25855E+01 4.45507E+00 5.00000E+00
 -1      5975 2.04350E+01 7.23137E+00 5.00000E+00
 -1      5976 2.00612E+01 5.02110E+00 5.00000E+00
 -1      5977 1.95145E+01 3.04781E+00 5.00000E+00
 -1      5978 2.11387E+01 2.32075E+00 5.00000E+00
 -1      5979 2.25618E+01 2.84697E+00 5.00000E+00
 -1      5980 2.24491E+01 1.46682E+00 5.00000E+00
 -1      5981 3.20567E+00 9.03701E+00 5.00000E+00
 -1      5982 4.47733E+00 7.91741E+00 5.00000E+00
 -1      5983 6.15525E+00 7.68807E+00 5.00000E+00
 -1      5984 1.61907E+01 1.70231E+00 5.00000E+00
 -1      5985 1.54561E+01-9.94263E-02 5.00000E+00
 -1      5986 1.45444E+01 2.31492E+00 5.00000E+00
 -1      5987 1.39958E+01-3.99935E-01 5.00000E+00
 -1      5988 1.32216E+01 1.07784E+00 5.00000E+00
 -1      5989 1.48480E+01-1.50926E+00 5.00000E+00
 -1      5990 1.31621E+01 2.38286E+00 5.00000E+00
 -1      5991 1.31363E+01 1.69170E+01 5.00000E+00
 -1      5992 1.13928E+01 1.58927E+01 5.00000E+00
 -1      5993 1.22993E+01 1.84043E+01 5.00000E+00
 -1      5994 9.03080E+00 1.86279E+01 5.00000E+00
 -1      5995 9.85915E+00 1.71516E+01 5.00000E+00
 -1      5996 1.05553E+01 1.88154E+01 5.00000E+00
 -1      5997-1.13714E+01 8.21898E+00 5.00000E+00
 -1      5998-1.25986E+01 7.11413E+00 5.00000E+00
 -1      5999-1.47388E+01 7.76013E+00 5.00000E+00
 -1      6000-1.38256E+01 6.85680E+00 5.00000E+00
 -1      6001-1.52228E+01 6.11806E+00 5.00000E+00
 -1      6002-1.74735E+01 1.32381E+01 5.00000E+00
 -1      6003-1.76705E+01 1.13035E+01 5.00000E+00
 -1      6004-1.92240E+01 1.12524E+01 5.00000E+00
 -1      6005-2.02667E+01 1.23319E+01 5.00000E+00
 -1      6006-1.89755E+01 1.39574E+01 5.00000E+00
 -1      6007-1.77768E+01 1.48106E+01 5.00000E+00
 -1      6008-2.08185E+01 1.11994E+01 5.00000E+00
 -1      6009-1.89870E+01-5.47579E+00 5.00000E+00
 -1      6010-2.01097E+01-6.81669E+00 5.00000E+00
 -1      6011-2.13075E+01-5.78968E+00 5.00000E+00
 -1      6012-2.13998E+01-3.82573E+00 5.00000E+00
 -1      6013-1.89809E+01-3.51709E+00 5.00000E+00
 -1      6014-4.77990E+00 1.94009E+01 5.00000E+00
 -1      6015-5.26159E+00 2.10853E+01 5.00000E+00
 -1      6016-3.67512E+00 2.21197E+01 5.00000E+00
 -1      6017 2.04246E+01 9.31235E+00 5.00000E+00
 -1      6018 1.88606E+01 8.42227E+00 5.00000E+00
 -1      6019 2.00249E+01 1.12922E+01 5.00000E+00
 -1      6020 5.68642E+00 1.86404E+01 5.00000E+00
 -1      6021 5.30558E+00 2.07281E+01 5.00000E+00
 -1      6022 6.77380E+00 2.09913E+01 5.00000E+00
 -1      6023 8.22597E+00 1.99678E+01 5.00000E+00
 -1      6024 7.52980E+00 1.83040E+01 5.00000E+00
 -1      6025 2.22519E+01-3.99306E+00 5.00000E+00
 -1      6026 2.28111E+01-5.39684E+00 5.00000E+00
 -1      6027 2.24413E+01-7.01011E+00 5.00000E+00
 -1      6028-4.08522E+00 1.13563E+01 5.00000E+00
 -1      6029-1.48020E+01 1.67838E+01 5.00000E+00
 -1      6030-1.64656E+01 1.57872E+01 5.00000E+00
 -1      6031 1.59841E+01-2.97748E+00 5.00000E+00
 -1      6032 1.27252E+01 3.87954E+00 5.00000E+00
 -1      6033 9.96098E+00-9.17297E+00 8.88178E-16
 -1      6034 6.90702E+00-1.91610E+01 0.00000E+00
 -1      6035 8.51754E+00-1.38938E+01-7.86256E-01
 -1      6036 7.59145E+00-1.69226E+01 1.62876E+00
 -1      6037 9.17910E+00-1.17302E+01 1.81500E+00
 -1      6038 7.65302E+00-1.67212E+01-1.89409E+00
 -1      6039 9.39255E+00-1.10320E+01-1.88333E+00
 -1      6040 1.05124E+01-7.36969E+00-2.25833E+00
 -1      6041 1.04768E+01-7.48604E+00 2.24694E+00
 -1      6042 6.37498E+00-2.09011E+01 2.21590E+00
 -1      6043 6.35471E+00-2.09674E+01-2.26667E+00
 -1      6044 6.09238E+00-2.18253E+01-5.18027E-03
 -1      6045 1.07739E+01-6.51441E+00-1.16200E-03
 -1      6046 5.94249E+00-2.23155E+01 3.60795E+00
 -1      6047 5.94249E+00-2.23155E+01 1.94129E+00
 -1      6048 6.52729E+00-2.04029E+01 3.60795E+00
 -1      6049 5.93235E+00-2.23487E+01-1.96667E+00
 -1      6050 5.93235E+00-2.23487E+01-3.63334E+00
 -1      6051 6.51715E+00-2.04361E+01-3.63334E+00
 -1      6052 1.03504E+01-7.89944E+00-3.62917E+00
 -1      6053 1.09352E+01-5.98685E+00-3.62917E+00
 -1      6054 1.09352E+01-5.98685E+00-1.96250E+00
 -1      6055 1.09174E+01-6.04502E+00 3.62347E+00
 -1      6056 1.03326E+01-7.95762E+00 3.62347E+00
 -1      6057 1.09174E+01-6.04502E+00 1.95681E+00
 -1      6058 5.80119E+00-2.27777E+01 8.30743E-01
 -1      6059 5.80119E+00-2.27777E+01-8.35923E-01
 -1      6060 6.22354E+00-2.13963E+01-1.13593E+00
 -1      6061 6.23368E+00-2.13632E+01 1.10536E+00
 -1      6062 7.16631E+00-1.83130E+01-3.44705E+00
 -1      6063 7.75111E+00-1.64004E+01-3.44705E+00
 -1      6064 7.00386E+00-1.88443E+01-2.08038E+00
 -1      6065 8.33591E+00-1.44878E+01-3.44705E+00
 -1      6066 9.20568E+00-1.16432E+01-3.44166E+00
 -1      6067 9.79048E+00-9.73062E+00-3.44166E+00
 -1      6068 8.08528E+00-1.53075E+01-1.34018E+00
 -1      6069 8.76817E+00-1.30741E+01-2.89313E+00
 -1      6070 8.95505E+00-1.24629E+01-1.33479E+00
 -1      6071 9.95245E+00-9.20086E+00-2.07083E+00
 -1      6072 7.72033E+00-1.65011E+01 3.31438E+00
 -1      6073 7.13553E+00-1.84137E+01 3.31438E+00
 -1      6074 6.98322E+00-1.89118E+01 1.92233E+00
 -1      6075 9.09895E+00-1.19923E+01 3.40750E+00
 -1      6076 8.51415E+00-1.39049E+01 3.40750E+00
 -1      6077 8.38527E+00-1.43264E+01 1.72188E+00
 -1      6078 9.68375E+00-1.00797E+01 3.40750E+00
 -1      6079 9.82794E+00-9.60810E+00 2.03097E+00
 -1      6080 1.10659E+01-5.55920E+00-8.33914E-01
 -1      6081 1.10659E+01-5.55920E+00 8.32752E-01
 -1      6082 1.06431E+01-6.94205E+00-1.12975E+00
 -1      6083 1.06253E+01-7.00022E+00 1.12289E+00
 -1      6084 9.67677E+00-1.01025E+01-9.41663E-01
 -1      6085 9.28582E+00-1.13811E+01-3.41627E-02
 -1      6086 9.57004E+00-1.04516E+01 9.07500E-01
 -1      6087 1.02189E+01-8.32951E+00 1.12347E+00
 -1      6088 1.02367E+01-8.27133E+00-1.12917E+00
 -1      6089 1.03674E+01-7.84369E+00-5.80999E-04
 -1      6090 7.24924E+00-1.80418E+01 8.14380E-01
 -1      6091 7.62224E+00-1.68219E+01-1.32667E-01
 -1      6092 7.28002E+00-1.79411E+01-9.47047E-01
 -1      6093 6.64100E+00-2.00311E+01 1.10795E+00
 -1      6094 6.63086E+00-2.00642E+01-1.13334E+00
 -1      6095 6.49970E+00-2.04932E+01-2.59013E-03
 -1      6096 8.05450E+00-1.54082E+01 4.21252E-01
 -1      6097 8.84832E+00-1.28120E+01 5.14372E-01
 -1      6098-1.40100E+01 2.34187E+02-5.00000E+00
 -1      6099 1.40100E+01 2.34187E+02-5.00000E+00
 -1      6100 1.40100E+01 2.44813E+02-5.00000E+00
 -1      6101-1.40100E+01 2.44813E+02-5.00000E+00
 -1      6102 1.50360E+01 2.37660E+02-5.00000E+00
 -1      6103 1.50360E+01 2.41340E+02-5.00000E+00
 -1      6104-1.50360E+01 2.37660E+02-5.00000E+00
 -1      6105-1.50360E+01 2.41340E+02-5.00000E+00
 -1      6106-9.85256E+00 2.50491E+02-5.00000E+00
 -1      6107 9.85256E+00 2.50491E+02-5.00000E+00
 -1      6108 9.85256E+00 2.28509E+02-5.00000E+00
 -1      6109-9.85256E+00 2.28509E+02-5.00000E+00
 -1      6110 1.26579E+01 2.30848E+02-5.00000E+00
 -1      6111-1.26579E+01 2.30848E+02-5.00000E+00
 -1      6112-1.26579E+01 2.48152E+02-5.00000E+00
 -1      6113 1.26579E+01 2.48152E+02-5.00000E+00
 -1      6114-1.13024E+01 2.30109E+02-5.00000E+00
 -1      6115 1.13024E+01 2.30109E+02-5.00000E+00
 -1      6116 1.13024E+01 2.48891E+02-5.00000E+00
 -1      6117-1.13024E+01 2.48891E+02-5.00000E+00
 -1      6118-1.47350E+01 2.38580E+02-5.00000E+00
 -1      6119-1.57680E+01 2.38580E+02-5.00000E+00
 -1      6120-1.54670E+01 2.39500E+02-5.00000E+00
 -1      6121-1.47350E+01 2.40420E+02-5.00000E+00
 -1      6122-1.57680E+01 2.40420E+02-5.00000E+00
 -1      6123-1.55283E+01 2.42394E+02-5.00000E+00
 -1      6124-1.55283E+01 2.36606E+02-5.00000E+00
 -1      6125 8.53478E+00 2.51245E+02-5.00000E+00
 -1      6126 9.50178E+00 2.49571E+02-5.00000E+00
 -1      6127 1.19012E+01 2.47804E+02-5.00000E+00
 -1      6128 1.02267E+01 2.48771E+02-5.00000E+00
 -1      6129 1.05775E+01 2.49691E+02-5.00000E+00
 -1      6130 6.53399E+00 2.53464E+02-5.00000E+00
 -1      6131 4.59999E+00 2.53464E+02-5.00000E+00
 -1      6132 8.29503E+00 2.52540E+02-5.00000E+00
 -1      6133 9.61281E+00 2.51785E+02-5.00000E+00
 -1      6134 1.32550E+01 2.43831E+02-5.00000E+00
 -1      6135 1.32550E+01 2.45765E+02-5.00000E+00
 -1      6136 1.43100E+01 2.45991E+02-5.00000E+00
 -1      6137 1.35550E+01 2.46942E+02-5.00000E+00
 -1      6138 1.36340E+01 2.47660E+02-5.00000E+00
 -1      6139 1.25790E+01 2.47435E+02-5.00000E+00
 -1      6140 1.19802E+01 2.48521E+02-5.00000E+00
 -1      6141 1.47350E+01 2.40420E+02-5.00000E+00
 -1      6142 1.37680E+01 2.42094E+02-5.00000E+00
 -1      6143 1.50153E+01 2.44131E+02-5.00000E+00
 -1      6144 1.42603E+01 2.43149E+02-5.00000E+00
 -1      6145 1.55283E+01 2.42394E+02-5.00000E+00
 -1      6146 1.37680E+01 2.36906E+02-5.00000E+00
 -1      6147 1.47350E+01 2.38580E+02-5.00000E+00
 -1      6148 1.57680E+01 2.38580E+02-5.00000E+00
 -1      6149 1.54670E+01 2.39500E+02-5.00000E+00
 -1      6150 1.57680E+01 2.40420E+02-5.00000E+00
 -1      6151 1.32550E+01 2.33235E+02-5.00000E+00
 -1      6152 1.32550E+01 2.35169E+02-5.00000E+00
 -1      6153 1.50153E+01 2.34869E+02-5.00000E+00
 -1      6154 1.42603E+01 2.35851E+02-5.00000E+00
 -1      6155 1.55283E+01 2.36606E+02-5.00000E+00
 -1      6156 1.02267E+01 2.30229E+02-5.00000E+00
 -1      6157 1.19012E+01 2.31196E+02-5.00000E+00
 -1      6158 1.43100E+01 2.33009E+02-5.00000E+00
 -1      6159 1.35550E+01 2.32058E+02-5.00000E+00
 -1      6160 1.36340E+01 2.31340E+02-5.00000E+00
 -1      6161 1.25790E+01 2.31565E+02-5.00000E+00
 -1      6162 1.19802E+01 2.30479E+02-5.00000E+00
 -1      6163 8.53478E+00 2.27755E+02-5.00000E+00
 -1      6164 9.50178E+00 2.29429E+02-5.00000E+00
 -1      6165 1.05775E+01 2.29309E+02-5.00000E+00
 -1      6166 6.53399E+00 2.25536E+02-5.00000E+00
 -1      6167 4.59999E+00 2.25536E+02-5.00000E+00
 -1      6168 8.29503E+00 2.26460E+02-5.00000E+00
 -1      6169 9.61281E+00 2.27215E+02-5.00000E+00
 -1      6170 2.66893E+00 2.25060E+02-5.00000E+00
 -1      6171 9.94428E-01 2.24093E+02-5.00000E+00
 -1      6172-9.94428E-01 2.24093E+02-5.00000E+00
 -1      6173-2.66893E+00 2.25060E+02-5.00000E+00
 -1      6174-4.59999E+00 2.25536E+02-5.00000E+00
 -1      6175-6.53399E+00 2.25536E+02-5.00000E+00
 -1      6176-9.50178E+00 2.29429E+02-5.00000E+00
 -1      6177-8.53478E+00 2.27755E+02-5.00000E+00
 -1      6178-8.29503E+00 2.26460E+02-5.00000E+00
 -1      6179-9.61281E+00 2.27215E+02-5.00000E+00
 -1      6180-1.19012E+01 2.31196E+02-5.00000E+00
 -1      6181-1.02267E+01 2.30229E+02-5.00000E+00
 -1      6182-1.05775E+01 2.29309E+02-5.00000E+00
 -1      6183-1.32550E+01 2.35169E+02-5.00000E+00
 -1      6184-1.32550E+01 2.33235E+02-5.00000E+00
 -1      6185-1.43100E+01 2.33009E+02-5.00000E+00
 -1      6186-1.35550E+01 2.32058E+02-5.00000E+00
 -1      6187-1.36340E+01 2.31340E+02-5.00000E+00
 -1      6188-1.25790E+01 2.31565E+02-5.00000E+00
 -1      6189-1.19802E+01 2.30479E+02-5.00000E+00
 -1      6190-1.37680E+01 2.36906E+02-5.00000E+00
 -1      6191-1.50153E+01 2.34869E+02-5.00000E+00
 -1      6192-1.42603E+01 2.35851E+02-5.00000E+00
 -1      6193-1.37680E+01 2.42094E+02-5.00000E+00
 -1      6194-1.32550E+01 2.45765E+02-5.00000E+00
 -1      6195-1.32550E+01 2.43831E+02-5.00000E+00
 -1      6196-1.50153E+01 2.44131E+02-5.00000E+00
 -1      6197-1.42603E+01 2.43149E+02-5.00000E+00
 -1      6198-1.02267E+01 2.48771E+02-5.00000E+00
 -1      6199-1.19012E+01 2.47804E+02-5.00000E+00
 -1      6200-1.43100E+01 2.45991E+02-5.00000E+00
 -1      6201-1.35550E+01 2.46942E+02-5.00000E+00
 -1      6202-1.36340E+01 2.47660E+02-5.00000E+00
 -1      6203-1.25790E+01 2.47435E+02-5.00000E+00
 -1      6204-1.19802E+01 2.48521E+02-5.00000E+00
 -1      6205-8.53478E+00 2.51245E+02-5.00000E+00
 -1      6206-9.50178E+00 2.49571E+02-5.00000E+00
 -1      6207-1.05775E+01 2.49691E+02-5.00000E+00
 -1      6208-4.59999E+00 2.53464E+02-5.00000E+00
 -1      6209-6.53399E+00 2.53464E+02-5.00000E+00
 -1      6210-8.29503E+00 2.52540E+02-5.00000E+00
 -1      6211-9.61281E+00 2.51785E+02-5.00000E+00
 -1      6212-9.94428E-01 2.54907E+02-5.00000E+00
 -1      6213-2.66893E+00 2.53940E+02-5.00000E+00
 -1      6214 2.66893E+00 2.53940E+02-5.00000E+00
 -1      6215 9.94428E-01 2.54907E+02-5.00000E+00
 -1      6216-1.25042E+01 2.49297E+02-5.00000E+00
 -1      6217-1.11015E+01 2.50466E+02-5.00000E+00
 -1      6218-1.18264E+01 2.49666E+02-5.00000E+00
 -1      6219 1.11015E+01 2.50466E+02-5.00000E+00
 -1      6220 1.25042E+01 2.49297E+02-5.00000E+00
 -1      6221 1.18264E+01 2.49666E+02-5.00000E+00
 -1      6222 1.25042E+01 2.29703E+02-5.00000E+00
 -1      6223 1.11015E+01 2.28534E+02-5.00000E+00
 -1      6224 1.18264E+01 2.29334E+02-5.00000E+00
 -1      6225-1.11015E+01 2.28534E+02-5.00000E+00
 -1      6226-1.25042E+01 2.29703E+02-5.00000E+00
 -1      6227-1.18264E+01 2.29334E+02-5.00000E+00
 -1      6228-1.40100E+01 2.34187E+02 5.00000E+00
 -1      6229 1.40100E+01 2.34187E+02 5.00000E+00
 -1      6230 1.40100E+01 2.44813E+02 5.00000E+00
 -1      6231-1.40100E+01 2.44813E+02 5.00000E+00
 -1      6232 1.50360E+01 2.37660E+02 5.00000E+00
 -1      6233 1.50360E+01 2.41340E+02 5.00000E+00
 -1      6234-1.50360E+01 2.37660E+02 5.00000E+00
 -1      6235-1.50360E+01 2.41340E+02 5.00000E+00
 -1      6236-9.85256E+00 2.50491E+02 5.00000E+00
 -1      6237 9.85256E+00 2.50491E+02 5.00000E+00
 -1      6238 9.85256E+00 2.28509E+02 5.00000E+00
 -1      6239-9.85256E+00 2.28509E+02 5.00000E+00
 -1      6240 1.26579E+01 2.30848E+02 5.00000E+00
 -1      6241-1.26579E+01 2.30848E+02 5.00000E+00
 -1      6242-1.26579E+01 2.48152E+02 5.00000E+00
 -1      6243 1.26579E+01 2.48152E+02 5.00000E+00
 -1      6244-1.13024E+01 2.30109E+02 5.00000E+00
 -1      6245 1.13024E+01 2.30109E+02 5.00000E+00
 -1      6246 1.13024E+01 2.48891E+02 5.00000E+00
 -1      6247-1.13024E+01 2.48891E+02 5.00000E+00
 -1      6248-1.57680E+01 2.38580E+02 5.00000E+00
 -1      6249-1.47350E+01 2.38580E+02 5.00000E+00
 -1      6250-1.54670E+01 2.39500E+02 5.00000E+00
 -1      6251-1.47350E+01 2.40420E+02 5.00000E+00
 -1      6252-1.57680E+01 2.40420E+02 5.00000E+00
 -1      6253-1.55283E+01 2.42394E+02 5.00000E+00
 -1      6254-1.55283E+01 2.36606E+02 5.00000E+00
 -1      6255-1.37680E+01 2.36906E+02 5.00000E+00
 -1      6256-1.37680E+01 2.42094E+02 5.00000E+00
 -1      6257-1.32550E+01 2.35169E+02 5.00000E+00
 -1      6258-1.32550E+01 2.33235E+02 5.00000E+00
 -1      6259-1.42603E+01 2.35851E+02 5.00000E+00
 -1      6260-1.50153E+01 2.34869E+02 5.00000E+00
 -1      6261-1.32550E+01 2.45765E+02 5.00000E+00
 -1      6262-1.32550E+01 2.43831E+02 5.00000E+00
 -1      6263-1.50153E+01 2.44131E+02 5.00000E+00
 -1      6264-1.42603E+01 2.43149E+02 5.00000E+00
 -1      6265-1.02267E+01 2.48771E+02 5.00000E+00
 -1      6266-1.19012E+01 2.47804E+02 5.00000E+00
 -1      6267-1.35550E+01 2.46942E+02 5.00000E+00
 -1      6268-1.43100E+01 2.45991E+02 5.00000E+00
 -1      6269-1.25790E+01 2.47435E+02 5.00000E+00
 -1      6270-1.36340E+01 2.47660E+02 5.00000E+00
 -1      6271-1.19802E+01 2.48521E+02 5.00000E+00
 -1      6272-8.53478E+00 2.51245E+02 5.00000E+00
 -1      6273-9.50178E+00 2.49571E+02 5.00000E+00
 -1      6274-1.05775E+01 2.49691E+02 5.00000E+00
 -1      6275-4.59999E+00 2.53464E+02 5.00000E+00
 -1      6276-6.53399E+00 2.53464E+02 5.00000E+00
 -1      6277-8.29503E+00 2.52540E+02 5.00000E+00
 -1      6278-9.61281E+00 2.51785E+02 5.00000E+00
 -1      6279-9.94428E-01 2.54907E+02 5.00000E+00
 -1      6280-2.66893E+00 2.53940E+02 5.00000E+00
 -1      6281 2.66893E+00 2.53940E+02 5.00000E+00
 -1      6282 9.94428E-01 2.54907E+02 5.00000E+00
 -1      6283 6.53399E+00 2.53464E+02 5.00000E+00
 -1      6284 4.59999E+00 2.53464E+02 5.00000E+00
 -1      6285 9.50178E+00 2.49571E+02 5.00000E+00
 -1      6286 8.53478E+00 2.51245E+02 5.00000E+00
 -1      6287 8.29503E+00 2.52540E+02 5.00000E+00
 -1      6288 9.61281E+00 2.51785E+02 5.00000E+00
 -1      6289 1.19012E+01 2.47804E+02 5.00000E+00
 -1      6290 1.02267E+01 2.48771E+02 5.00000E+00
 -1      6291 1.05775E+01 2.49691E+02 5.00000E+00
 -1      6292 1.32550E+01 2.43831E+02 5.00000E+00
 -1      6293 1.32550E+01 2.45765E+02 5.00000E+00
 -1      6294 1.43100E+01 2.45991E+02 5.00000E+00
 -1      6295 1.35550E+01 2.46942E+02 5.00000E+00
 -1      6296 1.36340E+01 2.47660E+02 5.00000E+00
 -1      6297 1.25790E+01 2.47435E+02 5.00000E+00
 -1      6298 1.19802E+01 2.48521E+02 5.00000E+00
 -1      6299 1.47350E+01 2.40420E+02 5.00000E+00
 -1      6300 1.37680E+01 2.42094E+02 5.00000E+00
 -1      6301 1.42603E+01 2.43149E+02 5.00000E+00
 -1      6302 1.50153E+01 2.44131E+02 5.00000E+00
 -1      6303 1.55283E+01 2.42394E+02 5.00000E+00
 -1      6304 1.37680E+01 2.36906E+02 5.00000E+00
 -1      6305 1.47350E+01 2.38580E+02 5.00000E+00
 -1      6306 1.57680E+01 2.38580E+02 5.00000E+00
 -1      6307 1.54670E+01 2.39500E+02 5.00000E+00
 -1      6308 1.57680E+01 2.40420E+02 5.00000E+00
 -1      6309 1.32550E+01 2.33235E+02 5.00000E+00
 -1      6310 1.32550E+01 2.35169E+02 5.00000E+00
 -1      6311 1.50153E+01 2.34869E+02 5.00000E+00
 -1      6312 1.42603E+01 2.35851E+02 5.00000E+00
 -1      6313 1.55283E+01 2.36606E+02 5.00000E+00
 -1      6314 1.02267E+01 2.30229E+02 5.00000E+00
 -1      6315 1.19012E+01 2.31196E+02 5.00000E+00
 -1      6316 1.35550E+01 2.32058E+02 5.00000E+00
 -1      6317 1.43100E+01 2.33009E+02 5.00000E+00
 -1      6318 1.25790E+01 2.31565E+02 5.00000E+00
 -1      6319 1.36340E+01 2.31340E+02 5.00000E+00
 -1      6320 1.19802E+01 2.30479E+02 5.00000E+00
 -1      6321 8.53478E+00 2.27755E+02 5.00000E+00
 -1      6322 9.50178E+00 2.29429E+02 5.00000E+00
 -1      6323 1.05775E+01 2.29309E+02 5.00000E+00
 -1      6324 4.59999E+00 2.25536E+02 5.00000E+00
 -1      6325 6.53399E+00 2.25536E+02 5.00000E+00
 -1      6326 8.29503E+00 2.26460E+02 5.00000E+00
 -1      6327 9.61281E+00 2.27215E+02 5.00000E+00
 -1      6328 9.94428E-01 2.24093E+02 5.00000E+00
 -1      6329 2.66893E+00 2.25060E+02 5.00000E+00
 -1      6330-2.66893E+00 2.25060E+02 5.00000E+00
 -1      6331-9.94428E-01 2.24093E+02 5.00000E+00
 -1      6332-6.53399E+00 2.25536E+02 5.00000E+00
 -1      6333-4.59999E+00 2.25536E+02 5.00000E+00
 -1      6334-9.50178E+00 2.29429E+02 5.00000E+00
 -1      6335-8.53478E+00 2.27755E+02 5.00000E+00
 -1      6336-8.29503E+00 2.26460E+02 5.00000E+00
 -1      6337-9.61281E+00 2.27215E+02 5.00000E+00
 -1      6338-1.19012E+01 2.31196E+02 5.00000E+00
 -1      6339-1.02267E+01 2.30229E+02 5.00000E+00
 -1      6340-1.05775E+01 2.29309E+02 5.00000E+00
 -1      6341-1.43100E+01 2.33009E+02 5.00000E+00
 -1      6342-1.35550E+01 2.32058E+02 5.00000E+00
 -1      6343-1.36340E+01 2.31340E+02 5.00000E+00
 -1      6344-1.25790E+01 2.31565E+02 5.00000E+00
 -1      6345-1.19802E+01 2.30479E+02 5.00000E+00
 -1      6346-1.25042E+01 2.49297E+02 5.00000E+00
 -1      6347-1.11015E+01 2.50466E+02 5.00000E+00
 -1      6348-1.18264E+01 2.49666E+02 5.00000E+00
 -1      6349 1.11015E+01 2.50466E+02 5.00000E+00
 -1      6350 1.25042E+01 2.49297E+02 5.00000E+00
 -1      6351 1.18264E+01 2.49666E+02 5.00000E+00
 -1      6352 1.25042E+01 2.29703E+02 5.00000E+00
 -1      6353 1.11015E+01 2.28534E+02 5.00000E+00
 -1      6354 1.18264E+01 2.29334E+02 5.00000E+00
 -1      6355-1.11015E+01 2.28534E+02 5.00000E+00
 -1      6356-1.25042E+01 2.29703E+02 5.00000E+00
 -1      6357-1.18264E+01 2.29334E+02 5.00000E+00
 -1      6358 5.12188E+00 3.71939E+00 0.00000E+00
 -1      6359-6.05239E+00 5.81106E+00-6.94444E-02
 -1      6360 1.00437E+01-1.50757E+00 1.16667E+00
 -1      6361 7.86273E+00 1.44410E+00 1.00127E+00
 -1      6362-9.74356E+00 4.52965E+00-1.17659E+00
 -1      6363 1.85944E+00 5.30556E+00 0.00000E+00
 -1      6364-1.75307E+00 6.06791E+00-8.68056E-03
 -1      6365-1.07823E+01 3.95626E+00 1.60483E+00
 -1      6366 1.05915E+01-2.57555E+00-1.60648E+00
 -1      6367-1.12488E+01 3.66233E+00-3.05556E+00
 -1      6368-1.14791E+01 3.50823E+00 3.30556E+00
 -1      6369 1.09196E+01-3.33914E+00-3.30556E+00
 -1      6370 1.08149E+01-3.08260E+00 3.05556E+00
 -1      6371 7.06497E+00 2.22456E+00-2.21150E+00
 -1      6372 6.44824E+00 2.75501E+00 2.53646E+00
 -1      6373-7.83231E+00 5.32828E+00-2.81151E+00
 -1      6374-8.44504E+00 5.10562E+00 2.07176E+00
 -1      6375 8.98615E+00 1.12222E-01-1.94167E+00
 -1      6376 8.97791E+00 1.23227E-01 2.82812E+00
 -1      6377 3.31718E+00 4.71669E+00-2.50000E+00
 -1      6378 3.31718E+00 4.71669E+00 2.50000E+00
 -1      6379-4.01103E+00 6.08823E+00-2.51953E+00
 -1      6380-4.01103E+00 6.08823E+00 2.48047E+00
 -1      6381-1.76278E-01 5.84855E+00-2.50217E+00
 -1      6382-1.76278E-01 5.84855E+00 2.49783E+00
 -1      6383-1.19123E+01 3.20116E+00-2.36111E+00
 -1      6384-1.19123E+01 3.20116E+00-4.02778E+00
 -1      6385-1.03611E+01 4.20178E+00-4.02778E+00
 -1      6386-1.20235E+01 3.11856E+00 2.48611E+00
 -1      6387-1.20235E+01 3.11856E+00 4.15278E+00
 -1      6388-1.04816E+01 4.13342E+00 4.15278E+00
 -1      6389 1.04424E+01-2.26300E+00-4.15278E+00
 -1      6390 1.11529E+01-3.96668E+00-4.15278E+00
 -1      6391 1.11529E+01-3.96668E+00-2.48611E+00
 -1      6392 1.03807E+01-2.13895E+00 4.02778E+00
 -1      6393 1.11069E+01-3.83600E+00 4.02778E+00
 -1      6394 1.11069E+01-3.83600E+00 2.36111E+00
 -1      6395-1.16887E+01 3.36249E+00-3.09193E-02
 -1      6396-1.16887E+01 3.36249E+00 1.63575E+00
 -1      6397-1.11977E+01 3.69569E+00-1.42163E+00
 -1      6398-1.02686E+01 4.25325E+00 2.14120E-01
 -1      6399-1.05087E+01 4.11780E+00-2.11607E+00
 -1      6400-1.11338E+01 3.73704E+00 2.45519E+00
 -1      6401 9.45172E+00-5.45939E-01-3.47084E+00
 -1      6402 8.33414E+00 9.23220E-01-3.47084E+00
 -1      6403 1.07608E+01-2.95507E+00-2.45602E+00
 -1      6404 1.02539E+01-1.89261E+00-3.30324E+00
 -1      6405 9.85896E+00-1.18973E+00-1.77408E+00
 -1      6406 5.93997E+00 3.15111E+00-3.60575E+00
 -1      6407 7.34957E+00 1.95932E+00-3.60575E+00
 -1      6408 8.07613E+00 1.21439E+00-2.07659E+00
 -1      6409 4.03369E+00 4.35908E+00-3.75000E+00
 -1      6410 2.35440E+00 5.12548E+00-3.75000E+00
 -1      6411 6.12400E+00 3.01171E+00-1.10575E+00
 -1      6412 4.92698E+00 3.84318E+00-2.50000E+00
 -1      6413 4.23662E+00 4.24897E+00-1.25000E+00
 -1      6414 5.99563E-01 5.67748E+00-3.75109E+00
 -1      6415-1.21571E+00 6.01243E+00-3.75109E+00
 -1      6416 2.59605E+00 5.03028E+00-1.25000E+00
 -1      6417 1.61310E+00 5.38789E+00-2.50000E+00
 -1      6418 8.51102E-01 5.61279E+00-1.25109E+00
 -1      6419-4.97927E+00 5.99242E+00-3.75977E+00
 -1      6420-3.13780E+00 6.12052E+00-3.75977E+00
 -1      6421-2.00847E+00 6.08730E+00-2.50434E+00
 -1      6422-2.88168E+00 6.12041E+00-1.26411E+00
 -1      6423-9.61744E-01 5.97926E+00-1.25543E+00
 -1      6424-8.64460E+00 5.02651E+00-3.90575E+00
 -1      6425-6.89406E+00 5.61216E+00-3.90575E+00
 -1      6426-5.99583E+00 5.82262E+00-2.53472E+00
 -1      6427-6.94980E+00 5.59716E+00-1.44048E+00
 -1      6428-5.03648E+00 5.98475E+00-1.29449E+00
 -1      6429-9.59128E+00 4.60492E+00-3.08829E+00
 -1      6430-8.80169E+00 4.96189E+00-1.99405E+00
 -1      6431 9.44790E+00-5.40225E-01 3.91406E+00
 -1      6432 8.32965E+00 9.28423E-01 3.91406E+00
 -1      6433 9.96347E+00-1.36729E+00 3.08333E+00
 -1      6434 1.04525E+01-2.28372E+00 2.11111E+00
 -1      6435 9.53704E+00-6.75033E-01 1.99740E+00
 -1      6436 5.61053E+00 3.38976E+00 3.76823E+00
 -1      6437 7.05183E+00 2.23649E+00 3.76823E+00
 -1      6438 7.17651E+00 2.12225E+00 1.76887E+00
 -1      6439 7.74565E+00 1.56611E+00 3.00064E+00
 -1      6440 8.43947E+00 7.99836E-01 1.91470E+00
 -1      6441 4.03369E+00 4.35908E+00 3.75000E+00
 -1      6442 2.35440E+00 5.12548E+00 3.75000E+00
 -1      6443 4.92698E+00 3.84318E+00 2.50000E+00
 -1      6444 5.79830E+00 3.25541E+00 1.26823E+00
 -1      6445 4.23662E+00 4.24897E+00 1.25000E+00
 -1      6446 5.99563E-01 5.67748E+00 3.74891E+00
 -1      6447-1.21571E+00 6.01243E+00 3.74891E+00
 -1      6448 1.61310E+00 5.38789E+00 2.50000E+00
 -1      6449 2.59605E+00 5.03028E+00 1.25000E+00
 -1      6450 8.51102E-01 5.61279E+00 1.24891E+00
 -1      6451-4.97927E+00 5.99242E+00 3.74023E+00
 -1      6452-3.13780E+00 6.12052E+00 3.74023E+00
 -1      6453-2.88168E+00 6.12041E+00 1.23589E+00
 -1      6454-2.00847E+00 6.08730E+00 2.49566E+00
 -1      6455-9.61744E-01 5.97926E+00 1.24457E+00
 -1      6456-8.94543E+00 4.90095E+00 3.53588E+00
 -1      6457-7.20807E+00 5.52465E+00 3.53588E+00
 -1      6458-7.26348E+00 5.50844E+00 1.00116E+00
 -1      6459-5.99583E+00 5.82262E+00 2.46528E+00
 -1      6460-5.03648E+00 5.98475E+00 1.20551E+00
 -1      6461-1.01195E+01 4.33449E+00 3.30241E+00
 -1      6462-9.63866E+00 4.58173E+00 1.83829E+00
 -1      6463 1.10114E+01-3.57593E+00 3.00926E-02
 -1      6464 1.10114E+01-3.57593E+00-1.63657E+00
 -1      6465 1.07880E+01-3.01881E+00 1.41667E+00
 -1      6466 1.03284E+01-2.03602E+00-2.19907E-01
 -1      6467 7.47111E+00 1.84175E+00-6.05116E-01
 -1      6468 6.55992E+00 2.66318E+00 5.00637E-01
 -1      6469 3.53867E+00 4.61120E+00 0.00000E+00
 -1      6470-7.94000E+00 5.29133E+00-6.23016E-01
 -1      6471-9.10109E+00 4.83296E+00 4.47586E-01
 -1      6472-3.91194E+00 6.09445E+00-3.90625E-02
 -1      6473 9.54080E+00-6.80788E-01-3.87504E-01
 -1      6474 9.04357E+00 3.49596E-02 1.08397E+00
 -1      6475 8.44390E+00 7.94583E-01-4.70201E-01
 -1      6476 7.65367E-02 5.79744E+00-4.34028E-03
 -1      6477 8.18400E+00 2.50326E+02-3.09038E+00
 -1      6478 8.18400E+00 2.50326E+02 3.09038E+00
 -1      6479 8.18400E+00 2.50326E+02 0.00000E+00
 -1      6480 8.66750E+00 2.49488E+02-4.04519E+00
 -1      6481 7.70050E+00 2.51163E+02-4.04519E+00
 -1      6482 8.66750E+00 2.49488E+02-2.37852E+00
 -1      6483 7.70050E+00 2.51163E+02-2.37852E+00
 -1      6484 7.70050E+00 2.51163E+02 4.04519E+00
 -1      6485 8.66750E+00 2.49488E+02 4.04519E+00
 -1      6486 7.70050E+00 2.51163E+02 2.37852E+00
 -1      6487 8.66750E+00 2.49488E+02 2.37852E+00
 -1      6488 8.66750E+00 2.49488E+02 8.33333E-01
 -1      6489 8.66750E+00 2.49488E+02-8.33333E-01
 -1      6490 8.18400E+00 2.50326E+02-1.54519E+00
 -1      6491 8.18400E+00 2.50326E+02 1.54519E+00
 -1      6492 7.70050E+00 2.51163E+02-8.33333E-01
 -1      6493 7.70050E+00 2.51163E+02 8.33333E-01
 -1      6494 5.28300E+00 2.52000E+02 0.00000E+00
 -1      6495 5.28300E+00 2.52000E+02-3.09038E+00
 -1      6496 5.28300E+00 2.52000E+02 3.09038E+00
 -1      6497 6.25000E+00 2.52000E+02-4.04519E+00
 -1      6498 4.31600E+00 2.52000E+02-4.04519E+00
 -1      6499 6.25000E+00 2.52000E+02-2.37852E+00
 -1      6500 4.31600E+00 2.52000E+02-2.37852E+00
 -1      6501 4.31600E+00 2.52000E+02 4.04519E+00
 -1      6502 6.25000E+00 2.52000E+02 4.04519E+00
 -1      6503 4.31600E+00 2.52000E+02 2.37852E+00
 -1      6504 6.25000E+00 2.52000E+02 2.37852E+00
 -1      6505 6.25000E+00 2.52000E+02 8.33333E-01
 -1      6506 6.25000E+00 2.52000E+02-8.33333E-01
 -1      6507 5.28300E+00 2.52000E+02-1.54519E+00
 -1      6508 5.28300E+00 2.52000E+02 1.54519E+00
 -1      6509 4.31600E+00 2.52000E+02-8.33333E-01
 -1      6510 4.31600E+00 2.52000E+02 8.33333E-01
 -1      6511 1.67450E+00 2.52967E+02-3.09038E+00
 -1      6512 1.67450E+00 2.52967E+02 3.09038E+00
 -1      6513 1.67450E+00 2.52967E+02 0.00000E+00
 -1      6514 2.51175E+00 2.52484E+02-4.04519E+00
 -1      6515 8.37250E-01 2.53451E+02-4.04519E+00
 -1      6516 8.37250E-01 2.53451E+02-2.37852E+00
 -1      6517 2.51175E+00 2.52484E+02-2.37852E+00
 -1      6518 8.37250E-01 2.53451E+02 4.04519E+00
 -1      6519 2.51175E+00 2.52484E+02 4.04519E+00
 -1      6520 8.37250E-01 2.53451E+02 2.37852E+00
 -1      6521 2.51175E+00 2.52484E+02 2.37852E+00
 -1      6522 2.51175E+00 2.52484E+02 8.33333E-01
 -1      6523 2.51175E+00 2.52484E+02-8.33333E-01
 -1      6524 1.67450E+00 2.52967E+02-1.54519E+00
 -1      6525 1.67450E+00 2.52967E+02 1.54519E+00
 -1      6526 8.37250E-01 2.53451E+02-8.33333E-01
 -1      6527 8.37250E-01 2.53451E+02 8.33333E-01
 -1      6528-1.67450E+00 2.52967E+02 3.09038E+00
 -1      6529-1.67450E+00 2.52967E+02-3.09038E+00
 -1      6530-1.67450E+00 2.52967E+02 0.00000E+00
 -1      6531-8.37250E-01 2.53451E+02-4.04519E+00
 -1      6532-2.51175E+00 2.52484E+02-4.04519E+00
 -1      6533-2.51175E+00 2.52484E+02-2.37852E+00
 -1      6534-8.37250E-01 2.53451E+02-2.37852E+00
 -1      6535-8.37250E-01 2.53451E+02 4.04519E+00
 -1      6536-2.51175E+00 2.52484E+02 4.04519E+00
 -1      6537-2.51175E+00 2.52484E+02 2.37852E+00
 -1      6538-8.37250E-01 2.53451E+02 2.37852E+00
 -1      6539-8.37250E-01 2.53451E+02 8.33333E-01
 -1      6540-8.37250E-01 2.53451E+02-8.33333E-01
 -1      6541-1.67450E+00 2.52967E+02-1.54519E+00
 -1      6542-1.67450E+00 2.52967E+02 1.54519E+00
 -1      6543-2.51175E+00 2.52484E+02 8.33333E-01
 -1      6544-2.51175E+00 2.52484E+02-8.33333E-01
 -1      6545-5.28300E+00 2.52000E+02-3.09038E+00
 -1      6546-5.28300E+00 2.52000E+02 8.88178E-16
 -1      6547-5.28300E+00 2.52000E+02 3.09038E+00
 -1      6548-4.31600E+00 2.52000E+02-4.04519E+00
 -1      6549-6.25000E+00 2.52000E+02-4.04519E+00
 -1      6550-6.25000E+00 2.52000E+02-2.37852E+00
 -1      6551-4.31600E+00 2.52000E+02-2.37852E+00
 -1      6552-6.25000E+00 2.52000E+02 4.04519E+00
 -1      6553-4.31600E+00 2.52000E+02 4.04519E+00
 -1      6554-6.25000E+00 2.52000E+02 2.37852E+00
 -1      6555-4.31600E+00 2.52000E+02 2.37852E+00
 -1      6556-4.31600E+00 2.52000E+02 8.33333E-01
 -1      6557-4.31600E+00 2.52000E+02-8.33333E-01
 -1      6558-5.28300E+00 2.52000E+02-1.54519E+00
 -1      6559-5.28300E+00 2.52000E+02 1.54519E+00
 -1      6560-6.25000E+00 2.52000E+02-8.33333E-01
 -1      6561-6.25000E+00 2.52000E+02 8.33333E-01
 -1      6562-8.18400E+00 2.50326E+02 3.09038E+00
 -1      6563-8.18400E+00 2.50326E+02-8.88178E-16
 -1      6564-8.18400E+00 2.50326E+02-3.09038E+00
 -1      6565-7.70050E+00 2.51163E+02-4.04519E+00
 -1      6566-8.66750E+00 2.49488E+02-4.04519E+00
 -1      6567-8.66750E+00 2.49488E+02-2.37852E+00
 -1      6568-7.70050E+00 2.51163E+02-2.37852E+00
 -1      6569-7.70050E+00 2.51163E+02 4.04519E+00
 -1      6570-8.66750E+00 2.49488E+02 4.04519E+00
 -1      6571-8.66750E+00 2.49488E+02 2.37852E+00
 -1      6572-7.70050E+00 2.51163E+02 2.37852E+00
 -1      6573-7.70050E+00 2.51163E+02 8.33333E-01
 -1      6574-7.70050E+00 2.51163E+02-8.33333E-01
 -1      6575-8.18400E+00 2.50326E+02-1.54519E+00
 -1      6576-8.18400E+00 2.50326E+02 1.54519E+00
 -1      6577-8.66750E+00 2.49488E+02 8.33333E-01
 -1      6578-8.66750E+00 2.49488E+02-8.33333E-01
 -1      6579-1.08255E+01 2.47684E+02-3.09038E+00
 -1      6580-1.08255E+01 2.47684E+02 0.00000E+00
 -1      6581-1.08255E+01 2.47684E+02 3.09038E+00
 -1      6582-9.98825E+00 2.48167E+02-4.04519E+00
 -1      6583-1.16628E+01 2.47201E+02-4.04519E+00
 -1      6584-1.16628E+01 2.47201E+02-2.37852E+00
 -1      6585-9.98825E+00 2.48167E+02-2.37852E+00
 -1      6586-9.98825E+00 2.48167E+02 4.04519E+00
 -1      6587-1.16628E+01 2.47201E+02 4.04519E+00
 -1      6588-1.16628E+01 2.47201E+02 2.37852E+00
 -1      6589-9.98825E+00 2.48167E+02 2.37852E+00
 -1      6590-9.98825E+00 2.48167E+02 8.33333E-01
 -1      6591-9.98825E+00 2.48167E+02-8.33333E-01
 -1      6592-1.08255E+01 2.47684E+02-1.54519E+00
 -1      6593-1.08255E+01 2.47684E+02 1.54519E+00
 -1      6594-1.16628E+01 2.47201E+02 8.33333E-01
 -1      6595-1.16628E+01 2.47201E+02-8.33333E-01
 -1      6596-1.25000E+01 2.44783E+02-3.09038E+00
 -1      6597-1.25000E+01 2.44783E+02 3.09038E+00
 -1      6598-1.25000E+01 2.44783E+02 0.00000E+00
 -1      6599-1.25000E+01 2.45750E+02-4.04519E+00
 -1      6600-1.25000E+01 2.43816E+02-4.04519E+00
 -1      6601-1.25000E+01 2.43816E+02-2.37852E+00
 -1      6602-1.25000E+01 2.45750E+02-2.37852E+00
 -1      6603-1.25000E+01 2.45750E+02 4.04519E+00
 -1      6604-1.25000E+01 2.43816E+02 4.04519E+00
 -1      6605-1.25000E+01 2.43816E+02 2.37852E+00
 -1      6606-1.25000E+01 2.45750E+02 2.37852E+00
 -1      6607-1.25000E+01 2.45750E+02 8.33333E-01
 -1      6608-1.25000E+01 2.45750E+02-8.33333E-01
 -1      6609-1.25000E+01 2.44783E+02-1.54519E+00
 -1      6610-1.25000E+01 2.44783E+02 1.54519E+00
 -1      6611-1.25000E+01 2.43816E+02 8.33333E-01
 -1      6612-1.25000E+01 2.43816E+02-8.33333E-01
 -1      6613-1.34670E+01 2.41174E+02 0.00000E+00
 -1      6614-1.34670E+01 2.41174E+02-3.09038E+00
 -1      6615-1.34670E+01 2.41174E+02 3.09038E+00
 -1      6616-1.29835E+01 2.42012E+02-4.04519E+00
 -1      6617-1.39505E+01 2.40337E+02-4.04519E+00
 -1      6618-1.39505E+01 2.40337E+02-2.37852E+00
 -1      6619-1.29835E+01 2.42012E+02-2.37852E+00
 -1      6620-1.29835E+01 2.42012E+02 4.04519E+00
 -1      6621-1.39505E+01 2.40337E+02 4.04519E+00
 -1      6622-1.39505E+01 2.40337E+02 2.37852E+00
 -1      6623-1.29835E+01 2.42012E+02 2.37852E+00
 -1      6624-1.29835E+01 2.42012E+02 8.33333E-01
 -1      6625-1.29835E+01 2.42012E+02-8.33333E-01
 -1      6626-1.34670E+01 2.41174E+02-1.54519E+00
 -1      6627-1.34670E+01 2.41174E+02 1.54519E+00
 -1      6628-1.39505E+01 2.40337E+02 8.33333E-01
 -1      6629-1.39505E+01 2.40337E+02-8.33333E-01
 -1      6630-1.34670E+01 2.37826E+02-3.09038E+00
 -1      6631-1.34670E+01 2.37826E+02 3.09038E+00
 -1      6632-1.34670E+01 2.37826E+02 0.00000E+00
 -1      6633-1.39505E+01 2.38663E+02-4.04519E+00
 -1      6634-1.29835E+01 2.36988E+02-4.04519E+00
 -1      6635-1.29835E+01 2.36988E+02-2.37852E+00
 -1      6636-1.39505E+01 2.38663E+02-2.37852E+00
 -1      6637-1.29835E+01 2.36988E+02 4.04519E+00
 -1      6638-1.39505E+01 2.38663E+02 4.04519E+00
 -1      6639-1.39505E+01 2.38663E+02 2.37852E+00
 -1      6640-1.29835E+01 2.36988E+02 2.37852E+00
 -1      6641-1.39505E+01 2.38663E+02 8.33333E-01
 -1      6642-1.39505E+01 2.38663E+02-8.33333E-01
 -1      6643-1.34670E+01 2.37826E+02-1.54519E+00
 -1      6644-1.34670E+01 2.37826E+02 1.54519E+00
 -1      6645-1.29835E+01 2.36988E+02 8.33333E-01
 -1      6646-1.29835E+01 2.36988E+02-8.33333E-01
 -1      6647-1.25000E+01 2.34217E+02-3.09038E+00
 -1      6648-1.25000E+01 2.34217E+02 3.09038E+00
 -1      6649-1.25000E+01 2.34217E+02 0.00000E+00
 -1      6650-1.25000E+01 2.35184E+02-4.04519E+00
 -1      6651-1.25000E+01 2.33250E+02-4.04519E+00
 -1      6652-1.25000E+01 2.33250E+02-2.37852E+00
 -1      6653-1.25000E+01 2.35184E+02-2.37852E+00
 -1      6654-1.25000E+01 2.33250E+02 4.04519E+00
 -1      6655-1.25000E+01 2.35184E+02 4.04519E+00
 -1      6656-1.25000E+01 2.35184E+02 2.37852E+00
 -1      6657-1.25000E+01 2.33250E+02 2.37852E+00
 -1      6658-1.25000E+01 2.35184E+02 8.33333E-01
 -1      6659-1.25000E+01 2.35184E+02-8.33333E-01
 -1      6660-1.25000E+01 2.34217E+02-1.54519E+00
 -1      6661-1.25000E+01 2.34217E+02 1.54519E+00
 -1      6662-1.25000E+01 2.33250E+02 8.33333E-01
 -1      6663-1.25000E+01 2.33250E+02-8.33333E-01
 -1      6664-1.08255E+01 2.31316E+02 0.00000E+00
 -1      6665-1.08255E+01 2.31316E+02 3.09038E+00
 -1      6666-1.08255E+01 2.31316E+02-3.09038E+00
 -1      6667-1.16628E+01 2.31799E+02-4.04519E+00
 -1      6668-9.98825E+00 2.30833E+02-4.04519E+00
 -1      6669-9.98825E+00 2.30833E+02-2.37852E+00
 -1      6670-1.16628E+01 2.31799E+02-2.37852E+00
 -1      6671-1.16628E+01 2.31799E+02 4.04519E+00
 -1      6672-9.98825E+00 2.30833E+02 4.04519E+00
 -1      6673-9.98825E+00 2.30833E+02 2.37852E+00
 -1      6674-1.16628E+01 2.31799E+02 2.37852E+00
 -1      6675-1.16628E+01 2.31799E+02 8.33333E-01
 -1      6676-1.16628E+01 2.31799E+02-8.33333E-01
 -1      6677-1.08255E+01 2.31316E+02-1.54519E+00
 -1      6678-1.08255E+01 2.31316E+02 1.54519E+00
 -1      6679-9.98825E+00 2.30833E+02 8.33333E-01
 -1      6680-9.98825E+00 2.30833E+02-8.33333E-01
 -1      6681-8.18400E+00 2.28674E+02 8.88178E-16
 -1      6682-8.18400E+00 2.28674E+02-3.09038E+00
 -1      6683-8.18400E+00 2.28674E+02 3.09038E+00
 -1      6684-8.66750E+00 2.29512E+02-4.04519E+00
 -1      6685-7.70050E+00 2.27837E+02-4.04519E+00
 -1      6686-7.70050E+00 2.27837E+02-2.37852E+00
 -1      6687-8.66750E+00 2.29512E+02-2.37852E+00
 -1      6688-8.66750E+00 2.29512E+02 4.04519E+00
 -1      6689-7.70050E+00 2.27837E+02 4.04519E+00
 -1      6690-7.70050E+00 2.27837E+02 2.37852E+00
 -1      6691-8.66750E+00 2.29512E+02 2.37852E+00
 -1      6692-8.66750E+00 2.29512E+02 8.33333E-01
 -1      6693-8.66750E+00 2.29512E+02-8.33333E-01
 -1      6694-8.18400E+00 2.28674E+02-1.54519E+00
 -1      6695-8.18400E+00 2.28674E+02 1.54519E+00
 -1      6696-7.70050E+00 2.27837E+02 8.33333E-01
 -1      6697-7.70050E+00 2.27837E+02-8.33333E-01
 -1      6698-5.28300E+00 2.27000E+02-3.09038E+00
 -1      6699-5.28300E+00 2.27000E+02 3.09038E+00
 -1      6700-5.28300E+00 2.27000E+02 8.88178E-16
 -1      6701-6.25000E+00 2.27000E+02-4.04519E+00
 -1      6702-4.31600E+00 2.27000E+02-4.04519E+00
 -1      6703-4.31600E+00 2.27000E+02-2.37852E+00
 -1      6704-6.25000E+00 2.27000E+02-2.37852E+00
 -1      6705-6.25000E+00 2.27000E+02 4.04519E+00
 -1      6706-4.31600E+00 2.27000E+02 4.04519E+00
 -1      6707-4.31600E+00 2.27000E+02 2.37852E+00
 -1      6708-6.25000E+00 2.27000E+02 2.37852E+00
 -1      6709-6.25000E+00 2.27000E+02 8.33333E-01
 -1      6710-6.25000E+00 2.27000E+02-8.33333E-01
 -1      6711-5.28300E+00 2.27000E+02-1.54519E+00
 -1      6712-5.28300E+00 2.27000E+02 1.54519E+00
 -1      6713-4.31600E+00 2.27000E+02 8.33333E-01
 -1      6714-4.31600E+00 2.27000E+02-8.33333E-01
 -1      6715-1.67450E+00 2.26033E+02 0.00000E+00
 -1      6716-1.67450E+00 2.26033E+02-3.09038E+00
 -1      6717-1.67450E+00 2.26033E+02 3.09038E+00
 -1      6718-2.51175E+00 2.26516E+02-4.04519E+00
 -1      6719-8.37250E-01 2.25549E+02-4.04519E+00
 -1      6720-8.37250E-01 2.25549E+02-2.37852E+00
 -1      6721-2.51175E+00 2.26516E+02-2.37852E+00
 -1      6722-8.37250E-01 2.25549E+02 4.04519E+00
 -1      6723-2.51175E+00 2.26516E+02 4.04519E+00
 -1      6724-8.37250E-01 2.25549E+02 2.37852E+00
 -1      6725-2.51175E+00 2.26516E+02 2.37852E+00
 -1      6726-2.51175E+00 2.26516E+02 8.33333E-01
 -1      6727-2.51175E+00 2.26516E+02-8.33333E-01
 -1      6728-1.67450E+00 2.26033E+02-1.54519E+00
 -1      6729-1.67450E+00 2.26033E+02 1.54519E+00
 -1      6730-8.37250E-01 2.25549E+02-8.33333E-01
 -1      6731-8.37250E-01 2.25549E+02 8.33333E-01
 -1      6732 1.67450E+00 2.26033E+02 0.00000E+00
 -1      6733 1.67450E+00 2.26033E+02-3.09038E+00
 -1      6734 1.67450E+00 2.26033E+02 3.09038E+00
 -1      6735 8.37250E-01 2.25549E+02-4.04519E+00
 -1      6736 2.51175E+00 2.26516E+02-4.04519E+00
 -1      6737 2.51175E+00 2.26516E+02-2.37852E+00
 -1      6738 8.37250E-01 2.25549E+02-2.37852E+00
 -1      6739 8.37250E-01 2.25549E+02 4.04519E+00
 -1      6740 2.51175E+00 2.26516E+02 4.04519E+00
 -1      6741 2.51175E+00 2.26516E+02 2.37852E+00
 -1      6742 8.37250E-01 2.25549E+02 2.37852E+00
 -1      6743 8.37250E-01 2.25549E+02 8.33333E-01
 -1      6744 8.37250E-01 2.25549E+02-8.33333E-01
 -1      6745 1.67450E+00 2.26033E+02-1.54519E+00
 -1      6746 1.67450E+00 2.26033E+02 1.54519E+00
 -1      6747 2.51175E+00 2.26516E+02 8.33333E-01
 -1      6748 2.51175E+00 2.26516E+02-8.33333E-01
 -1      6749 5.28300E+00 2.27000E+02-3.09038E+00
 -1      6750 5.28300E+00 2.27000E+02 8.88178E-16
 -1      6751 5.28300E+00 2.27000E+02 3.09038E+00
 -1      6752 4.31600E+00 2.27000E+02-4.04519E+00
 -1      6753 6.25000E+00 2.27000E+02-4.04519E+00
 -1      6754 6.25000E+00 2.27000E+02-2.37852E+00
 -1      6755 4.31600E+00 2.27000E+02-2.37852E+00
 -1      6756 4.31600E+00 2.27000E+02 4.04519E+00
 -1      6757 6.25000E+00 2.27000E+02 4.04519E+00
 -1      6758 6.25000E+00 2.27000E+02 2.37852E+00
 -1      6759 4.31600E+00 2.27000E+02 2.37852E+00
 -1      6760 4.31600E+00 2.27000E+02 8.33333E-01
 -1      6761 4.31600E+00 2.27000E+02-8.33333E-01
 -1      6762 5.28300E+00 2.27000E+02-1.54519E+00
 -1      6763 5.28300E+00 2.27000E+02 1.54519E+00
 -1      6764 6.25000E+00 2.27000E+02 8.33333E-01
 -1      6765 6.25000E+00 2.27000E+02-8.33333E-01
 -1      6766 8.18400E+00 2.28674E+02 0.00000E+00
 -1      6767 8.18400E+00 2.28674E+02-3.09038E+00
 -1      6768 8.18400E+00 2.28674E+02 3.09038E+00
 -1      6769 7.70050E+00 2.27837E+02-4.04519E+00
 -1      6770 8.66750E+00 2.29512E+02-4.04519E+00
 -1      6771 8.66750E+00 2.29512E+02-2.37852E+00
 -1      6772 7.70050E+00 2.27837E+02-2.37852E+00
 -1      6773 8.66750E+00 2.29512E+02 4.04519E+00
 -1      6774 7.70050E+00 2.27837E+02 4.04519E+00
 -1      6775 8.66750E+00 2.29512E+02 2.37852E+00
 -1      6776 7.70050E+00 2.27837E+02 2.37852E+00
 -1      6777 7.70050E+00 2.27837E+02 8.33333E-01
 -1      6778 7.70050E+00 2.27837E+02-8.33333E-01
 -1      6779 8.18400E+00 2.28674E+02-1.54519E+00
 -1      6780 8.18400E+00 2.28674E+02 1.54519E+00
 -1      6781 8.66750E+00 2.29512E+02-8.33333E-01
 -1      6782 8.66750E+00 2.29512E+02 8.33333E-01
 -1      6783 1.08255E+01 2.31316E+02-3.09038E+00
 -1      6784 1.08255E+01 2.31316E+02 3.09038E+00
 -1      6785 1.08255E+01 2.31316E+02 0.00000E+00
 -1      6786 9.98825E+00 2.30833E+02-4.04519E+00
 -1      6787 1.16628E+01 2.31799E+02-4.04519E+00
 -1      6788 1.16628E+01 2.31799E+02-2.37852E+00
 -1      6789 9.98825E+00 2.30833E+02-2.37852E+00
 -1      6790 9.98825E+00 2.30833E+02 4.04519E+00
 -1      6791 1.16628E+01 2.31799E+02 4.04519E+00
 -1      6792 1.16628E+01 2.31799E+02 2.37852E+00
 -1      6793 9.98825E+00 2.30833E+02 2.37852E+00
 -1      6794 9.98825E+00 2.30833E+02 8.33333E-01
 -1      6795 9.98825E+00 2.30833E+02-8.33333E-01
 -1      6796 1.08255E+01 2.31316E+02-1.54519E+00
 -1      6797 1.08255E+01 2.31316E+02 1.54519E+00
 -1      6798 1.16628E+01 2.31799E+02 8.33333E-01
 -1      6799 1.16628E+01 2.31799E+02-8.33333E-01
 -1      6800 1.25000E+01 2.34217E+02-3.09038E+00
 -1      6801 1.25000E+01 2.34217E+02 3.09038E+00
 -1      6802 1.25000E+01 2.34217E+02 0.00000E+00
 -1      6803 1.25000E+01 2.33250E+02-4.04519E+00
 -1      6804 1.25000E+01 2.35184E+02-4.04519E+00
 -1      6805 1.25000E+01 2.35184E+02-2.37852E+00
 -1      6806 1.25000E+01 2.33250E+02-2.37852E+00
 -1      6807 1.25000E+01 2.33250E+02 4.04519E+00
 -1      6808 1.25000E+01 2.35184E+02 4.04519E+00
 -1      6809 1.25000E+01 2.35184E+02 2.37852E+00
 -1      6810 1.25000E+01 2.33250E+02 2.37852E+00
 -1      6811 1.25000E+01 2.33250E+02 8.33333E-01
 -1      6812 1.25000E+01 2.33250E+02-8.33333E-01
 -1      6813 1.25000E+01 2.34217E+02-1.54519E+00
 -1      6814 1.25000E+01 2.34217E+02 1.54519E+00
 -1      6815 1.25000E+01 2.35184E+02 8.33333E-01
 -1      6816 1.25000E+01 2.35184E+02-8.33333E-01
 -1      6817 1.34670E+01 2.37826E+02-3.09038E+00
 -1      6818 1.34670E+01 2.37826E+02 3.09038E+00
 -1      6819 1.34670E+01 2.37826E+02-8.88178E-16
 -1      6820 1.29835E+01 2.36988E+02-4.04519E+00
 -1      6821 1.39505E+01 2.38663E+02-4.04519E+00
 -1      6822 1.39505E+01 2.38663E+02-2.37852E+00
 -1      6823 1.29835E+01 2.36988E+02-2.37852E+00
 -1      6824 1.39505E+01 2.38663E+02 4.04519E+00
 -1      6825 1.29835E+01 2.36988E+02 4.04519E+00
 -1      6826 1.39505E+01 2.38663E+02 2.37852E+00
 -1      6827 1.29835E+01 2.36988E+02 2.37852E+00
 -1      6828 1.29835E+01 2.36988E+02 8.33333E-01
 -1      6829 1.29835E+01 2.36988E+02-8.33333E-01
 -1      6830 1.34670E+01 2.37826E+02-1.54519E+00
 -1      6831 1.34670E+01 2.37826E+02 1.54519E+00
 -1      6832 1.39505E+01 2.38663E+02-8.33333E-01
 -1      6833 1.39505E+01 2.38663E+02 8.33333E-01
 -1      6834 1.34670E+01 2.41174E+02-3.09038E+00
 -1      6835 1.34670E+01 2.41174E+02 3.09038E+00
 -1      6836 1.34670E+01 2.41174E+02 0.00000E+00
 -1      6837 1.39505E+01 2.40337E+02-4.04519E+00
 -1      6838 1.29835E+01 2.42012E+02-4.04519E+00
 -1      6839 1.29835E+01 2.42012E+02-2.37852E+00
 -1      6840 1.39505E+01 2.40337E+02-2.37852E+00
 -1      6841 1.39505E+01 2.40337E+02 4.04519E+00
 -1      6842 1.29835E+01 2.42012E+02 4.04519E+00
 -1      6843 1.29835E+01 2.42012E+02 2.37852E+00
 -1      6844 1.39505E+01 2.40337E+02 2.37852E+00
 -1      6845 1.39505E+01 2.40337E+02 8.33333E-01
 -1      6846 1.39505E+01 2.40337E+02-8.33333E-01
 -1      6847 1.34670E+01 2.41174E+02-1.54519E+00
 -1      6848 1.34670E+01 2.41174E+02 1.54519E+00
 -1      6849 1.29835E+01 2.42012E+02 8.33333E-01
 -1      6850 1.29835E+01 2.42012E+02-8.33333E-01
 -1      6851 1.25000E+01 2.44783E+02-3.09038E+00
 -1      6852 1.25000E+01 2.44783E+02 3.09038E+00
 -1      6853 1.25000E+01 2.44783E+02 0.00000E+00
 -1      6854 1.25000E+01 2.43816E+02-4.04519E+00
 -1      6855 1.25000E+01 2.45750E+02-4.04519E+00
 -1      6856 1.25000E+01 2.45750E+02-2.37852E+00
 -1      6857 1.25000E+01 2.43816E+02-2.37852E+00
 -1      6858 1.25000E+01 2.43816E+02 4.04519E+00
 -1      6859 1.25000E+01 2.45750E+02 4.04519E+00
 -1      6860 1.25000E+01 2.45750E+02 2.37852E+00
 -1      6861 1.25000E+01 2.43816E+02 2.37852E+00
 -1      6862 1.25000E+01 2.43816E+02 8.33333E-01
 -1      6863 1.25000E+01 2.43816E+02-8.33333E-01
 -1      6864 1.25000E+01 2.44783E+02-1.54519E+00
 -1      6865 1.25000E+01 2.44783E+02 1.54519E+00
 -1      6866 1.25000E+01 2.45750E+02 8.33333E-01
 -1      6867 1.25000E+01 2.45750E+02-8.33333E-01
 -1      6868 1.08255E+01 2.47684E+02-3.09038E+00
 -1      6869 1.08255E+01 2.47684E+02 3.09038E+00
 -1      6870 1.08255E+01 2.47684E+02 8.88178E-16
 -1      6871 1.16628E+01 2.47201E+02-4.04519E+00
 -1      6872 9.98825E+00 2.48167E+02-4.04519E+00
 -1      6873 9.98825E+00 2.48167E+02-2.37852E+00
 -1      6874 1.16628E+01 2.47201E+02-2.37852E+00
 -1      6875 1.16628E+01 2.47201E+02 4.04519E+00
 -1      6876 9.98825E+00 2.48167E+02 4.04519E+00
 -1      6877 9.98825E+00 2.48167E+02 2.37852E+00
 -1      6878 1.16628E+01 2.47201E+02 2.37852E+00
 -1      6879 9.98825E+00 2.48167E+02 8.33333E-01
 -1      6880 9.98825E+00 2.48167E+02-8.33333E-01
 -1      6881 1.08255E+01 2.47684E+02-1.54519E+00
 -1      6882 1.08255E+01 2.47684E+02 1.54519E+00
 -1      6883 1.16628E+01 2.47201E+02 8.33333E-01
 -1      6884 1.16628E+01 2.47201E+02-8.33333E-01
 -1      6885-2.99259E+00 1.60098E+01 1.01233E+00
 -1      6886 4.10415E+00 1.96193E+02-3.07377E-15
 -1      6887 1.34432E-01 1.68026E+02-4.79334E-15
 -1      6888 1.23336E+01 7.66530E+00 0.00000E+00
 -1      6889-8.14469E-01 1.37871E+01 8.88178E-16
 -1      6890-7.78919E+00 1.06598E+01 0.00000E+00
 -1      6891-1.82421E+01 1.07740E+01 8.88178E-16
 -1      6892-1.80344E+01 5.34510E+00 8.88178E-16
 -1      6893 4.91946E+00 1.68094E+02-8.88178E-15
 -1      6894 1.28919E+01 1.59025E+01 0.00000E+00
 -1      6895 1.60364E+01-6.35196E+00 0.00000E+00
 -1      6896 1.35260E+01 2.26846E+00-8.88178E-16
 -1      6897 8.45872E+00 1.88894E+01 8.88178E-16
 -1      6898 1.66979E+01 1.09375E+01 8.88178E-16
 -1      6899 1.89574E+01 6.75079E-01-8.88178E-16
 -1      6900-7.58817E-01 2.01570E+01-2.01116E-01
 -1      6901-9.29933E+00 2.03435E+01 8.88178E-16
 -1      6902-1.51208E+01 1.59385E+01 2.66454E-15
 -1      6903 5.53245E-01 1.99093E+02-1.99840E-14
 -1      6904 1.74756E+01 5.67767E+00-8.88178E-16
 -1      6905 8.67804E+00 1.18211E+01 0.00000E+00
 -1      6906-1.77372E+01 7.50185E-01 6.29142E-01
 -1      6907-5.37039E+00 1.76553E+01-5.41941E-02
 -1      6908-6.52226E+00 1.15534E+01 6.61535E-01
 -1      6909-1.30223E+01 1.01077E+01 8.88178E-16
 -1      6910 2.09295E+01-4.26532E+00 0.00000E+00
 -1      6911 1.60853E+01-1.20141E+01-8.88178E-16
 -1      6912 4.52541E+00 1.52298E+01 0.00000E+00
 -1      6913-2.09623E+01-3.34990E+00 8.88178E-16
 -1      6914-9.95053E+00 1.52824E+01 4.30213E-02
 -1      6915 2.98623E+00 1.03231E+01 7.33124E-02
 -1      6916 3.61656E+00 2.01502E+01 2.79949E-01
 -1      6917 1.49580E+01-2.10828E+00-8.38321E-01
 -1      6918-1.30333E+01 6.57406E+00-1.08314E+00
 -1      6919-1.31493E+01 1.97893E+01-1.02999E+00
 -1      6920-1.12913E+01 2.34837E+01-4.44089E-16
 -1      6921-2.18666E+01 7.91691E+00 7.02958E-01
 -1      6922-4.97583E+00 2.20348E+01-2.49871E-01
 -1      6923-2.22706E+01 2.68243E+00-2.81399E-01
 -1      6924 2.00846E+01-9.14824E+00 2.47257E-01
 -1      6925 1.28563E+01-1.55800E+01 5.44124E-01
 -1      6926 2.17768E+01 5.88554E+00 1.15049E+00
 -1      6927-7.20774E+00 2.22495E+02 1.45647E-02
 -1      6928 9.50844E+00 5.11688E+00 1.36031E+00
 -1      6929 8.66942E+00 7.72166E+00-1.50346E+00
 -1      6930 7.08591E+00 2.22539E+02-4.47969E-14
 -1      6931-7.00160E+00 3.71045E+01-1.47237E-02
 -1      6932 1.34782E+01-8.79517E+00-7.56033E-01
 -1      6933 2.29517E+01 1.07375E-01-1.31260E+00
 -1      6934 5.75989E+00 3.81013E+01 2.36337E-03
 -1      6935-4.32017E+00 1.37689E+01-1.58343E+00
 -1      6936-1.59254E+01 8.14418E+00 1.40220E+00
 -1      6937 1.27392E+01 1.18442E+01-1.24450E+00
 -1      6938 2.00015E+01 8.73857E+00-1.36215E+00
 -1      6939-1.81050E+01 1.41253E+01-1.71004E+00
 -1      6940-2.74441E+00 1.01055E+01-3.57350E-01
 -1      6941-1.97730E+01 1.38036E+01 1.67021E+00
 -1      6942 5.78807E+00 7.69496E+00 1.33161E+00
 -1      6943 5.03843E-01 1.66341E+01 2.76657E+00
 -1      6944 1.43686E+01 5.28476E+00-1.72102E+00
 -1      6945 1.44404E+01 5.16604E+00 1.81604E+00
 -1      6946-1.99452E+01-7.57242E+00 7.65902E-01
 -1      6947-9.86437E-01 2.24092E+02-6.66667E-01
 -1      6948-3.55279E-02 2.22209E+02-6.66667E-01
 -1      6949-9.86437E-01 2.24092E+02-2.33333E+00
 -1      6950-3.55279E-02 2.22209E+02-2.33333E+00
 -1      6951-8.53524E+00 2.19890E+02-1.50000E+00
 -1      6952-8.86945E+00 2.18227E+02-1.50000E+00
 -1      6953-7.40469E+00 2.18908E+02 0.00000E+00
 -1      6954-7.73890E+00 2.17246E+02 0.00000E+00
 -1      6955-8.86945E+00 2.18227E+02 1.50000E+00
 -1      6956 9.50909E-01 2.21235E+02-4.44089E-16
 -1      6957 9.86437E-01 2.24092E+02 2.33333E+00
 -1      6958 9.86437E-01 2.24092E+02 6.66667E-01
 -1      6959-1.66814E+01 1.33562E+01 1.77636E-15
 -1      6960-1.56978E+01 1.50149E+01 2.50000E+00
 -1      6961-1.72585E+01 1.24326E+01 2.50000E+00
 -1      6962-1.56322E+01 1.04408E+01 8.88178E-16
 -1      6963-1.46486E+01 1.20995E+01 2.50000E+00
 -1      6964-1.40715E+01 1.30231E+01 1.77636E-15
 -1      6965 8.39667E+00 1.79267E+01 2.50000E+00
 -1      6966 1.06753E+01 1.73960E+01 4.44089E-16
 -1      6967 1.06133E+01 1.64333E+01 2.50000E+00
 -1      6968 8.50634E+00 1.43926E+01 2.50000E+00
 -1      6969 1.07850E+01 1.38618E+01 0.00000E+00
 -1      6970 8.56838E+00 1.53552E+01 4.44089E-16
 -1      6971 8.39667E+00 1.79267E+01-2.50000E+00
 -1      6972 1.06133E+01 1.64333E+01-2.50000E+00
 -1      6973 8.50634E+00 1.43926E+01-2.50000E+00
 -1      6974-2.72656E+00 1.46474E+01 2.50000E+00
 -1      6975-1.72505E+00 1.35102E+01 2.50000E+00
 -1      6976-5.58045E+00 1.35305E+01 2.83077E+00
 -1      6977-4.57894E+00 1.23934E+01 2.83077E+00
 -1      6978-3.66836E+00 1.26703E+01 3.30767E-01
 -1      6979 9.21302E+00 2.39818E+01 0.00000E+00
 -1      6980 8.83587E+00 2.14356E+01-1.50000E+00
 -1      6981 8.83587E+00 2.14356E+01 1.50000E+00
 -1      6982 6.41479E+00 2.20660E+01 1.63997E+00
 -1      6983 6.03764E+00 1.95198E+01 1.39975E-01
 -1      6984 6.41479E+00 2.20660E+01-1.36003E+00
 -1      6985-2.01266E+00 2.59875E+01 0.00000E+00
 -1      6986-1.04472E-01 2.58907E+01 0.00000E+00
 -1      6987-1.38574E+00 2.30722E+01 1.39944E+00
 -1      6988 5.22447E-01 2.29755E+01-1.60056E+00
 -1      6989-1.38574E+00 2.30722E+01-1.60056E+00
 -1      6990 5.22447E-01 2.29755E+01 1.39944E+00
 -1      6991 1.80371E+00 2.57940E+01 0.00000E+00
 -1      6992 2.71013E+00 2.29721E+01 1.63997E+00
 -1      6993 2.71013E+00 2.29721E+01-1.36003E+00
 -1      6994 1.42887E+00 2.01536E+01 3.94168E-02
 -1      6995 1.09210E+01 6.39109E+00 6.80154E-01
 -1      6996 1.00157E+01 6.33441E+00 3.18015E+00
 -1      6997 1.14283E+01 7.60863E+00 2.50000E+00
 -1      6998 1.05015E+01 7.69348E+00-7.51732E-01
 -1      6999 9.59617E+00 7.63681E+00 1.74827E+00
 -1      7000 9.08893E+00 6.41927E+00-7.15783E-02
 -1      7001-3.49425E+00 2.40111E+01 1.37506E+00
 -1      7002-2.86733E+00 2.10959E+01-2.25493E-01
 -1      7003-3.49425E+00 2.40111E+01-1.62494E+00
 -1      7004 6.43002E+00 1.60969E+01 2.50000E+00
 -1      7005 6.60172E+00 1.35254E+01 0.00000E+00
 -1      7006 6.49206E+00 1.70596E+01 4.44089E-16
 -1      7007 6.43002E+00 1.60969E+01-2.50000E+00
 -1      7008 1.36646E+01 2.23327E+01 1.50000E+00
 -1      7009 1.37659E+01 1.90865E+01-2.10942E-14
 -1      7010 1.27906E+01 1.91487E+01 1.50000E+00
 -1      7011 1.05740E+01 2.06422E+01 1.50000E+00
 -1      7012 1.15493E+01 2.05800E+01-2.06501E-14
 -1      7013 1.27906E+01 1.91487E+01-1.50000E+00
 -1      7014 1.36646E+01 2.23327E+01-1.50000E+00
 -1      7015 1.05740E+01 2.06422E+01-1.50000E+00
 -1      7016 1.21378E+01 1.66208E+01-2.50000E+00
 -1      7017 1.30534E+01 1.76860E+01-2.50000E+00
 -1      7018 9.92119E+00 1.81143E+01-2.50000E+00
 -1      7019 1.08368E+01 1.91795E+01-2.50000E+00
 -1      7020 1.30534E+01 1.76860E+01 2.50000E+00
 -1      7021 1.21378E+01 1.66208E+01 2.50000E+00
 -1      7022 1.08368E+01 1.91795E+01 2.50000E+00
 -1      7023 9.92119E+00 1.81143E+01 2.50000E+00
 -1      7024 1.29521E+01 2.09322E+01-4.00000E+00
 -1      7025 1.29521E+01 2.09322E+01 4.00000E+00
 -1      7026 1.14889E-02 1.94308E+01-2.60056E+00
 -1      7027-7.86643E-01 1.69720E+01-1.00558E-01
 -1      7028-1.63368E-02 1.62459E+01-2.50000E+00
 -1      7029 2.65360E+00 1.69672E+01-2.50000E+00
 -1      7030 1.85547E+00 1.45085E+01 4.44089E-16
 -1      7031 1.88329E+00 1.76934E+01-1.00558E-01
 -1      7032-3.39893E+00 2.14410E+02 0.00000E+00
 -1      7033-3.99070E+00 2.15780E+02 0.00000E+00
 -1      7034-5.64315E+00 2.15484E+02 0.00000E+00
 -1      7035-5.05138E+00 2.14114E+02 0.00000E+00
 -1      7036 3.78660E+00 4.27749E+01 0.00000E+00
 -1      7037 3.32953E+00 4.11888E+01 0.00000E+00
 -1      7038 4.31618E+00 3.88520E+01-1.49882E+00
 -1      7039 4.77324E+00 4.04381E+01 1.50118E+00
 -1      7040 4.77324E+00 4.04381E+01-1.49882E+00
 -1      7041 1.99916E+01 8.07840E-01 2.50000E+00
 -1      7042 2.03671E+01 3.28031E+00 5.75247E-01
 -1      7043 2.14014E+01 3.41307E+00 3.07525E+00
 -1      7044 2.19888E+01 5.23988E-01 1.84370E+00
 -1      7045 2.23643E+01 2.99646E+00-8.10529E-02
 -1      7046 2.09546E+01 3.91227E-01-6.56300E-01
 -1      7047 9.09284E+00 1.95906E+01-2.50000E+00
 -1      7048 9.09284E+00 1.95906E+01 2.50000E+00
 -1      7049 2.87247E+00 3.96026E+01 0.00000E+00
 -1      7050 4.31618E+00 3.88520E+01 1.50118E+00
 -1      7051 1.99434E+01-1.79512E+00-4.44089E-16
 -1      7052 2.00657E+01-2.83068E+00 2.50000E+00
 -1      7053 1.90796E+01-3.60483E-01 2.50000E+00
 -1      7054 1.69577E+01-7.16599E-01-4.19160E-01
 -1      7055 1.70799E+01-1.75216E+00 2.08084E+00
 -1      7056 1.79437E+01-3.18680E+00-4.19160E-01
 -1      7057 2.28245E+01 3.93929E+00 3.07525E+00
 -1      7058 2.34120E+01 1.05020E+00 1.84370E+00
 -1      7059 1.09512E+01 2.31883E+01 2.22045E-16
 -1      7060 1.26893E+01 2.23949E+01 0.00000E+00
 -1      7061 3.09968E+00 1.29499E+02 0.00000E+00
 -1      7062 1.59222E+00 1.30097E+02 0.00000E+00
 -1      7063 1.88425E+00 1.28160E+02 0.00000E+00
 -1      7064 1.65068E+00 1.23545E+02 0.00000E+00
 -1      7065 1.89153E+00 1.25499E+02 0.00000E+00
 -1      7066 3.11423E+00 1.24177E+02 0.00000E+00
 -1      7067 1.89977E+00 9.00910E+01 0.00000E+00
 -1      7068 1.69011E+00 8.81474E+01 0.00000E+00
 -1      7069 3.12562E+00 8.87676E+01 0.00000E+00
 -1      7070 3.23048E+00 1.31161E+02 0.00000E+00
 -1      7071 1.72302E+00 1.31758E+02 0.00000E+00
 -1      7072 7.38907E+00 2.45509E+01 2.22045E-16
 -1      7073 4.59084E+00 2.26351E+01-1.36003E+00
 -1      7074 1.90041E+00 1.13695E+02 0.00000E+00
 -1      7075 3.12932E+00 1.12371E+02 0.00000E+00
 -1      7076 1.69774E+00 1.11737E+02 0.00000E+00
 -1      7077 1.90089E+00 1.01891E+02 0.00000E+00
 -1      7078 1.69854E+00 9.99308E+01 0.00000E+00
 -1      7079 3.12853E+00 1.00566E+02 0.00000E+00
 -1      7080 2.21675E+01-6.14452E+00-2.50000E+00
 -1      7081 2.12033E+01-5.13091E+00-2.50000E+00
 -1      7082 2.25373E+01-4.53125E+00-2.50000E+00
 -1      7083 2.12033E+01-5.13091E+00 2.50000E+00
 -1      7084 2.21675E+01-6.14452E+00 2.50000E+00
 -1      7085 2.25373E+01-4.53125E+00 2.50000E+00
 -1      7086-7.07048E+00 2.20570E+02 0.00000E+00
 -1      7087-8.53524E+00 2.19890E+02 1.50000E+00
 -1      7088-8.37239E-01 1.47386E+01-2.50000E+00
 -1      7089-8.09413E-01 1.79235E+01-2.60056E+00
 -1      7090 3.96716E+00 1.25502E+02 0.00000E+00
 -1      7091 3.97181E+00 9.00932E+01 0.00000E+00
 -1      7092 7.64067E+00 2.06141E+01-2.50000E+00
 -1      7093 8.01782E+00 2.31603E+01-4.00000E+00
 -1      7094 5.21959E+00 2.12445E+01-2.36003E+00
 -1      7095 5.56512E+00 2.51201E+01 0.00000E+00
 -1      7096 4.59084E+00 2.26351E+01 1.63997E+00
 -1      7097 3.97391E+00 1.01894E+02 0.00000E+00
 -1      7098 9.97587E+00 2.12568E+00-3.47084E+00
 -1      7099 1.12561E+01 1.19034E+00-9.70837E-01
 -1      7100 1.22458E+01 3.20380E+00-2.50000E+00
 -1      7101 1.02370E+01 4.62801E+00-1.81985E+00
 -1      7102 1.15172E+01 3.69267E+00 6.80154E-01
 -1      7103 9.24730E+00 2.61455E+00-2.90683E-01
 -1      7104 3.97465E+00 1.13698E+02 0.00000E+00
 -1      7105 3.95988E+00 1.28163E+02 0.00000E+00
 -1      7106 1.88899E+00 9.27676E+01 0.00000E+00
 -1      7107 3.10405E+00 9.41208E+01 0.00000E+00
 -1      7108 1.61708E+00 9.47912E+01 0.00000E+00
 -1      7109 3.96103E+00 9.27698E+01 0.00000E+00
 -1      7110 6.61995E+00 4.81004E+01 0.00000E+00
 -1      7111 5.94199E+00 4.96987E+01 0.00000E+00
 -1      7112 5.22365E+00 4.80706E+01 0.00000E+00
 -1      7113 2.74627E+00 1.03219E+02 0.00000E+00
 -1      7114 1.89025E+00 1.04572E+02 0.00000E+00
 -1      7115 3.10724E+00 1.05927E+02 0.00000E+00
 -1      7116 3.96326E+00 1.04574E+02 0.00000E+00
 -1      7117 1.62122E+00 1.06598E+02 0.00000E+00
 -1      7118 1.89053E+00 1.16375E+02 0.00000E+00
 -1      7119 3.10955E+00 1.17732E+02 0.00000E+00
 -1      7120 3.96476E+00 1.16378E+02 0.00000E+00
 -1      7121-1.52922E+01 4.02505E+00 8.33333E-01
 -1      7122-1.61720E+01 5.27991E+00 2.50000E+00
 -1      7123-1.34298E+01 3.95987E+00 3.33333E+00
 -1      7124-1.42377E+01 5.42459E+00 1.53443E+00
 -1      7125-1.51174E+01 6.67946E+00 3.20110E+00
 -1      7126-1.69799E+01 6.74464E+00 7.01099E-01
 -1      7127 7.33829E+00 4.97285E+01 0.00000E+00
 -1      7128 8.01624E+00 4.81301E+01 0.00000E+00
 -1      7129 1.62424E+00 1.18404E+02 0.00000E+00
 -1      7130 1.29951E+01 8.28601E+00 2.50000E+00
 -1      7131 1.43928E+01 8.21816E+00 2.50000E+00
 -1      7132 1.40485E+01 7.03637E+00 3.40802E+00
 -1      7133 1.54462E+01 6.96853E+00 3.40802E+00
 -1      7134 1.33870E+01 6.41567E+00 9.08018E-01
 -1      7135 1.12081E+01 2.13433E+01-4.00000E+00
 -1      7136 1.12081E+01 2.13433E+01 4.00000E+00
 -1      7137-6.16068E+00 2.17198E+02 0.00000E+00
 -1      7138-5.82647E+00 2.18860E+02 0.00000E+00
 -1      7139 3.19632E+00 7.23523E+01 0.00000E+00
 -1      7140 1.50047E+00 7.14941E+01 0.00000E+00
 -1      7141 2.93144E+00 7.07215E+01 0.00000E+00
 -1      7142-9.86437E-01 2.24092E+02 2.33333E+00
 -1      7143-1.02197E+00 2.21235E+02 4.44089E-16
 -1      7144-1.97287E+00 2.23118E+02 8.88178E-16
 -1      7145 1.21470E+01 1.51744E+01 2.50000E+00
 -1      7146 1.00400E+01 1.31337E+01 2.50000E+00
 -1      7147 1.21470E+01 1.51744E+01-2.50000E+00
 -1      7148 1.00400E+01 1.31337E+01-2.50000E+00
 -1      7149 3.23542E+00 1.22595E+02 0.00000E+00
 -1      7150-8.92308E+00 6.52236E+00 3.53588E+00
 -1      7151-8.59516E+00 9.29947E+00 2.50000E+00
 -1      7152-8.11712E+00 7.88273E+00 1.03588E+00
 -1      7153-1.07337E+01 7.60665E+00 1.03588E+00
 -1      7154-1.04057E+01 1.03838E+01 4.44089E-16
 -1      7155-1.12117E+01 9.02339E+00 2.50000E+00
 -1      7156 3.43863E+00 8.46357E+00-2.46334E+00
 -1      7157 3.15171E+00 7.51988E+00-1.21334E+00
 -1      7158 3.60411E+00 5.66038E+00-3.75000E+00
 -1      7159 4.83955E+00 7.14952E+00-1.83420E+00
 -1      7160 4.55263E+00 6.20583E+00-5.84197E-01
 -1      7161 4.38715E+00 9.00902E+00 7.02459E-01
 -1      7162-1.71891E+01 8.89768E+00-2.50000E+00
 -1      7163-1.81383E+01 8.05953E+00 8.88178E-16
 -1      7164-1.70852E+01 6.18325E+00-2.50000E+00
 -1      7165-1.60307E+01 7.58279E+00-1.79890E+00
 -1      7166-1.70837E+01 9.45907E+00 7.01099E-01
 -1      7167 3.97668E+00 4.91510E+01 0.00000E+00
 -1      7168 3.86121E+00 4.70072E+01 0.00000E+00
 -1      7169-5.02624E+00 6.11900E+01 0.00000E+00
 -1      7170-5.28950E+00 6.27920E+01 0.00000E+00
 -1      7171-3.77997E+00 6.34270E+01 0.00000E+00
 -1      7172-3.51671E+00 6.18250E+01 0.00000E+00
 -1      7173-7.10558E-02 2.19351E+02 0.00000E+00
 -1      7174-3.55279E-02 2.22209E+02 2.33333E+00
 -1      7175 8.81426E-01 1.43773E+01-2.50000E+00
 -1      7176-7.22137E+00 2.15532E+02 0.00000E+00
 -1      7177 1.38786E+01 1.40107E+01 2.50000E+00
 -1      7178 1.38904E+01 1.61987E+01 2.50000E+00
 -1      7179 1.57816E+01 1.15282E+01 2.50000E+00
 -1      7180 1.57934E+01 1.37162E+01 2.50000E+00
 -1      7181 1.47949E+01 1.34200E+01 4.44089E-16
 -1      7182 1.79602E+00 8.65515E+01 0.00000E+00
 -1      7183 3.23152E+00 8.71717E+01 0.00000E+00
 -1      7184-8.59516E+00 9.29947E+00-2.50000E+00
 -1      7185-1.12117E+01 9.02339E+00-2.50000E+00
 -1      7186-1.12172E+01 7.25658E+00-3.04157E+00
 -1      7187-1.30278E+01 8.34087E+00-5.41571E-01
 -1      7188-1.04112E+01 8.61696E+00-5.41571E-01
 -1      7189 2.19918E+00 1.94274E+01-2.36003E+00
 -1      7190 4.07098E+00 1.76900E+01 1.39975E-01
 -1      7191 8.47551E-02 1.30694E+02 0.00000E+00
 -1      7192 3.76788E-01 1.28757E+02 0.00000E+00
 -1      7193 4.69502E+00 5.07791E+01 0.00000E+00
 -1      7194 3.24019E+00 1.10786E+02 0.00000E+00
 -1      7195 3.23660E+00 9.89774E+01 0.00000E+00
 -1      7196 4.64266E-01 8.94708E+01 0.00000E+00
 -1      7197 2.54608E-01 8.75271E+01 0.00000E+00
 -1      7198-5.41240E-01 6.60079E+01 0.00000E+00
 -1      7199 4.96237E-01 6.40728E+01 0.00000E+00
 -1      7200 1.21252E+00 6.55776E+01 0.00000E+00
 -1      7201 1.87127E-01 1.22914E+02 0.00000E+00
 -1      7202 4.27974E-01 1.24867E+02 0.00000E+00
 -1      7203 4.68834E-01 1.13061E+02 0.00000E+00
 -1      7204 2.66164E-01 1.11103E+02 0.00000E+00
 -1      7205 5.91342E+00 4.64492E+01 0.00000E+00
 -1      7206 4.70901E-01 1.01256E+02 0.00000E+00
 -1      7207 2.68551E-01 9.92958E+01 0.00000E+00
 -1      7208 3.22436E+00 9.57549E+01 0.00000E+00
 -1      7209 7.41500E-01 2.41976E+01-4.00000E+00
 -1      7210-5.39764E-01 2.13791E+01-2.60056E+00
 -1      7211 1.64792E+00 2.13757E+01-2.36003E+00
 -1      7212 2.52231E+00 6.44515E+01 0.00000E+00
 -1      7213 7.30972E+00 4.64790E+01 0.00000E+00
 -1      7214 3.22915E+00 1.07564E+02 0.00000E+00
 -1      7215 1.74312E+00 1.08235E+02 0.00000E+00
 -1      7216-9.57234E+00 6.23438E+00-3.08829E+00
 -1      7217-8.76637E+00 7.59475E+00-5.88294E-01
 -1      7218-1.13884E+01 5.55186E+00-1.12986E+00
 -1      7219 1.76328E+01-2.66838E-01 2.50000E+00
 -1      7220 1.56331E+01-1.65852E+00 2.08084E+00
 -1      7221-2.00001E+00 6.29975E+01 0.00000E+00
 -1      7222-3.03748E+00 6.49325E+01 0.00000E+00
 -1      7223-1.92891E+00 5.26934E+01 0.00000E+00
 -1      7224-3.18275E+00 5.45580E+01 0.00000E+00
 -1      7225-3.69310E+00 5.30099E+01 0.00000E+00
 -1      7226-8.61672E+00 6.63369E+00-3.90575E+00
 -1      7227-7.81075E+00 7.99406E+00-1.40575E+00
 -1      7228 2.28482E+01 5.54738E+00-1.92475E+00
 -1      7229 2.15141E+01 4.79322E+00-1.92475E+00
 -1      7230 2.21016E+01 1.90414E+00-3.15630E+00
 -1      7231 2.34356E+01 2.65830E+00-3.15630E+00
 -1      7232-5.39764E-01 2.13791E+01 2.39944E+00
 -1      7233 7.41500E-01 2.41976E+01 4.00000E+00
 -1      7234 1.64792E+00 2.13757E+01 2.63997E+00
 -1      7235 3.23307E+00 1.19372E+02 0.00000E+00
 -1      7236-3.15272E+00 5.16441E+01 0.00000E+00
 -1      7237-5.17725E+00 5.21377E+01 0.00000E+00
 -1      7238-3.97055E+00 3.93337E+01 0.00000E+00
 -1      7239-4.67631E+00 4.08816E+01 0.00000E+00
 -1      7240-5.32273E+00 3.84676E+01 0.00000E+00
 -1      7241-6.02849E+00 4.00156E+01 0.00000E+00
 -1      7242 1.26671E+01 4.71195E+00-3.36051E+00
 -1      7243 1.39473E+01 3.77661E+00-8.60510E-01
 -1      7244 1.19385E+01 5.20082E+00-1.80356E-01
 -1      7245 5.99330E+00 6.21917E+00-2.00173E+00
 -1      7246 6.28023E+00 7.16287E+00-3.25173E+00
 -1      7247 7.22874E+00 7.70831E+00-8.59298E-02
 -1      7248 1.65333E+00 6.96925E+01 0.00000E+00
 -1      7249 2.22370E-01 7.04652E+01 0.00000E+00
 -1      7250 3.61647E+00 6.90385E+01 0.00000E+00
 -1      7251 3.36128E+00 1.32822E+02 0.00000E+00
 -1      7252 8.01782E+00 2.31603E+01 4.00000E+00
 -1      7253 7.64067E+00 2.06141E+01 2.50000E+00
 -1      7254 5.21959E+00 2.12445E+01 2.63997E+00
 -1      7255 7.59185E+00 1.92666E+01-2.50000E+00
 -1      7256 5.17077E+00 1.98970E+01-2.36003E+00
 -1      7257 7.93875E-01 6.71206E+01 0.00000E+00
 -1      7258 2.75701E+00 6.64666E+01 0.00000E+00
 -1      7259 6.19387E+00 2.37295E+01-4.00000E+00
 -1      7260-1.31903E+00 1.29508E+02 0.00000E+00
 -1      7261-1.02700E+00 1.27571E+02 0.00000E+00
 -1      7262 1.45761E+01 1.99257E+01 2.50000E+00
 -1      7263 1.45761E+01 1.99257E+01 4.00000E+00
 -1      7264 1.44146E+01 1.81422E+01 1.50000E+00
 -1      7265 1.44146E+01 1.81422E+01-6.23542E-14
 -1      7266 1.45761E+01 1.99257E+01-4.00000E+00
 -1      7267 1.45761E+01 1.99257E+01-2.50000E+00
 -1      7268 1.44146E+01 1.81422E+01-1.50000E+00
 -1      7269 3.23305E+00 1.42956E+02 0.00000E+00
 -1      7270 1.72956E+00 1.43563E+02 0.00000E+00
 -1      7271 3.10099E+00 1.41280E+02 0.00000E+00
 -1      7272 1.59749E+00 1.41887E+02 0.00000E+00
 -1      7273 1.16496E+01 5.90222E+00-2.50000E+00
 -1      7274 1.33511E+01 6.47503E+00-8.60510E-01
 -1      7275-5.15524E+00 5.39328E+01 0.00000E+00
 -1      7276 1.46142E-01 8.56628E+01 0.00000E+00
 -1      7277 1.68755E+00 8.46871E+01 0.00000E+00
 -1      7278 4.55099E+00 4.53858E+01 0.00000E+00
 -1      7279-4.30508E+00 3.72902E+01 0.00000E+00
 -1      7280 8.82732E+00 7.31237E+00 3.18015E+00
 -1      7281 8.40781E+00 8.61476E+00 1.74827E+00
 -1      7282-9.55716E+00 2.48820E+01 0.00000E+00
 -1      7283-1.04242E+01 2.41828E+01 1.50000E+00
 -1      7284-1.04242E+01 2.41828E+01-1.50000E+00
 -1      7285-7.26650E+00 2.34584E+01-1.62494E+00
 -1      7286-8.13356E+00 2.27593E+01-1.24935E-01
 -1      7287-7.26650E+00 2.34584E+01 1.37506E+00
 -1      7288 1.98959E+00 4.25039E+01 0.00000E+00
 -1      7289 1.53253E+00 4.09178E+01 0.00000E+00
 -1      7290 6.68821E-01 1.26821E+02 0.00000E+00
 -1      7291 1.32606E+00 3.88236E+01 0.00000E+00
 -1      7292 3.55136E+00 1.50987E+01-2.50000E+00
 -1      7293 1.76535E+00 7.31250E+01 0.00000E+00
 -1      7294 3.46120E+00 7.39832E+01 0.00000E+00
 -1      7295 6.73924E-01 9.14145E+01 0.00000E+00
 -1      7296-3.69445E+00 2.12826E+02 0.00000E+00
 -1      7297-5.34691E+00 2.12530E+02 0.00000E+00
 -1      7298-2.72282E+00 1.28322E+02 0.00000E+00
 -1      7299 1.77186E+00 1.21963E+02 0.00000E+00
 -1      7300 1.63028E-01 1.20995E+02 0.00000E+00
 -1      7301 6.73251E-01 1.03217E+02 0.00000E+00
 -1      7302-6.16217E+00 3.77861E+01-1.50736E+00
 -1      7303-6.16217E+00 3.77861E+01 1.49264E+00
 -1      7304-5.14451E+00 3.66086E+01 1.49264E+00
 -1      7305-2.33079E+00 2.15439E+02 0.00000E+00
 -1      7306 6.71505E-01 1.15019E+02 0.00000E+00
 -1      7307 3.76763E-02 8.37984E+01 0.00000E+00
 -1      7308 2.15141E+01 4.79322E+00 3.07525E+00
 -1      7309 1.99334E-01 9.73787E+01 0.00000E+00
 -1      7310 1.80661E+00 9.83424E+01 0.00000E+00
 -1      7311 4.02020E-01 9.34380E+01 0.00000E+00
 -1      7312 1.30116E-01 9.54615E+01 0.00000E+00
 -1      7313 1.76048E+00 7.49475E+01 0.00000E+00
 -1      7314 9.01528E+00 3.18185E+00-3.60575E+00
 -1      7315 8.28671E+00 3.67072E+00-4.25598E-01
 -1      7316 1.80861E+00 1.10152E+02 0.00000E+00
 -1      7317 2.00677E-01 1.09186E+02 0.00000E+00
 -1      7318 2.51493E+01-6.14718E+00-2.50000E+00
 -1      7319 2.47796E+01-7.76045E+00-2.50000E+00
 -1      7320 2.35415E+01-5.88125E+00 0.00000E+00
 -1      7321 2.47796E+01-7.76045E+00 2.50000E+00
 -1      7322 2.51493E+01-6.14718E+00 2.50000E+00
 -1      7323-1.92730E+00 2.13890E+02 0.00000E+00
 -1      7324-1.25459E+01 4.58549E+00 3.30241E+00
 -1      7325-1.28943E+01 4.36148E+00 4.15278E+00
 -1      7326-4.84287E-02 1.91567E+02 0.00000E+00
 -1      7327-1.10340E-01 1.89696E+02 0.00000E+00
 -1      7328 1.57871E+00 1.90689E+02 0.00000E+00
 -1      7329-1.73675E+00 6.13955E+01 0.00000E+00
 -1      7330 6.95097E-02 7.22668E+01 0.00000E+00
 -1      7331 1.97287E+00 2.23118E+02-8.88178E-16
 -1      7332 9.86437E-01 2.24092E+02-2.33333E+00
 -1      7333 1.45158E+01 9.30142E+00 4.44089E-16
 -1      7334 1.65750E+01 9.85428E+00 2.50000E+00
 -1      7335 1.55691E+01 8.05179E+00 9.08018E-01
 -1      7336 1.77741E+01 1.07204E+01 2.50000E+00
 -1      7337 1.89487E+01 1.15093E+01 2.50000E+00
 -1      7338 1.94259E+01 9.62091E+00 1.81892E+00
 -1      7339 2.06005E+01 1.04098E+01 1.81892E+00
 -1      7340 1.83497E+01 9.83806E+00-6.81076E-01
 -1      7341-5.11089E+00 6.45385E+01 0.00000E+00
 -1      7342 2.83692E+00 7.94244E+01 0.00000E+00
 -1      7343 4.11442E+00 8.05628E+01 0.00000E+00
 -1      7344 5.23964E+00 7.95929E+01 0.00000E+00
 -1      7345 3.96213E+00 7.84545E+01 0.00000E+00
 -1      7346 1.35190E-01 1.07269E+02 0.00000E+00
 -1      7347 4.04220E-01 1.05243E+02 0.00000E+00
 -1      7348 2.74597E+00 9.14166E+01 0.00000E+00
 -1      7349 4.81801E+00 9.14188E+01 0.00000E+00
 -1      7350 2.17451E+01-8.58598E+00-2.37637E+00
 -1      7351 2.07808E+01-7.57237E+00-2.37637E+00
 -1      7352 2.05071E+01-6.70678E+00 1.23629E-01
 -1      7353 1.57934E+01 1.37162E+01-2.50000E+00
 -1      7354 1.75718E+01 1.24541E+01-2.50000E+00
 -1      7355 1.57816E+01 1.15282E+01-2.50000E+00
 -1      7356 1.75718E+01 1.24541E+01 2.50000E+00
 -1      7357 1.34568E+00 4.40883E+01 0.00000E+00
 -1      7358 3.14269E+00 4.43593E+01 0.00000E+00
 -1      7359 4.81929E+00 1.03222E+02 0.00000E+00
 -1      7360-1.18870E+01 1.05510E+01-2.50000E+00
 -1      7361-9.27042E+00 1.08271E+01-2.50000E+00
 -1      7362-1.03511E+01 1.31384E+01-2.47849E+00
 -1      7363-8.86986E+00 1.29711E+01 2.15106E-02
 -1      7364-1.14864E+01 1.26950E+01 2.15106E-02
 -1      7365-1.16668E+00 2.42943E+01-4.00000E+00
 -1      7366-1.16668E+00 2.42943E+01 4.00000E+00
 -1      7367 2.74445E+00 1.26823E+02 0.00000E+00
 -1      7368 4.82008E+00 1.26826E+02 0.00000E+00
 -1      7369 6.46355E-02 7.40894E+01 0.00000E+00
 -1      7370 2.74574E+00 1.15021E+02 0.00000E+00
 -1      7371 4.81997E+00 1.15024E+02 0.00000E+00
 -1      7372-1.55313E-01 1.52106E+01 1.38329E+00
 -1      7373-1.27487E-01 1.83955E+01 1.28273E+00
 -1      7374 2.51462E+00 1.59319E+01 1.38329E+00
 -1      7375 2.99955E+00 2.06777E+02 0.00000E+00
 -1      7376 1.54384E+00 2.06145E+02 0.00000E+00
 -1      7377 3.13191E+00 2.05129E+02 0.00000E+00
 -1      7378-6.79903E+00 6.21569E+01 0.00000E+00
 -1      7379 9.39919E-02 1.42493E+02 0.00000E+00
 -1      7380-1.13190E+01 4.84283E+00 3.30241E+00
 -1      7381-1.16673E+01 4.61882E+00 4.15278E+00
 -1      7382 1.15384E-01 1.32524E+02 0.00000E+00
 -1      7383 1.75365E+00 1.33589E+02 0.00000E+00
 -1      7384 4.05217E-01 1.17047E+02 0.00000E+00
 -1      7385 1.38929E-01 1.19076E+02 0.00000E+00
 -1      7386 1.62417E+01 1.47177E+00-8.88178E-16
 -1      7387 1.83674E+01 1.53490E+00-2.50000E+00
 -1      7388 1.56518E+01 2.33159E+00-2.50000E+00
 -1      7389 1.60730E+01 3.83974E+00-3.36051E+00
 -1      7390 1.66630E+01 2.97992E+00-8.60510E-01
 -1      7391-1.74554E+01 1.04980E+01-2.50000E+00
 -1      7392-1.62970E+01 9.18310E+00-1.79890E+00
 -1      7393 4.96238E+00 1.31577E+02 0.00000E+00
 -1      7394 4.83158E+00 1.29916E+02 0.00000E+00
 -1      7395 3.33743E+00 8.55758E+01 0.00000E+00
 -1      7396 1.51344E+00 8.26655E+01 0.00000E+00
 -1      7397-9.27042E+00 1.08271E+01 2.50000E+00
 -1      7398-1.18870E+01 1.05510E+01 2.50000E+00
 -1      7399-1.03511E+01 1.31384E+01 2.52151E+00
 -1      7400 3.35660E+00 1.21012E+02 0.00000E+00
 -1      7401 9.00812E+00 4.81301E+01 1.50000E+00
 -1      7402 8.33016E+00 4.97285E+01 1.50000E+00
 -1      7403 9.00812E+00 4.81301E+01-1.50000E+00
 -1      7404 1.73739E+00 9.64253E+01 0.00000E+00
 -1      7405 3.34467E+00 9.73890E+01 0.00000E+00
 -1      7406 1.74776E+00 1.20044E+02 0.00000E+00
 -1      7407 5.85718E-01 7.34592E+00 3.74891E+00
 -1      7408 1.40498E+00 8.08581E+00 1.28557E+00
 -1      7409 2.17579E+00 7.89448E+00 2.53666E+00
 -1      7410 2.16697E+00 9.58318E+00 2.53666E+00
 -1      7411 1.10202E+01 2.47829E+01 1.50000E+00
 -1      7412 1.27583E+01 2.39895E+01 1.50000E+00
 -1      7413 1.27583E+01 2.39895E+01-1.50000E+00
 -1      7414 1.77664E+00 1.37214E+02 0.00000E+00
 -1      7415 1.62563E+00 1.35121E+02 0.00000E+00
 -1      7416 3.10525E+00 1.35886E+02 0.00000E+00
 -1      7417 5.97613E-02 7.59119E+01 0.00000E+00
 -1      7418 1.64062E+00 1.92560E+02 0.00000E+00
 -1      7419 3.26776E+00 1.91682E+02 0.00000E+00
 -1      7420-2.69002E+00 1.16694E+01 2.32133E+00
 -1      7421-1.77944E+00 1.19463E+01-1.78675E-01
 -1      7422-4.63333E+00 1.08295E+01 1.52092E-01
 -1      7423-1.87104E+01 2.37754E+00-2.18543E+00
 -1      7424-1.78858E+01 3.04764E+00 3.14571E-01
 -1      7425-1.88590E+01 4.67499E+00-2.50000E+00
 -1      7426-2.09771E+01 3.34366E+00-2.64070E+00
 -1      7427-2.01525E+01 4.01376E+00-1.40699E-01
 -1      7428-2.00039E+01 1.71631E+00 1.73872E-01
 -1      7429-1.48455E+01 1.01648E+01-2.50000E+00
 -1      7430-1.73869E+01 1.21737E+01-3.35502E+00
 -1      7431-1.55637E+01 1.21165E+01-8.55021E-01
 -1      7432-1.81736E+01 1.24496E+01-8.55021E-01
 -1      7433 3.35106E+00 1.09201E+02 0.00000E+00
 -1      7434-8.86945E+00 2.16737E+02-1.59219E+00
 -1      7435-8.35192E+00 2.15024E+02 1.40781E+00
 -1      7436-8.86945E+00 2.16737E+02 1.40781E+00
 -1      7437 8.52995E-02 1.44333E+02 0.00000E+00
 -1      7438 1.40650E+01 1.63918E+00-2.50000E+00
 -1      7439 1.67806E+01 8.42490E-01-2.50000E+00
 -1      7440 1.40650E+01 1.63918E+00 2.50000E+00
 -1      7441 1.56518E+01 2.33159E+00 2.50000E+00
 -1      7442 1.67806E+01 8.42490E-01 2.50000E+00
 -1      7443 1.83674E+01 1.53490E+00 2.50000E+00
 -1      7444 1.77451E+00 1.39911E+02 0.00000E+00
 -1      7445 2.71011E-01 1.40518E+02 0.00000E+00
 -1      7446-6.67836E-01 1.14093E+02 0.00000E+00
 -1      7447-2.00718E+00 1.13166E+02 0.00000E+00
 -1      7448-8.70506E-01 1.12135E+02 0.00000E+00
 -1      7449-2.00175E+00 1.01345E+02 0.00000E+00
 -1      7450-8.66600E-01 1.00321E+02 0.00000E+00
 -1      7451-6.64251E-01 1.02281E+02 0.00000E+00
 -1      7452-1.48455E+01 1.01648E+01 2.50000E+00
 -1      7453-1.74554E+01 1.04980E+01 2.50000E+00
 -1      7454-1.62970E+01 9.18310E+00 3.20110E+00
 -1      7455-1.44738E+01 9.12593E+00 7.01099E-01
 -1      7456 8.03085E-02 1.66281E+02 0.00000E+00
 -1      7457 1.07370E-01 1.67153E+02-1.50000E+00
 -1      7458 1.07370E-01 1.67153E+02 1.50000E+00
 -1      7459 2.49989E+00 1.67187E+02 1.50000E+00
 -1      7460 2.52695E+00 1.68060E+02-6.83756E-15
 -1      7461 2.49989E+00 1.67187E+02-1.50000E+00
 -1      7462 4.69059E+00 7.10298E+01 0.00000E+00
 -1      7463 1.61089E+01 3.78038E+00 3.40802E+00
 -1      7464 1.39832E+01 3.71725E+00 9.08018E-01
 -1      7465 1.66989E+01 2.92056E+00 9.08018E-01
 -1      7466 1.34829E-02 1.93439E+02 0.00000E+00
 -1      7467 1.98781E+01-4.32902E+00 2.50000E+00
 -1      7468 1.68923E+01-3.25050E+00 2.08084E+00
 -1      7469-1.90090E+01 1.04470E+01-2.50000E+00
 -1      7470-2.00517E+01 1.15264E+01-2.50000E+00
 -1      7471-1.84572E+01 1.15794E+01-2.50000E+00
 -1      7472-1.31820E+01 9.30327E+00 2.50000E+00
 -1      7473-1.24389E+01 7.91854E+00 2.50000E+00
 -1      7474 4.82880E+00 9.45206E+01 0.00000E+00
 -1      7475 5.37562E+00 6.93468E+01 0.00000E+00
 -1      7476 4.83233E+00 1.06326E+02 0.00000E+00
 -1      7477 2.62208E-02 7.98003E+01 0.00000E+00
 -1      7478 1.50771E+00 8.06665E+01 0.00000E+00
 -1      7479 3.19485E-02 8.17994E+01 0.00000E+00
 -1      7480 4.05541E+00 1.37244E+02 0.00000E+00
 -1      7481 3.36512E+00 1.44632E+02 0.00000E+00
 -1      7482 4.83514E+00 1.18130E+02 0.00000E+00
 -1      7483-3.25345E+00 6.02230E+01 0.00000E+00
 -1      7484 2.42850E+01 5.05239E+00 5.75247E-01
 -1      7485 2.53563E+01 4.71423E+00-2.50000E+00
 -1      7486 2.48724E+01 2.16331E+00-6.56300E-01
 -1      7487 2.31191E+01-8.32271E+00 1.23629E-01
 -1      7488 7.82689E+00 1.26927E+01 2.50000E+00
 -1      7489 5.75057E+00 1.43970E+01 2.50000E+00
 -1      7490 7.82689E+00 1.26927E+01-2.50000E+00
 -1      7491 5.75057E+00 1.43970E+01-2.50000E+00
 -1      7492 2.07808E+01-7.57237E+00 2.62363E+00
 -1      7493 2.17451E+01-8.58598E+00 2.62363E+00
 -1      7494 1.35284E+00 1.89065E+02 0.00000E+00
 -1      7495 3.04189E+00 1.90058E+02 0.00000E+00
 -1      7496 2.81602E+00 1.88434E+02 0.00000E+00
 -1      7497 3.16332E+00 8.35543E+01 0.00000E+00
 -1      7498-5.94633E+00 1.46043E+01 3.03670E-01
 -1      7499-5.00452E+00 1.65814E+01 2.47290E+00
 -1      7500-7.66046E+00 1.64688E+01-5.58645E-03
 -1      7501-7.29459E+00 1.53950E+01 2.52151E+00
 -1      7502-8.23639E+00 1.34179E+01 3.52278E-01
 -1      7503-6.70384E+00 2.13818E+02 0.00000E+00
 -1      7504-3.01106E+00 1.42043E+02 0.00000E+00
 -1      7505-1.53071E+00 1.43295E+02 0.00000E+00
 -1      7506-1.38636E+00 1.41241E+02 0.00000E+00
 -1      7507-1.53027E+00 1.31471E+02 0.00000E+00
 -1      7508-5.06461E+00 2.02409E+02 0.00000E+00
 -1      7509-5.33694E+00 2.04265E+02 0.00000E+00
 -1      7510-7.15809E+00 2.04569E+02 0.00000E+00
 -1      7511-6.88576E+00 2.02714E+02 0.00000E+00
 -1      7512-8.89325E-01 8.86034E+01 0.00000E+00
 -1      7513-6.79668E-01 9.05471E+01 0.00000E+00
 -1      7514 1.34568E+01 2.29345E-01 2.50000E+00
 -1      7515 1.47809E+01-5.49188E-01 2.08084E+00
 -1      7516 1.42420E+01 8.00925E-02-4.19160E-01
 -1      7517 1.41728E+01-1.95902E+00 2.08084E+00
 -1      7518 4.94757E+00 1.22162E+02 0.00000E+00
 -1      7519 4.82639E+00 1.23744E+02 0.00000E+00
 -1      7520-9.38227E-01 1.23979E+02 0.00000E+00
 -1      7521-2.06358E+00 1.25045E+02 0.00000E+00
 -1      7522-6.97380E-01 1.25933E+02 0.00000E+00
 -1      7523 1.51773E+01 9.92213E+00-2.50000E+00
 -1      7524 1.29951E+01 8.28601E+00-2.50000E+00
 -1      7525 1.40126E+01 7.09574E+00-3.36051E+00
 -1      7526 1.55332E+01 8.11115E+00-8.60510E-01
 -1      7527-1.27916E+01 4.63953E+00 2.91762E-01
 -1      7528-1.55338E+01 5.95958E+00-5.41571E-01
 -1      7529-1.44793E+01 7.35912E+00 1.59528E-01
 -1      7530 4.94077E+00 9.85473E+01 0.00000E+00
 -1      7531 4.83270E+00 1.00136E+02 0.00000E+00
 -1      7532 4.94448E+00 1.10355E+02 0.00000E+00
 -1      7533 4.83361E+00 1.11940E+02 0.00000E+00
 -1      7534-2.03326E+00 8.96798E+01 0.00000E+00
 -1      7535 1.47809E+01-5.49188E-01-2.91916E+00
 -1      7536 1.72086E+00 1.45403E+02 0.00000E+00
 -1      7537 4.83486E+00 8.83348E+01 0.00000E+00
 -1      7538-6.86793E+00 3.93341E+01-1.50736E+00
 -1      7539-4.58247E+00 2.17151E+02 0.00000E+00
 -1      7540-7.24972E-02 1.87708E+02 0.00000E+00
 -1      7541-1.49170E+00 1.89020E+02 0.00000E+00
 -1      7542-2.87306E+00 1.88344E+02 0.00000E+00
 -1      7543-1.45385E+00 1.87032E+02 0.00000E+00
 -1      7544-1.65539E+00 1.90664E+02 0.00000E+00
 -1      7545 7.69109E+00 6.77399E+01 0.00000E+00
 -1      7546 7.44422E+00 6.60239E+01 0.00000E+00
 -1      7547 5.74942E+00 6.58317E+01 0.00000E+00
 -1      7548 5.99629E+00 6.75477E+01 0.00000E+00
 -1      7549 4.05327E+00 1.39941E+02 0.00000E+00
 -1      7550 2.72680E+00 1.38572E+02 0.00000E+00
 -1      7551 1.35542E+00 7.85582E+01 0.00000E+00
 -1      7552 8.30160E+00 4.64790E+01 1.50000E+00
 -1      7553-2.07751E+01 5.96090E+00 2.85148E+00
 -1      7554-1.99505E+01 6.63100E+00 3.51479E-01
 -1      7555-1.88590E+01 4.67499E+00 2.50000E+00
 -1      7556-2.09771E+01 3.34366E+00 2.35930E+00
 -1      7557-2.20686E+01 5.29967E+00 2.10780E-01
 -1      7558 2.61384E+00 3.78144E+01 0.00000E+00
 -1      7559 4.05755E+00 3.70638E+01-1.49882E+00
 -1      7560 3.23327E+00 1.34354E+02 0.00000E+00
 -1      7561-2.93405E+00 1.30284E+02 0.00000E+00
 -1      7562-1.42730E+01 1.43907E+01 2.50000E+00
 -1      7563-1.32237E+01 1.14753E+01 2.50000E+00
 -1      7564 6.66033E+00 5.13268E+01 0.00000E+00
 -1      7565-1.82369E+00 2.24576E+02 1.50000E+00
 -1      7566-1.82369E+00 2.24576E+02-1.50000E+00
 -1      7567-4.59031E+00 2.22806E+02-1.49272E+00
 -1      7568-4.44112E+00 2.24264E+02 7.28235E-03
 -1      7569-4.59031E+00 2.22806E+02 1.50728E+00
 -1      7570 7.59185E+00 1.92666E+01 2.50000E+00
 -1      7571 5.17077E+00 1.98970E+01 2.63997E+00
 -1      7572-3.99849E+00 1.38872E+02 0.00000E+00
 -1      7573-4.00143E+00 1.36795E+02 0.00000E+00
 -1      7574-5.13027E+00 1.37756E+02 0.00000E+00
 -1      7575 1.43651E+00 1.82378E+02 0.00000E+00
 -1      7576-4.31601E-03 1.83691E+02 0.00000E+00
 -1      7577 1.40617E+00 1.84408E+02 0.00000E+00
 -1      7578 2.84700E+00 1.83094E+02 0.00000E+00
 -1      7579-1.45846E+01 6.79773E+00-3.04157E+00
 -1      7580-1.48510E+01 8.39804E+00-3.04157E+00
 -1      7581 1.39068E+00 1.87078E+02 0.00000E+00
 -1      7582 1.69638E+01 7.22434E+00 2.50000E+00
 -1      7583 1.81629E+01 8.09047E+00 2.50000E+00
 -1      7584 1.70867E+01 8.30761E+00 0.00000E+00
 -1      7585 1.72084E+00 2.08164E+02 0.00000E+00
 -1      7586 1.08588E+00 1.20551E+01 3.66562E-02
 -1      7587 1.65580E+00 1.12929E+01 2.53666E+00
 -1      7588-2.44553E-01 1.30249E+01 2.50000E+00
 -1      7589-1.20952E+00 1.11841E+01 2.32133E+00
 -1      7590 1.20912E-01 1.02143E+01-1.42019E-01
 -1      7591 5.39347E+00 3.77814E+01 1.50118E+00
 -1      7592 4.05755E+00 3.70638E+01 1.50118E+00
 -1      7593 5.39347E+00 3.77814E+01-1.49882E+00
 -1      7594 2.98920E+00 8.15327E+01 0.00000E+00
 -1      7595 5.67931E+00 1.25069E+02 0.00000E+00
 -1      7596 1.17157E+01-1.65867E+00 3.08333E+00
 -1      7597 1.21013E+01-2.44619E+00 4.02778E+00
 -1      7598 1.28864E+01-2.59544E+00 1.10862E+00
 -1      7599 1.25009E+01-1.80792E+00 1.64173E-01
 -1      7600 8.81360E-02 2.05513E+02 0.00000E+00
 -1      7601 1.67620E+00 2.04497E+02 0.00000E+00
 -1      7602 7.66072E-02 1.46174E+02 0.00000E+00
 -1      7603 1.51773E+01 9.92213E+00 2.50000E+00
 -1      7604 5.68106E+00 8.96604E+01 0.00000E+00
 -1      7605 6.19387E+00 2.37295E+01 4.00000E+00
 -1      7606-2.28005E+00 1.85656E+02 0.00000E+00
 -1      7607-3.69925E+00 1.86968E+02 0.00000E+00
 -1      7608 1.80603E+00 6.29467E+01 0.00000E+00
 -1      7609 3.83210E+00 6.33254E+01 0.00000E+00
 -1      7610 2.48912E+00 1.68971E+02-1.50000E+00
 -1      7611 4.14485E+00 1.68170E+02-1.50000E+00
 -1      7612 4.14485E+00 1.68170E+02 1.50000E+00
 -1      7613 2.48912E+00 1.68971E+02 1.50000E+00
 -1      7614 1.46013E-01 1.34355E+02 0.00000E+00
 -1      7615-5.54440E+00 2.25528E+02-1.50000E+00
 -1      7616-3.74015E+00 2.25044E+02-1.50000E+00
 -1      7617-3.47875E+00 2.26516E+02 4.44089E-16
 -1      7618-6.24537E+00 2.24747E+02 7.28235E-03
 -1      7619-6.50677E+00 2.23275E+02-1.49272E+00
 -1      7620 5.67808E+00 1.01464E+02 0.00000E+00
 -1      7621 5.67894E+00 1.13266E+02 0.00000E+00
 -1      7622-3.03674E+00 1.89988E+02 0.00000E+00
 -1      7623-2.39320E+00 1.26683E+02 0.00000E+00
 -1      7624-3.74015E+00 2.25044E+02 1.50000E+00
 -1      7625-5.54440E+00 2.25528E+02 1.50000E+00
 -1      7626-6.50677E+00 2.23275E+02 1.50728E+00
 -1      7627 1.61847E-03 2.03652E+02 0.00000E+00
 -1      7628-1.38811E-02 4.01387E+01 0.00000E+00
 -1      7629-2.20349E-01 3.80445E+01 0.00000E+00
 -1      7630 3.26427E+00 2.03481E+02 0.00000E+00
 -1      7631 1.84829E+01-5.30864E+00 0.00000E+00
 -1      7632 1.74315E+01-5.37233E+00 2.50000E+00
 -1      7633 1.54972E+01-4.23012E+00-4.19160E-01
 -1      7634 2.56598E+00 2.09510E+02 0.00000E+00
 -1      7635 3.84469E+00 2.08123E+02 0.00000E+00
 -1      7636 1.55008E+01 3.97307E+00-8.88178E-16
 -1      7637 1.82165E+01 3.17637E+00-8.88178E-16
 -1      7638 1.59221E+01 5.48121E+00-8.60510E-01
 -1      7639-1.39961E+00 1.82301E+02 0.00000E+00
 -1      7640-1.42994E+00 1.84331E+02 0.00000E+00
 -1      7641-2.82524E+00 1.82941E+02 0.00000E+00
 -1      7642 3.75229E-01 6.86636E+01 0.00000E+00
 -1      7643 2.33836E+00 6.80095E+01 0.00000E+00
 -1      7644-1.46034E+00 7.97703E+00 1.07024E+00
 -1      7645-6.98348E-01 9.47440E+00 2.32133E+00
 -1      7646 1.45222E+01 3.08797E+00 3.40802E+00
 -1      7647 5.19490E+00 4.38014E+01 0.00000E+00
 -1      7648 1.26827E+01 1.70712E+00 2.50000E+00
 -1      7649 1.12520E+01 1.19584E+00 1.41406E+00
 -1      7650 1.04086E+01 6.34503E-01 3.91406E+00
 -1      7651 1.06739E+01 3.13133E+00 3.18015E+00
 -1      7652 9.24317E+00 2.62005E+00 2.09422E+00
 -1      7653-1.47268E+01 3.12550E+00 3.33333E+00
 -1      7654-1.74690E+01 4.44555E+00 2.50000E+00
 -1      7655 2.61424E+00 4.80875E+01 0.00000E+00
 -1      7656 2.72970E+00 5.02313E+01 0.00000E+00
 -1      7657-2.86671E+00 1.39988E+02 0.00000E+00
 -1      7658-2.95289E+00 3.81562E+01 0.00000E+00
 -1      7659-3.28742E+00 3.61127E+01 0.00000E+00
 -1      7660-1.59347E+00 1.92535E+02 0.00000E+00
 -1      7661-2.84307E+00 1.52770E+02 0.00000E+00
 -1      7662-3.00290E+00 1.54363E+02 0.00000E+00
 -1      7663-1.37816E+00 1.53607E+02 0.00000E+00
 -1      7664 1.58969E+00 2.02636E+02 0.00000E+00
 -1      7665 5.92463E+00 8.13526E+01 0.00000E+00
 -1      7666 7.31780E+00 8.13526E+01 0.00000E+00
 -1      7667 6.63281E+00 7.95929E+01 0.00000E+00
 -1      7668-1.01263E+01 1.68251E+01 2.52151E+00
 -1      7669-1.14490E+01 1.56834E+01 2.52151E+00
 -1      7670-1.17257E+01 1.90786E+01 1.98500E+00
 -1      7671-1.30484E+01 1.79369E+01 1.98500E+00
 -1      7672-1.15499E+01 1.75358E+01-4.93485E-01
 -1      7673-2.85126E+00 1.64637E+02 0.00000E+00
 -1      7674-3.01073E+00 1.66226E+02 0.00000E+00
 -1      7675-1.38547E+00 1.65459E+02 0.00000E+00
 -1      7676-1.54495E+00 1.67048E+02 0.00000E+00
 -1      7677-1.25356E+01 1.56104E+01 2.15106E-02
 -1      7678-1.40342E+01 1.60115E+01 2.50000E+00
 -1      7679-1.41350E+01 1.78639E+01-5.14996E-01
 -1      7680-7.68955E+00 2.52844E+01 0.00000E+00
 -1      7681-9.81738E+00 2.61488E+01 0.00000E+00
 -1      7682 3.67094E+00 1.84448E+02 0.00000E+00
 -1      7683-1.71383E+00 2.04736E+02 0.00000E+00
 -1      7684 8.02597E+00 7.95929E+01 0.00000E+00
 -1      7685-2.61234E+00 5.02782E+01 0.00000E+00
 -1      7686-4.63687E+00 5.07719E+01 0.00000E+00
 -1      7687 1.71787E+00 1.57232E+02 0.00000E+00
 -1      7688 7.71976E-02 1.56234E+02 0.00000E+00
 -1      7689 1.72743E+00 1.55442E+02 0.00000E+00
 -1      7690 3.36811E+00 1.56440E+02 0.00000E+00
 -1      7691 6.16170E+00 3.62644E+01-1.49882E+00
 -1      7692 6.16170E+00 3.62644E+01 1.50118E+00
 -1      7693 4.06680E+00 6.53404E+01 0.00000E+00
 -1      7694-1.43808E+01 2.32513E+01 2.25000E+00
 -1      7695-1.34586E+01 2.15778E+01 4.00000E+00
 -1      7696-1.46942E+01 2.12595E+01 3.25000E+00
 -1      7697-1.43828E+01 2.13612E+01 2.35004E-01
 -1      7698-1.34606E+01 1.96877E+01 1.98500E+00
 -1      7699-1.31473E+01 2.16794E+01 9.85004E-01
 -1      7700 8.67545E-02 1.54444E+02 0.00000E+00
 -1      7701 1.65750E+01 9.85428E+00-2.50000E+00
 -1      7702 1.54103E+01 7.02789E+00-3.36051E+00
 -1      7703 9.81750E+00 5.93040E+00-3.25173E+00
 -1      7704-3.20043E+00 1.91632E+02 0.00000E+00
 -1      7705 4.75646E+00 2.06323E+02 0.00000E+00
 -1      7706 7.26936E-02 1.52396E+02 0.00000E+00
 -1      7707-1.39222E+00 1.51559E+02 0.00000E+00
 -1      7708 4.84661E+00 1.41706E+02 0.00000E+00
 -1      7709 9.66018E-02 1.68937E+02 1.50000E+00
 -1      7710 9.66018E-02 1.68937E+02-1.50000E+00
 -1      7711 5.87713E-02 1.69848E+02 0.00000E+00
 -1      7712 1.64854E+00 1.80822E+02 0.00000E+00
 -1      7713 2.60221E-02 1.81661E+02 0.00000E+00
 -1      7714 4.44402E-02 1.79885E+02 0.00000E+00
 -1      7715 2.49878E+00 4.59437E+01 0.00000E+00
 -1      7716 1.10202E+01 2.47829E+01-1.50000E+00
 -1      7717 1.22121E+01 2.50934E+01-1.50000E+00
 -1      7718 1.22121E+01 2.50934E+01 1.50000E+00
 -1      7719 1.17849E+01 3.80448E-01 5.83333E-01
 -1      7720 2.68463E+00 7.73161E+01 0.00000E+00
 -1      7721-3.67534E+00 1.84266E+02 0.00000E+00
 -1      7722-1.53940E+00 1.45135E+02 0.00000E+00
 -1      7723 3.65545E+00 1.87119E+02 0.00000E+00
 -1      7724-6.47848E+00 6.02752E+01 0.00000E+00
 -1      7725 1.31979E+01 1.03755E+01 1.87775E+00
 -1      7726 1.25364E+01 9.75475E+00-6.22249E-01
 -1      7727 1.47185E+01 1.13909E+01-6.22249E-01
 -1      7728 7.07042E+00 6.95390E+01 0.00000E+00
 -1      7729-5.39889E+00 2.38608E+01 1.37506E+00
 -1      7730 3.05903E+00 1.81539E+02 0.00000E+00
 -1      7731-4.80196E+00 2.00593E+02 0.00000E+00
 -1      7732-2.99049E+00 2.00327E+02 0.00000E+00
 -1      7733-3.25314E+00 2.02143E+02 0.00000E+00
 -1      7734-5.14451E+00 3.66086E+01-1.50736E+00
 -1      7735-1.40178E+00 1.63410E+02 0.00000E+00
 -1      7736-2.99485E+00 1.78130E+02 0.00000E+00
 -1      7737-1.39205E+00 1.77315E+02 0.00000E+00
 -1      7738-2.84696E+00 1.76520E+02 0.00000E+00
 -1      7739 6.76407E-02 1.58024E+02 0.00000E+00
 -1      7740 4.95547E+00 7.26607E+01 0.00000E+00
 -1      7741 1.63350E+01-1.42515E+01-2.50000E+00
 -1      7742 1.53245E+01-1.31034E+01-2.50000E+00
 -1      7743 1.47205E+01-1.60344E+01-2.22794E+00
 -1      7744 1.37100E+01-1.48864E+01-2.22794E+00
 -1      7745 1.44708E+01-1.37971E+01 2.72062E-01
 -1      7746-1.25752E+00 6.45031E+01 0.00000E+00
 -1      7747-2.20046E-01 6.25680E+01 0.00000E+00
 -1      7748-2.29500E+00 6.64381E+01 0.00000E+00
 -1      7749 1.92587E-01 4.22330E+01 0.00000E+00
 -1      7750 1.66696E+00 1.79047E+02 0.00000E+00
 -1      7751 3.27107E+00 1.79983E+02 0.00000E+00
 -1      7752 1.93635E+01 4.68929E+00-2.50000E+00
 -1      7753 2.01044E+01 2.18799E+00-2.50000E+00
 -1      7754 1.96262E+01 5.78161E+00 5.75247E-01
 -1      7755-3.76353E+00 1.51302E+02 0.00000E+00
 -1      7756 2.06020E+00 1.83921E+01 1.52326E+00
 -1      7757 6.28582E-02 1.78110E+02 0.00000E+00
 -1      7758-2.61836E+00 4.01997E+01 0.00000E+00
 -1      7759-6.73425E+00 4.15636E+01 0.00000E+00
 -1      7760 5.89562E+00 7.78781E+01 0.00000E+00
 -1      7761-4.64489E+00 5.54810E+01 0.00000E+00
 -1      7762-6.61738E+00 5.48558E+01 0.00000E+00
 -1      7763 1.87385E+01 7.20812E+00-6.81076E-01
 -1      7764-2.16346E+01 1.15233E+01 4.44089E-16
 -1      7765-2.34442E+01 1.22757E+01-2.50000E+00
 -1      7766-2.18639E+01 1.00979E+01-2.14852E+00
 -1      7767-2.34469E+01 1.00947E+01 3.51479E-01
 -1      7768-2.00543E+01 9.34543E+00 3.51479E-01
 -1      7769 2.97022E-01 1.36449E+02 0.00000E+00
 -1      7770 4.83532E+00 1.35498E+02 0.00000E+00
 -1      7771-6.62042E+00 6.39035E+01 0.00000E+00
 -1      7772 1.81733E+01 6.00948E+00 2.50000E+00
 -1      7773 4.29910E-02 7.78561E+01 0.00000E+00
 -1      7774-1.74690E+01 4.44555E+00-2.50000E+00
 -1      7775-1.73204E+01 2.14810E+00-2.18543E+00
 -1      7776-8.48990E-02 2.01792E+02 0.00000E+00
 -1      7777 7.28878E+00 7.78781E+01 0.00000E+00
 -1      7778-1.57458E+00 1.22125E+02 0.00000E+00
 -1      7779-1.53163E+00 1.10309E+02 0.00000E+00
 -1      7780-1.59712E+00 1.08392E+02 0.00000E+00
 -1      7781-1.59664E+00 9.65778E+01 0.00000E+00
 -1      7782-1.52742E+00 9.84949E+01 0.00000E+00
 -1      7783 7.17651E+00 9.31593E+01 0.00000E+00
 -1      7784 6.30874E+00 9.14085E+01 0.00000E+00
 -1      7785 7.79948E+00 9.13983E+01 0.00000E+00
 -1      7786 1.22174E+00 1.27804E+01 2.50000E+00
 -1      7787 3.12209E+00 1.10484E+01 2.53666E+00
 -1      7788 6.30895E+00 1.03210E+02 0.00000E+00
 -1      7789 7.17801E+00 1.04962E+02 0.00000E+00
 -1      7790 7.79860E+00 1.03198E+02 0.00000E+00
 -1      7791-1.87598E+01 8.93202E+00-2.50000E+00
 -1      7792-1.86559E+01 6.21758E+00-2.50000E+00
 -1      7793 7.17954E+00 1.16763E+02 0.00000E+00
 -1      7794 6.30916E+00 1.15011E+02 0.00000E+00
 -1      7795 7.79835E+00 1.14998E+02 0.00000E+00
 -1      7796 7.18065E+00 1.28565E+02 0.00000E+00
 -1      7797 6.30895E+00 1.26812E+02 0.00000E+00
 -1      7798 7.79782E+00 1.26798E+02 0.00000E+00
 -1      7799 8.84555E+00 6.77671E+01 1.50000E+00
 -1      7800 8.59867E+00 6.60512E+01 1.50000E+00
 -1      7801 8.84555E+00 6.77671E+01-1.50000E+00
 -1      7802-3.77351E+00 1.63182E+02 0.00000E+00
 -1      7803 7.17179E+00 8.96501E+01 0.00000E+00
 -1      7804-4.68373E+00 1.88710E+02 0.00000E+00
 -1      7805 7.98165E+00 2.81734E+01 0.00000E+00
 -1      7806 7.36518E+00 2.60636E+01 2.22045E-16
 -1      7807 9.16523E+00 2.70072E+01 0.00000E+00
 -1      7808 4.94911E+00 9.61547E+01 0.00000E+00
 -1      7809-8.37239E-01 1.47386E+01 2.50000E+00
 -1      7810-4.67852E+00 1.53020E+02 0.00000E+00
 -1      7811-1.53482E+00 8.67443E+01 0.00000E+00
 -1      7812 3.01672E+00 1.53114E+02 0.00000E+00
 -1      7813 1.55174E+00 1.53779E+02 0.00000E+00
 -1      7814 3.19241E+00 1.54777E+02 0.00000E+00
 -1      7815 1.40054E+01 2.94420E+00-2.50000E+00
 -1      7816 4.95424E+00 1.07963E+02 0.00000E+00
 -1      7817 7.16774E+00 1.01452E+02 0.00000E+00
 -1      7818-6.40965E+00 2.05996E+02 0.00000E+00
 -1      7819 4.95866E+00 1.19770E+02 0.00000E+00
 -1      7820 7.16812E+00 1.13253E+02 0.00000E+00
 -1      7821-2.64827E+00 2.23180E+01-2.62494E+00
 -1      7822 1.22174E+00 1.27804E+01-2.50000E+00
 -1      7823-2.44553E-01 1.30249E+01-2.50000E+00
 -1      7824 1.65580E+00 1.12929E+01-2.46334E+00
 -1      7825 3.12209E+00 1.10484E+01-2.46334E+00
 -1      7826 7.16818E+00 1.25055E+02 0.00000E+00
 -1      7827-2.64827E+00 2.23180E+01 2.37506E+00
 -1      7828-4.68479E+00 1.64907E+02 0.00000E+00
 -1      7829 2.34120E+01 1.05020E+00-3.15630E+00
 -1      7830-1.80034E+00 2.02876E+02 0.00000E+00
 -1      7831-2.86965E+00 1.37911E+02 0.00000E+00
 -1      7832-1.40406E+00 1.75250E+02 0.00000E+00
 -1      7833-1.40886E+00 8.25779E+01 0.00000E+00
 -1      7834-1.41459E+00 8.05789E+01 0.00000E+00
 -1      7835-1.51392E+01 2.06698E+01 4.00000E+00
 -1      7836-1.48279E+01 2.07714E+01 9.85004E-01
 -1      7837-4.70569E+00 5.93082E+01 0.00000E+00
 -1      7838 2.65133E-01 2.07532E+02 0.00000E+00
 -1      7839 3.07291E+00 7.56497E+01 0.00000E+00
 -1      7840-1.55836E+00 1.80701E+02 0.00000E+00
 -1      7841-7.74437E+00 3.38305E+01 0.00000E+00
 -1      7842-6.34891E+00 3.23276E+01 0.00000E+00
 -1      7843-8.34532E+00 3.23648E+01 0.00000E+00
 -1      7844 1.76265E+01 4.03620E+00-2.50000E+00
 -1      7845-1.12127E+00 7.88460E+01 0.00000E+00
 -1      7846 2.00657E+01-2.83068E+00-2.50000E+00
 -1      7847 1.90796E+01-3.60483E-01-2.50000E+00
 -1      7848 1.70799E+01-1.75216E+00-2.91916E+00
 -1      7849-5.64785E+00 2.92621E+01 0.00000E+00
 -1      7850-4.88055E+00 2.72547E+01 0.00000E+00
 -1      7851-3.93915E+00 2.88227E+01 0.00000E+00
 -1      7852-1.20934E+00 1.39265E+02 0.00000E+00
 -1      7853-4.81489E+00 1.78444E+02 0.00000E+00
 -1      7854-4.66700E+00 1.76834E+02 0.00000E+00
 -1      7855-3.15541E+00 1.44097E+02 0.00000E+00
 -1      7856-8.39952E+00 6.22096E+01 1.50000E+00
 -1      7857-8.39952E+00 6.22096E+01-1.50000E+00
 -1      7858-8.39952E+00 6.02230E+01 1.50000E+00
 -1      7859-8.39952E+00 6.02230E+01-1.50000E+00
 -1      7860-1.80239E+01 1.39474E+01 3.33511E+00
 -1      7861-1.90076E+01 1.22888E+01 8.35107E-01
 -1      7862-1.74469E+01 1.48710E+01 8.35107E-01
 -1      7863-2.98399E+00 1.81340E+02 0.00000E+00
 -1      7864-6.61343E+00 2.00859E+02 0.00000E+00
 -1      7865-3.51579E+00 2.03960E+02 0.00000E+00
 -1      7866 1.44267E+01 4.45235E+00-3.36051E+00
 -1      7867 5.83214E+00 1.10721E+01 3.66562E-02
 -1      7868 4.98099E+00 1.19437E+01-2.46334E+00
 -1      7869 3.75582E+00 1.27764E+01 3.66562E-02
 -1      7870-3.77682E+00 1.75069E+02 0.00000E+00
 -1      7871 1.37219E+00 7.66140E+01 0.00000E+00
 -1      7872 7.19734E+00 6.43080E+01 0.00000E+00
 -1      7873-2.97590E+00 2.74051E+01 0.00000E+00
 -1      7874-2.07234E+00 2.94702E+01 0.00000E+00
 -1      7875-4.14583E+00 3.05566E+01 0.00000E+00
 -1      7876 5.60160E+00 2.07670E+02 0.00000E+00
 -1      7877-4.64550E+00 1.28880E+02 0.00000E+00
 -1      7878-7.27251E+00 1.39547E+02 0.00000E+00
 -1      7879-6.55032E+00 1.37756E+02 0.00000E+00
 -1      7880-7.97038E+00 1.37756E+02 0.00000E+00
 -1      7881 1.06944E+01 1.85628E+00 5.00637E-01
 -1      7882 8.68559E+00 3.28049E+00 1.18079E+00
 -1      7883-1.64329E+00 8.48799E+01 0.00000E+00
 -1      7884-6.00957E+00 1.19797E+01 2.83077E+00
 -1      7885 9.01298E+00 7.95929E+01 1.50000E+00
 -1      7886 8.30481E+00 8.13526E+01-1.50000E+00
 -1      7887 9.01298E+00 7.95929E+01-1.50000E+00
 -1      7888-9.59886E-01 6.75509E+01 0.00000E+00
 -1      7889-5.85246E+00 1.39547E+02 0.00000E+00
 -1      7890-1.53994E+00 1.78925E+02 0.00000E+00
 -1      7891 5.51472E+00 6.38167E+01 0.00000E+00
 -1      7892-7.19957E+00 1.99113E+02 0.00000E+00
 -1      7893-6.25076E+00 1.97417E+02 0.00000E+00
 -1      7894-7.78572E+00 1.97368E+02 0.00000E+00
 -1      7895 6.54521E+00 9.73130E+01 0.00000E+00
 -1      7896-9.80070E+00 1.93557E+01 2.50000E+00
 -1      7897-9.62493E+00 1.78129E+01 2.15106E-02
 -1      7898-1.12243E+01 2.00664E+01-5.14996E-01
 -1      7899-6.66140E+00 5.12656E+01 0.00000E+00
 -1      7900 6.54766E+00 1.09117E+02 0.00000E+00
 -1      7901 4.96333E+00 1.33966E+02 0.00000E+00
 -1      7902 6.56443E+00 1.32721E+02 0.00000E+00
 -1      7903-1.89381E+01 8.84727E-01-2.18543E+00
 -1      7904-2.12048E+01 1.85085E+00-2.64070E+00
 -1      7905 4.79941E+00 8.23225E+01 0.00000E+00
 -1      7906 4.97353E+00 8.43441E+01 0.00000E+00
 -1      7907 1.53625E+00 1.58768E+02 0.00000E+00
 -1      7908 3.18648E+00 1.57976E+02 0.00000E+00
 -1      7909 3.00486E+00 1.59513E+02 0.00000E+00
 -1      7910 3.26767E+00 6.19091E+01 0.00000E+00
 -1      7911 4.89393E+00 6.06068E+01 0.00000E+00
 -1      7912 5.45836E+00 6.20232E+01 0.00000E+00
 -1      7913 5.00640E+00 7.50733E+01 0.00000E+00
 -1      7914 3.18713E+00 1.46162E+02 0.00000E+00
 -1      7915 1.54287E+00 1.46933E+02 0.00000E+00
 -1      7916 3.00913E+00 1.47693E+02 0.00000E+00
 -1      7917 6.54964E+00 1.20920E+02 0.00000E+00
 -1      7918 1.94362E+01 7.53993E+00 1.81892E+00
 -1      7919-1.54755E+00 1.56990E+02 0.00000E+00
 -1      7920-1.53799E+00 1.55200E+02 0.00000E+00
 -1      7921 3.12783E+00 1.78352E+02 0.00000E+00
 -1      7922 2.98458E+00 1.76721E+02 0.00000E+00
 -1      7923 1.52372E+00 1.77416E+02 0.00000E+00
 -1      7924-1.17695E+00 2.06484E+02 0.00000E+00
 -1      7925 4.45936E+00 3.52268E+01 0.00000E+00
 -1      7926 2.35521E+00 3.60262E+01 0.00000E+00
 -1      7927 6.56352E+00 3.44275E+01 0.00000E+00
 -1      7928-1.66129E+01 1.50319E+01-8.55021E-01
 -1      7929 4.92070E+00 1.92870E+02 0.00000E+00
 -1      7930 6.51804E+00 1.91665E+02 0.00000E+00
 -1      7931 4.86509E+00 1.90476E+02 0.00000E+00
 -1      7932 8.81426E-01 1.43773E+01 2.50000E+00
 -1      7933-2.66830E+00 1.11341E+02 0.00000E+00
 -1      7934-1.49964E+00 1.33301E+02 0.00000E+00
 -1      7935 1.51029E+00 1.94151E+02 0.00000E+00
 -1      7936 3.13743E+00 1.93272E+02 0.00000E+00
 -1      7937 3.00710E+00 1.94863E+02 0.00000E+00
 -1      7938-2.66257E+00 9.95197E+01 0.00000E+00
 -1      7939-2.26875E+00 7.78916E+01 0.00000E+00
 -1      7940-1.10450E+00 7.69017E+01 0.00000E+00
 -1      7941-3.14529E+00 1.32247E+02 0.00000E+00
 -1      7942-1.52922E+01 4.02505E+00-8.33333E-01
 -1      7943-1.27916E+01 4.63953E+00-1.37490E+00
 -1      7944-1.32237E+01 1.14753E+01-2.50000E+00
 -1      7945-1.42730E+01 1.43907E+01-2.50000E+00
 -1      7946-1.16878E+01 1.40626E+01-2.47849E+00
 -1      7947-1.41856E+00 5.42415E+01 0.00000E+00
 -1      7948-2.67241E+00 5.61061E+01 0.00000E+00
 -1      7949-1.64723E-01 5.23769E+01 0.00000E+00
 -1      7950-2.02243E+01 4.85465E+00-2.50000E+00
 -1      7951-2.23424E+01 3.52332E+00-2.64070E+00
 -1      7952 7.63579E+00 1.85785E+02 0.00000E+00
 -1      7953 7.05672E+00 1.84044E+02 0.00000E+00
 -1      7954 6.06534E+00 1.85794E+02 0.00000E+00
 -1      7955-1.44464E+01 1.77622E+01 2.50000E+00
 -1      7956-1.58136E+01 1.88460E+01 1.50000E+00
 -1      7957 4.63922E+00 1.88853E+02 0.00000E+00
 -1      7958-2.87259E+00 1.35834E+02 0.00000E+00
 -1      7959 4.91330E+00 2.02273E+02 0.00000E+00
 -1      7960 4.88882E+00 2.04675E+02 0.00000E+00
 -1      7961 4.97868E+00 1.43381E+02 0.00000E+00
 -1      7962 4.96533E+00 1.45771E+02 0.00000E+00
 -1      7963-8.35192E+00 2.15024E+02-1.59219E+00
 -1      7964-1.89381E+01 8.84727E-01 2.81457E+00
 -1      7965-1.93498E+01-1.29986E+00 3.14571E-01
 -1      7966-2.05506E+01-1.16531E+00 2.50000E+00
 -1      7967-2.12048E+01 1.85085E+00 2.35930E+00
 -1      7968-2.16164E+01-3.33732E-01-1.40699E-01
 -1      7969 4.96621E+00 1.57576E+02 0.00000E+00
 -1      7970 6.57733E+00 1.56323E+02 0.00000E+00
 -1      7971 4.97922E+00 1.55187E+02 0.00000E+00
 -1      7972-3.04868E+00 1.93211E+02 0.00000E+00
 -1      7973-2.89693E+00 1.94790E+02 0.00000E+00
 -1      7974-1.44172E+00 1.94114E+02 0.00000E+00
 -1      7975-2.44204E+00 2.07456E+02 0.00000E+00
 -1      7976-2.97892E+00 2.05708E+02 0.00000E+00
 -1      7977 4.94077E+00 8.67389E+01 0.00000E+00
 -1      7978-1.53770E+00 2.01059E+02 0.00000E+00
 -1      7979-1.74401E+00 1.20468E+01 2.50000E+00
 -1      7980-2.69993E+00 1.23191E+02 0.00000E+00
 -1      7981-1.21228E+00 1.37188E+02 0.00000E+00
 -1      7982-6.44181E+00 6.56500E+01 0.00000E+00
 -1      7983-4.36840E+00 6.60441E+01 0.00000E+00
 -1      7984 6.23024E+00 2.09436E+02 0.00000E+00
 -1      7985 7.77065E+00 2.09401E+02 0.00000E+00
 -1      7986 7.14201E+00 2.07636E+02 0.00000E+00
 -1      7987 1.27557E+01 6.86233E+00-2.50000E+00
 -1      7988 1.37731E+01 5.67206E+00-3.36051E+00
 -1      7989-1.16878E+01 1.40626E+01 2.52151E+00
 -1      7990 8.95888E+00 1.38588E+02 1.50000E+00
 -1      7991 7.25500E+00 1.40361E+02 0.00000E+00
 -1      7992 8.29612E+00 1.40358E+02-1.50000E+00
 -1      7993 8.95888E+00 1.38588E+02-1.50000E+00
 -1      7994 7.91776E+00 1.38590E+02 0.00000E+00
 -1      7995-1.59867E+00 1.20206E+02 0.00000E+00
 -1      7996-7.20585E+00 2.10159E+02 0.00000E+00
 -1      7997-8.60292E+00 2.11662E+02-1.50784E+00
 -1      7998-8.60292E+00 2.11662E+02 1.49216E+00
 -1      7999-8.35192E+00 2.13491E+02 1.49216E+00
 -1      8000-6.95484E+00 2.11989E+02 0.00000E+00
 -1      8001 7.04911E+00 1.87528E+02 0.00000E+00
 -1      8002 5.47866E+00 1.87537E+02 0.00000E+00
 -1      8003 8.25669E+00 2.03691E+02 1.50000E+00
 -1      8004 8.25669E+00 2.05657E+02 1.50000E+00
 -1      8005 8.25669E+00 2.03691E+02-1.50000E+00
 -1      8006 8.25669E+00 2.05657E+02-1.50000E+00
 -1      8007 6.51337E+00 2.05870E+02 0.00000E+00
 -1      8008 7.28348E+00 1.99322E+02 0.00000E+00
 -1      8009 8.28116E+00 1.99322E+02-1.50000E+00
 -1      8010 9.00232E+00 1.97578E+02 1.50000E+00
 -1      8011 8.00463E+00 1.97578E+02 0.00000E+00
 -1      8012 9.00232E+00 1.97578E+02-1.50000E+00
 -1      8013 8.95733E+00 1.50387E+02 1.50000E+00
 -1      8014 7.25250E+00 1.52161E+02 0.00000E+00
 -1      8015 8.29517E+00 1.52159E+02-1.50000E+00
 -1      8016 8.95733E+00 1.50387E+02-1.50000E+00
 -1      8017 7.91466E+00 1.50389E+02 0.00000E+00
 -1      8018 8.95632E+00 1.62185E+02 1.50000E+00
 -1      8019 8.95632E+00 1.62185E+02-1.50000E+00
 -1      8020 7.91265E+00 1.62188E+02 0.00000E+00
 -1      8021 7.25192E+00 1.63962E+02 0.00000E+00
 -1      8022 8.29559E+00 1.63959E+02-1.50000E+00
 -1      8023 2.80812E+00 2.12353E+02 0.00000E+00
 -1      8024 1.62512E+00 2.10952E+02 0.00000E+00
 -1      8025 3.74897E+00 2.10911E+02 0.00000E+00
 -1      8026 8.95484E+00 1.73984E+02 1.50000E+00
 -1      8027 8.95484E+00 1.73984E+02-1.50000E+00
 -1      8028 7.90968E+00 1.73987E+02 0.00000E+00
 -1      8029 7.24342E+00 1.75757E+02 0.00000E+00
 -1      8030 8.28858E+00 1.75754E+02-1.50000E+00
 -1      8031-1.29813E+00 9.42684E+01 0.00000E+00
 -1      8032 5.09074E+00 2.90838E+01 0.00000E+00
 -1      8033 3.38341E+00 2.88278E+01 0.00000E+00
 -1      8034 4.47426E+00 2.69740E+01 2.22045E-16
 -1      8035-6.63939E+00 5.30607E+01 0.00000E+00
 -1      8036 4.30150E+00 6.73555E+01 0.00000E+00
 -1      8037-1.07391E+01 5.83984E+00 4.94308E-01
 -1      8038-1.19078E+01 5.26516E+00 2.60843E-01
 -1      8039 4.87436E+00 1.81143E+02 0.00000E+00
 -1      8040 4.92411E+00 1.78755E+02 0.00000E+00
 -1      8041 1.59580E+01 5.42185E+00 9.08018E-01
 -1      8042 6.57365E+00 1.94059E+02 0.00000E+00
 -1      8043 8.28683E+00 1.93852E+02-1.50000E+00
 -1      8044 8.28683E+00 1.93852E+02 1.50000E+00
 -1      8045 8.28683E+00 1.91886E+02 1.50000E+00
 -1      8046 8.28683E+00 1.91886E+02-1.50000E+00
 -1      8047-1.36329E+00 1.35094E+02 0.00000E+00
 -1      8048 4.98099E+00 1.19437E+01 2.53666E+00
 -1      8049 1.14283E+01 7.60863E+00-2.50000E+00
 -1      8050 4.66233E+00 1.82698E+02 0.00000E+00
 -1      8051 3.68441E+00 2.54570E+01-2.22045E-16
 -1      8052 8.30481E+00 8.52855E+01 1.50000E+00
 -1      8053 8.30481E+00 8.33190E+01 1.50000E+00
 -1      8054 6.60962E+00 8.31123E+01 0.00000E+00
 -1      8055 8.30481E+00 8.33190E+01-1.50000E+00
 -1      8056 8.30481E+00 8.52855E+01-1.50000E+00
 -1      8057 1.61269E+01 1.78960E+01 3.50000E+00
 -1      8058 1.66131E+01 1.74847E+01 2.50000E+00
 -1      8059 1.56146E+01 1.71886E+01-4.17444E-14
 -1      8060 1.51284E+01 1.75999E+01 1.00000E+00
 -1      8061 1.61269E+01 1.78960E+01-3.50000E+00
 -1      8062 1.66131E+01 1.74847E+01-2.50000E+00
 -1      8063 1.51284E+01 1.75999E+01-1.00000E+00
 -1      8064 1.38904E+01 1.61987E+01-2.50000E+00
 -1      8065-3.14274E+00 1.79740E+02 0.00000E+00
 -1      8066-1.87104E+01 2.37754E+00 2.81457E+00
 -1      8067 1.38022E+01 1.19816E+01 1.87775E+00
 -1      8068 8.27677E+00 9.51223E+01 1.50000E+00
 -1      8069 8.27677E+00 9.70887E+01 1.50000E+00
 -1      8070 8.27677E+00 9.51223E+01-1.50000E+00
 -1      8071 8.27677E+00 9.70887E+01-1.50000E+00
 -1      8072 6.55355E+00 9.49203E+01 0.00000E+00
 -1      8073 1.53388E+00 1.49020E+02 0.00000E+00
 -1      8074-2.96293E+00 5.81646E+01 0.00000E+00
 -1      8075-1.75389E+00 3.70786E+01 0.00000E+00
 -1      8076-1.41936E+00 3.91221E+01 0.00000E+00
 -1      8077-1.58136E+01 1.88460E+01 9.62581E-14
 -1      8078-1.66088E+01 1.82915E+01 1.30000E+00
 -1      8079 6.40026E-02 1.64232E+02 0.00000E+00
 -1      8080-1.02623E+00 9.22449E+01 0.00000E+00
 -1      8081 2.09920E+01-6.57270E-01 2.50000E+00
 -1      8082 2.29892E+01-9.41121E-01 1.84370E+00
 -1      8083 2.55984E+01-4.22344E+00-2.50000E+00
 -1      8084 2.39906E+01-3.95751E+00 0.00000E+00
 -1      8085 2.50017E+01-1.77116E+00-6.56300E-01
 -1      8086 2.19406E+01-2.07897E+00-6.56300E-01
 -1      8087 2.35484E+01-2.34490E+00-3.15630E+00
 -1      8088 8.27871E+00 1.06924E+02 1.50000E+00
 -1      8089 8.27871E+00 1.08890E+02 1.50000E+00
 -1      8090 8.27871E+00 1.06924E+02-1.50000E+00
 -1      8091 8.27871E+00 1.08890E+02-1.50000E+00
 -1      8092 6.55742E+00 1.06725E+02 0.00000E+00
 -1      8093 8.89891E+00 1.26793E+02 1.50000E+00
 -1      8094 8.28174E+00 1.28560E+02-1.50000E+00
 -1      8095 8.89891E+00 1.26793E+02-1.50000E+00
 -1      8096 8.27580E+00 7.78781E+01 1.50000E+00
 -1      8097-7.33486E+00 1.89994E+01-2.70971E-02
 -1      8098-5.92298E+00 1.78634E+01 2.47290E+00
 -1      8099-7.88745E+00 1.92075E+01 2.50000E+00
 -1      8100-8.21305E+00 1.66770E+01 2.52151E+00
 -1      8101 8.89974E+00 9.13949E+01 1.50000E+00
 -1      8102 8.27677E+00 9.31559E+01-1.50000E+00
 -1      8103 8.89974E+00 9.13949E+01-1.50000E+00
 -1      8104 8.27871E+00 1.04957E+02-1.50000E+00
 -1      8105 8.89930E+00 1.03194E+02 1.50000E+00
 -1      8106 8.89930E+00 1.03194E+02-1.50000E+00
 -1      8107 8.89917E+00 1.14993E+02-1.50000E+00
 -1      8108 8.89917E+00 1.14993E+02 1.50000E+00
 -1      8109 8.28036E+00 1.16759E+02 1.50000E+00
 -1      8110-7.15573E+00 1.11066E+01 3.30767E-01
 -1      8111-6.05468E+00 1.22144E+01-7.91713E-01
 -1      8112-5.42122E+00 1.26611E+01-4.60946E-01
 -1      8113-7.13535E+00 1.45256E+01-7.70203E-01
 -1      8114-4.22552E+00 1.23584E+02 0.00000E+00
 -1      8115-3.58917E+00 1.25438E+02 0.00000E+00
 -1      8116 2.10003E+01 8.43001E+00 1.81892E+00
 -1      8117-1.48279E+01 2.07714E+01-5.14996E-01
 -1      8118-2.67876E+00 8.78206E+01 0.00000E+00
 -1      8119 6.96713E+00 8.60141E+00 3.16580E+00
 -1      8120 7.64826E+00 6.40592E+00 1.34596E+00
 -1      8121-3.81996E+00 3.42016E+01 0.00000E+00
 -1      8122-5.67705E+00 3.46975E+01 1.49264E+00
 -1      8123 8.28036E+00 1.20691E+02 1.50000E+00
 -1      8124 8.28036E+00 1.18725E+02 1.50000E+00
 -1      8125 6.56073E+00 1.18529E+02 0.00000E+00
 -1      8126 8.28036E+00 1.18725E+02-1.50000E+00
 -1      8127 8.28036E+00 1.20691E+02-1.50000E+00
 -1      8128 1.52979E+00 1.70584E+02 0.00000E+00
 -1      8129 3.00082E+00 1.71319E+02 0.00000E+00
 -1      8130 1.51982E+00 1.72650E+02 0.00000E+00
 -1      8131-1.20952E+00 1.11841E+01-2.67867E+00
 -1      8132 8.28269E+00 1.36848E+02 1.50000E+00
 -1      8133 7.24157E+00 1.36850E+02 0.00000E+00
 -1      8134 8.81789E+00 1.85782E+02 1.50000E+00
 -1      8135 8.81789E+00 1.85782E+02-1.50000E+00
 -1      8136 8.23883E+00 1.84041E+02-1.50000E+00
 -1      8137 8.28174E+00 1.32492E+02 1.50000E+00
 -1      8138 8.28174E+00 1.30526E+02 1.50000E+00
 -1      8139 6.56348E+00 1.30332E+02 0.00000E+00
 -1      8140 8.28174E+00 1.30526E+02-1.50000E+00
 -1      8141 8.28174E+00 1.32492E+02-1.50000E+00
 -1      8142-4.72068E+00 1.40663E+02 0.00000E+00
 -1      8143 1.52628E+00 1.60848E+02 0.00000E+00
 -1      8144-6.15793E+00 5.83934E+01 0.00000E+00
 -1      8145 8.28858E+00 1.79687E+02 1.50000E+00
 -1      8146 8.28858E+00 1.77721E+02 1.50000E+00
 -1      8147 6.57716E+00 1.77528E+02 0.00000E+00
 -1      8148 8.28858E+00 1.77721E+02-1.50000E+00
 -1      8149 8.28858E+00 1.79687E+02-1.50000E+00
 -1      8150 7.14098E+00 6.25144E+01 0.00000E+00
 -1      8151 8.23121E+00 1.87525E+02 1.50000E+00
 -1      8152-5.92298E+00 1.78634E+01-2.52710E+00
 -1      8153-7.88745E+00 1.92075E+01-2.50000E+00
 -1      8154-8.21305E+00 1.66770E+01-2.47849E+00
 -1      8155 2.19781E+01-3.12747E+00-2.50000E+00
 -1      8156 2.29892E+01-9.41121E-01-3.15630E+00
 -1      8157-4.87989E+00 1.92745E+02 0.00000E+00
 -1      8158-4.84742E+00 1.90354E+02 0.00000E+00
 -1      8159-8.89286E+00 1.97362E+02-1.50000E+00
 -1      8160-8.27967E+00 1.95607E+02 1.50000E+00
 -1      8161-7.17253E+00 1.95613E+02 0.00000E+00
 -1      8162-8.89286E+00 1.97362E+02 1.50000E+00
 -1      8163-2.05506E+01-1.16531E+00-2.50000E+00
 -1      8164 6.60320E+00 4.48278E+01 0.00000E+00
 -1      8165-7.74123E+00 1.30684E+01 2.83077E+00
 -1      8166-9.45537E+00 1.49329E+01 2.52151E+00
 -1      8167 8.29612E+00 1.42325E+02 1.50000E+00
 -1      8168 8.29612E+00 1.44291E+02 1.50000E+00
 -1      8169 8.29612E+00 1.42325E+02-1.50000E+00
 -1      8170 8.29612E+00 1.44291E+02-1.50000E+00
 -1      8171 6.59224E+00 1.42131E+02 0.00000E+00
 -1      8172 8.28277E+00 1.48648E+02 1.50000E+00
 -1      8173 7.24010E+00 1.48650E+02 0.00000E+00
 -1      8174-3.21601E+00 2.09349E+02 0.00000E+00
 -1      8175-9.99957E-01 2.08503E+02 0.00000E+00
 -1      8176-1.77392E+00 2.10397E+02 0.00000E+00
 -1      8177 8.27205E+00 8.96467E+01-1.50000E+00
 -1      8178-7.24919E+00 1.36054E+02 0.00000E+00
 -1      8179-5.82914E+00 1.36054E+02 0.00000E+00
 -1      8180 8.29517E+00 1.54125E+02 1.50000E+00
 -1      8181 8.29517E+00 1.56092E+02 1.50000E+00
 -1      8182 8.29517E+00 1.54125E+02-1.50000E+00
 -1      8183 8.29517E+00 1.56092E+02-1.50000E+00
 -1      8184 6.59034E+00 1.53934E+02 0.00000E+00
 -1      8185 8.28216E+00 1.60448E+02 1.50000E+00
 -1      8186 7.23848E+00 1.60450E+02 0.00000E+00
 -1      8187 1.76265E+01 4.03620E+00 2.50000E+00
 -1      8188 2.81466E+00 2.14347E+02 0.00000E+00
 -1      8189 4.67561E+00 2.12691E+02 0.00000E+00
 -1      8190 8.33016E+00 4.97285E+01-1.50000E+00
 -1      8191-2.08212E+01 9.01843E+00-2.14852E+00
 -1      8192-2.05720E+01 7.50349E+00-2.14852E+00
 -1      8193 8.26895E+00 1.13249E+02 1.50000E+00
 -1      8194 6.79807E+00 2.93397E+01 0.00000E+00
 -1      8195 6.18160E+00 2.72299E+01 2.22045E-16
 -1      8196-1.73767E+01 1.90638E+01 3.80000E+00
 -1      8197-1.65815E+01 1.96184E+01 4.00000E+00
 -1      8198-1.58886E+01 1.67108E+01 2.50000E+00
 -1      8199 4.68983E+00 2.09470E+02 0.00000E+00
 -1      8200 3.99445E+00 1.49048E+02 0.00000E+00
 -1      8201 2.51920E+00 1.50375E+02 0.00000E+00
 -1      8202-1.73204E+01 2.14810E+00 2.81457E+00
 -1      8203-1.51436E+01 1.72759E+00 1.14790E+00
 -1      8204 8.26927E+00 1.25049E+02-1.50000E+00
 -1      8205-6.08156E+00 1.85539E+02 0.00000E+00
 -1      8206-7.06604E+00 1.87281E+02 0.00000E+00
 -1      8207-7.63767E+00 1.85486E+02 0.00000E+00
 -1      8208-1.02276E+01 2.08951E+01 2.50000E+00
 -1      8209-1.15357E+01 1.99647E+01 2.50000E+00
 -1      8210-1.21526E+01 2.06181E+01 1.98500E+00
 -1      8211-1.47268E+01 3.12550E+00-3.33333E+00
 -1      8212-1.51436E+01 1.72759E+00-5.18762E-01
 -1      8213 1.83915E+01 1.62226E+01 2.50000E+00
 -1      8214 1.94663E+01 1.51651E+01 2.50000E+00
 -1      8215 1.85923E+01 1.36486E+01 4.44089E-16
 -1      8216 1.75176E+01 1.47061E+01-4.13003E-14
 -1      8217 1.83915E+01 1.62226E+01-2.50000E+00
 -1      8218 1.94663E+01 1.51651E+01-2.50000E+00
 -1      8219-3.46143E+00 1.01534E+02 0.00000E+00
 -1      8220-8.07897E+00 5.83412E+01-1.50000E+00
 -1      8221-3.46963E+00 1.13369E+02 0.00000E+00
 -1      8222-4.13076E+00 1.11543E+02 0.00000E+00
 -1      8223 5.69178E+00 1.28579E+02 0.00000E+00
 -1      8224-6.38765E+00 5.66246E+01 0.00000E+00
 -1      8225 1.44626E+01 4.39299E+00 3.40802E+00
 -1      8226 1.40498E+00 8.08581E+00-1.21443E+00
 -1      8227 2.16697E+00 9.58318E+00-2.46334E+00
 -1      8228 5.85718E-01 7.34592E+00-3.75109E+00
 -1      8229-1.46034E+00 7.97703E+00-1.42976E+00
 -1      8230-6.98348E-01 9.47440E+00-2.67867E+00
 -1      8231 5.08432E-02 1.76046E+02 0.00000E+00
 -1      8232 8.22488E+00 7.34991E+01 1.50000E+00
 -1      8233 8.22488E+00 7.15327E+01 1.50000E+00
 -1      8234 6.44975E+00 7.13382E+01 0.00000E+00
 -1      8235 8.22488E+00 7.15327E+01-1.50000E+00
 -1      8236 8.22488E+00 7.34991E+01-1.50000E+00
 -1      8237 3.99070E+00 1.60859E+02 0.00000E+00
 -1      8238 4.78087E+00 1.77124E+02 0.00000E+00
 -1      8239 3.96014E+00 1.69706E+02-1.50000E+00
 -1      8240 3.96014E+00 1.69706E+02 1.50000E+00
 -1      8241-3.17021E+00 1.67815E+02 0.00000E+00
 -1      8242 1.71389E+01-1.52927E+01-4.44089E-16
 -1      8243 1.73886E+01-1.75300E+01-2.50000E+00
 -1      8244 1.55244E+01-1.70756E+01 2.72062E-01
 -1      8245 3.98691E+00 1.72662E+02 0.00000E+00
 -1      8246 2.50592E+00 1.73993E+02 0.00000E+00
 -1      8247-8.57904E+00 2.02949E+02-1.50000E+00
 -1      8248-8.30672E+00 2.01094E+02-1.50000E+00
 -1      8249-8.57904E+00 2.02949E+02 1.50000E+00
 -1      8250-7.04352E+00 1.83737E+02 0.00000E+00
 -1      8251-4.75742E+00 1.37816E+01 8.36930E-01
 -1      8252-1.90353E+00 1.48985E+01 5.06163E-01
 -1      8253-2.56732E+00 1.37780E+01-7.91713E-01
 -1      8254-3.65638E+00 1.48893E+01-2.85550E-01
 -1      8255 1.51171E+00 1.75351E+02 0.00000E+00
 -1      8256 4.48030E-01 1.38542E+02 0.00000E+00
 -1      8257 5.68578E+00 9.31695E+01 0.00000E+00
 -1      8258-3.16274E+00 1.55956E+02 0.00000E+00
 -1      8259 5.68835E+00 1.04973E+02 0.00000E+00
 -1      8260-1.75242E+00 7.31387E+01 0.00000E+00
 -1      8261 1.54675E+00 1.65605E+02 0.00000E+00
 -1      8262 3.01320E+00 1.64930E+02 0.00000E+00
 -1      8263 1.53045E+00 1.63556E+02 0.00000E+00
 -1      8264 5.69035E+00 1.16776E+02 0.00000E+00
 -1      8265-1.28544E+00 1.06033E+02 0.00000E+00
 -1      8266 7.15688E+00 2.11216E+02 0.00000E+00
 -1      8267 1.17622E+00 2.12862E+02 0.00000E+00
 -1      8268 1.18276E+00 2.14856E+02 0.00000E+00
 -1      8269-2.92257E+00 2.16810E+02 0.00000E+00
 -1      8270-5.75007E+00 1.15600E+02 0.00000E+00
 -1      8271-7.25705E+00 1.15772E+02 0.00000E+00
 -1      8272-7.94604E+00 1.13916E+02 0.00000E+00
 -1      8273-6.43906E+00 1.13743E+02 0.00000E+00
 -1      8274 1.53768E+00 1.51730E+02 0.00000E+00
 -1      8275 7.08463E+00 6.07209E+01 0.00000E+00
 -1      8276 2.70324E+00 6.04927E+01 0.00000E+00
 -1      8277 4.80353E+00 1.53524E+02 0.00000E+00
 -1      8278 2.53327E+01 3.10614E+00-2.50000E+00
 -1      8279-4.05163E+00 2.07439E+02 0.00000E+00
 -1      8280 1.89487E+01 1.15093E+01-2.50000E+00
 -1      8281 1.77741E+01 1.07204E+01-2.50000E+00
 -1      8282 2.06005E+01 1.04098E+01-3.18108E+00
 -1      8283 1.94259E+01 9.62091E+00-3.18108E+00
 -1      8284-3.46542E-02 1.85721E+02 0.00000E+00
 -1      8285-1.01641E+00 1.04007E+02 0.00000E+00
 -1      8286-4.72813E+00 1.94324E+02 0.00000E+00
 -1      8287-1.93129E+01-4.73710E+00-2.50000E+00
 -1      8288-2.06364E+01-4.08859E+00-2.50000E+00
 -1      8289-2.01278E+01-6.19985E+00-2.11705E+00
 -1      8290-2.04537E+01-5.46116E+00 3.82951E-01
 -1      8291-1.88043E+01-6.84836E+00-2.11705E+00
 -1      8292-1.02027E+00 1.15821E+02 0.00000E+00
 -1      8293-1.28655E+00 1.17849E+02 0.00000E+00
 -1      8294-8.35192E+00 2.13491E+02-1.50784E+00
 -1      8295 3.89168E+00 1.35017E+01-2.50000E+00
 -1      8296 4.61811E+00 7.67397E+01 0.00000E+00
 -1      8297-8.81883E+00 1.85461E+02-1.50000E+00
 -1      8298-8.24720E+00 1.87256E+02 1.50000E+00
 -1      8299-8.81883E+00 1.85461E+02 1.50000E+00
 -1      8300-1.26266E+00 2.16469E+02 0.00000E+00
 -1      8301-2.35961E+00 1.14894E+02 0.00000E+00
 -1      8302-2.06740E+00 1.60708E+01 3.88329E+00
 -1      8303-1.78083E-01 1.61621E+01 3.88329E+00
 -1      8304 8.22488E+00 6.95663E+01-1.50000E+00
 -1      8305 3.97880E+00 1.75363E+02 0.00000E+00
 -1      8306-3.81562E+00 1.57587E+01 3.00616E+00
 -1      8307-2.35391E+00 1.03071E+02 0.00000E+00
 -1      8308 5.00556E+00 1.38602E+02 0.00000E+00
 -1      8309 9.18913E+00 2.54945E+01 0.00000E+00
 -1      8310-4.52544E+00 1.85592E+02 0.00000E+00
 -1      8311-1.75729E+00 7.49612E+01 0.00000E+00
 -1      8312-3.53872E+00 9.00502E+01 0.00000E+00
 -1      8313 4.78733E+00 1.47302E+02 0.00000E+00
 -1      8314 6.60913E+00 4.25403E+01 0.00000E+00
 -1      8315 4.87998E-02 1.71915E+02 0.00000E+00
 -1      8316-6.86793E+00 3.93341E+01 1.49264E+00
 -1      8317-2.37982E+00 9.13775E+01 0.00000E+00
 -1      8318-4.63730E+00 1.82465E+02 0.00000E+00
 -1      8319-8.98519E+00 1.37756E+02-1.50000E+00
 -1      8320-8.28733E+00 1.39547E+02-1.50000E+00
 -1      8321-8.98519E+00 1.37756E+02 1.50000E+00
 -1      8322 1.28156E+01 1.38734E+01-6.22249E-01
 -1      8323 2.03135E+01 8.19440E+00 3.07525E+00
 -1      8324 2.03239E+01 6.11341E+00 3.07525E+00
 -1      8325 2.08891E+01 7.31205E+00-1.05828E-01
 -1      8326-8.28409E+00 1.27637E+02-1.50000E+00
 -1      8327-8.98067E+00 1.25836E+02-1.50000E+00
 -1      8328-7.96133E+00 1.25836E+02 0.00000E+00
 -1      8329-8.98067E+00 1.25836E+02 1.50000E+00
 -1      8330-7.26475E+00 1.27637E+02 0.00000E+00
 -1      8331-8.24720E+00 1.91230E+02-1.50000E+00
 -1      8332-8.24720E+00 1.89243E+02-1.50000E+00
 -1      8333-6.49441E+00 1.89077E+02 0.00000E+00
 -1      8334-8.24720E+00 1.89243E+02 1.50000E+00
 -1      8335-8.24720E+00 1.91230E+02 1.50000E+00
 -1      8336 3.99487E+00 1.63567E+02 0.00000E+00
 -1      8337-1.39641E+00 1.70457E+02 0.00000E+00
 -1      8338-1.55572E+00 1.68832E+02 0.00000E+00
 -1      8339-3.01090E+00 1.69440E+02 0.00000E+00
 -1      8340-2.85159E+00 1.71065E+02 0.00000E+00
 -1      8341 4.79037E+00 1.94461E+02 0.00000E+00
 -1      8342 3.99825E+00 1.51758E+02 0.00000E+00
 -1      8343-4.82560E+00 2.09333E+02 0.00000E+00
 -1      8344 8.59867E+00 6.60512E+01-1.50000E+00
 -1      8345-5.66122E+00 2.07423E+02 0.00000E+00
 -1      8346-4.58850E+00 2.05691E+02 0.00000E+00
 -1      8347 4.78459E+00 1.59113E+02 0.00000E+00
 -1      8348-2.08212E+01 9.01843E+00 2.85148E+00
 -1      8349-2.18639E+01 1.00979E+01 2.85148E+00
 -1      8350-2.08171E+01 1.30412E+01 3.33511E+00
 -1      8351-2.08198E+01 1.08602E+01 1.18659E+00
 -1      8352-1.97744E+01 1.19618E+01 3.33511E+00
 -1      8353 5.76687E-02 1.60103E+02 0.00000E+00
 -1      8354 6.76199E-02 1.48260E+02 0.00000E+00
 -1      8355-6.13212E+00 7.66965E+01 0.00000E+00
 -1      8356-5.41928E+00 7.45129E+01 0.00000E+00
 -1      8357-7.26422E+00 7.50152E+01 0.00000E+00
 -1      8358-4.79605E+00 1.80864E+02 0.00000E+00
 -1      8359-1.84572E+01 1.15794E+01 2.50000E+00
 -1      8360 1.76328E+01-2.66838E-01-2.50000E+00
 -1      8361 1.56331E+01-1.65852E+00-2.91916E+00
 -1      8362-4.41517E+00 5.72498E+01 0.00000E+00
 -1      8363 1.82369E+00 2.24576E+02-1.50000E+00
 -1      8364 1.82369E+00 2.24576E+02 1.50000E+00
 -1      8365 4.52939E+00 2.22829E+02 1.50000E+00
 -1      8366 4.38020E+00 2.24286E+02-2.23984E-14
 -1      8367 4.52939E+00 2.22829E+02-1.50000E+00
 -1      8368-7.24595E+00 1.03872E+02 0.00000E+00
 -1      8369-5.74249E+00 1.03736E+02 0.00000E+00
 -1      8370-7.92804E+00 1.01996E+02 0.00000E+00
 -1      8371-6.42457E+00 1.01859E+02 0.00000E+00
 -1      8372-8.25916E+00 1.63386E+02-1.50000E+00
 -1      8373-8.87820E+00 1.61610E+02-1.50000E+00
 -1      8374-7.13736E+00 1.63401E+02 0.00000E+00
 -1      8375-7.75641E+00 1.61625E+02 0.00000E+00
 -1      8376-8.87820E+00 1.61610E+02 1.50000E+00
 -1      8377-8.58170E+00 1.24114E+02 1.50000E+00
 -1      8378-7.56237E+00 1.24114E+02 0.00000E+00
 -1      8379-7.12267E+00 1.75347E+02 0.00000E+00
 -1      8380-8.87915E+00 1.73530E+02 1.50000E+00
 -1      8381-8.24352E+00 1.75332E+02-1.50000E+00
 -1      8382-8.87915E+00 1.73530E+02-1.50000E+00
 -1      8383-7.75830E+00 1.73545E+02 0.00000E+00
 -1      8384-1.54348E+01 7.75246E-01 3.17161E-01
 -1      8385-1.55760E+01 3.13123E-01-7.93379E-01
 -1      8386 2.33245E+00 6.77999E+00-3.75000E+00
 -1      8387 8.88533E+00 2.09389E+02 1.50000E+00
 -1      8388 8.25669E+00 2.07623E+02 1.50000E+00
 -1      8389 8.88533E+00 2.09389E+02-1.50000E+00
 -1      8390 3.12437E+00 2.01888E+02 0.00000E+00
 -1      8391 2.98446E+00 2.00295E+02 0.00000E+00
 -1      8392 4.77339E+00 2.00680E+02 0.00000E+00
 -1      8393 3.96633E+00 1.66512E+02 1.50000E+00
 -1      8394 3.96633E+00 1.66512E+02-1.50000E+00
 -1      8395 2.23012E+00 1.85762E+02 0.00000E+00
 -1      8396 4.49489E+00 1.85803E+02 0.00000E+00
 -1      8397-8.25916E+00 1.65373E+02-1.50000E+00
 -1      8398-8.25916E+00 1.67359E+02-1.50000E+00
 -1      8399-8.25916E+00 1.65373E+02 1.50000E+00
 -1      8400-8.25916E+00 1.67359E+02 1.50000E+00
 -1      8401-6.51832E+00 1.65177E+02 0.00000E+00
 -1      8402-1.40638E+00 1.72523E+02 0.00000E+00
 -1      8403-3.01775E+00 1.07156E+02 0.00000E+00
 -1      8404-1.81491E+00 3.50922E+01 0.00000E+00
 -1      8405-9.34504E+00 3.41202E+01 1.50171E+00
 -1      8406-8.74409E+00 3.55859E+01 1.50171E+00
 -1      8407-7.07251E+00 3.62004E+01 1.49264E+00
 -1      8408-8.67318E+00 3.64901E+01-5.64758E-03
 -1      8409-7.67346E+00 3.47347E+01 1.49264E+00
 -1      8410-1.38853E+00 5.13276E+01 0.00000E+00
 -1      8411 2.78178E+00 1.26453E+01-2.46334E+00
 -1      8412-2.24386E+01-1.07110E+00 2.50000E+00
 -1      8413-2.30928E+01 1.94506E+00 2.35930E+00
 -1      8414-4.84426E+00 1.66496E+02 0.00000E+00
 -1      8415-1.92152E+00 2.04435E+01 2.39944E+00
 -1      8416-4.03003E+00 2.13825E+01 2.37506E+00
 -1      8417-6.58924E+00 2.76941E+01 0.00000E+00
 -1      8418-7.35654E+00 2.97014E+01 0.00000E+00
 -1      8419-1.90090E+01 1.04470E+01 2.50000E+00
 -1      8420-5.59791E+00 2.10701E+02 0.00000E+00
 -1      8421 1.90876E+00 2.01287E+02 1.50000E+00
 -1      8422 1.90876E+00 2.01287E+02-1.50000E+00
 -1      8423 2.34173E-01 2.00442E+02-1.50000E+00
 -1      8424 2.19781E+01-3.12747E+00 2.50000E+00
 -1      8425-8.24352E+00 1.77319E+02-1.50000E+00
 -1      8426-8.24352E+00 1.79305E+02-1.50000E+00
 -1      8427-8.24352E+00 1.77319E+02 1.50000E+00
 -1      8428-8.24352E+00 1.79305E+02 1.50000E+00
 -1      8429-6.48704E+00 1.77148E+02 0.00000E+00
 -1      8430-4.85673E+00 1.30843E+02 0.00000E+00
 -1      8431-8.28402E+00 1.15772E+02 1.50000E+00
 -1      8432-8.97302E+00 1.13916E+02-1.50000E+00
 -1      8433-8.97302E+00 1.13916E+02 1.50000E+00
 -1      8434 1.92331E+01 1.28954E+01 4.44089E-16
 -1      8435 2.14839E+01 1.34672E+01-2.50000E+00
 -1      8436 2.08849E+01 1.17959E+01-6.81076E-01
 -1      8437-4.83836E+00 1.54613E+02 0.00000E+00
 -1      8438 1.23728E+01-3.20689E+00 3.33333E+00
 -1      8439 1.31580E+01-3.35614E+00 4.14173E-01
 -1      8440-1.21289E+00 4.12163E+01 0.00000E+00
 -1      8441-4.55684E-01 2.13371E+02 0.00000E+00
 -1      8442-2.22283E+00 2.12307E+02 0.00000E+00
 -1      8443 6.46166E+00 1.38596E+02 0.00000E+00
 -1      8444-8.25699E+00 1.55446E+02-1.50000E+00
 -1      8445-8.25699E+00 1.53460E+02-1.50000E+00
 -1      8446-6.51398E+00 1.53270E+02 0.00000E+00
 -1      8447-8.25699E+00 1.53460E+02 1.50000E+00
 -1      8448-8.25699E+00 1.55446E+02 1.50000E+00
 -1      8449 1.58481E+01-5.54908E+00 2.50000E+00
 -1      8450 1.53089E+01-3.42724E+00 2.08084E+00
 -1      8451-7.85093E+00 3.10331E+01 0.00000E+00
 -1      8452-4.82444E+00 1.68939E+02 0.00000E+00
 -1      8453-6.49850E+00 1.67620E+02 0.00000E+00
 -1      8454 1.06743E+00 3.70353E+01 0.00000E+00
 -1      8455-1.38754E+00 1.58618E+02 0.00000E+00
 -1      8456-1.39752E+00 1.60697E+02 0.00000E+00
 -1      8457-2.84273E+00 1.59212E+02 0.00000E+00
 -1      8458-8.54005E-01 6.93820E+01 0.00000E+00
 -1      8459-1.00687E+00 7.11837E+01 0.00000E+00
 -1      8460-2.81373E-01 3.60581E+01 0.00000E+00
 -1      8461 5.61647E+00 2.11250E+02 0.00000E+00
 -1      8462 8.27155E+00 2.11204E+02-1.50000E+00
 -1      8463-3.00273E+00 1.57584E+02 0.00000E+00
 -1      8464 5.79890E+00 1.40367E+02 0.00000E+00
 -1      8465 1.79053E+01 1.66339E+01 3.50000E+00
 -1      8466 1.79053E+01 1.66339E+01-3.50000E+00
 -1      8467-1.57651E+01 1.34841E+01-3.35502E+00
 -1      8468-8.56429E+00 1.12177E+02-1.50000E+00
 -1      8469-7.53731E+00 1.12177E+02 0.00000E+00
 -1      8470 1.63350E+01-1.42515E+01 2.50000E+00
 -1      8471 1.73886E+01-1.75300E+01 2.50000E+00
 -1      8472 1.47205E+01-1.60344E+01 2.77206E+00
 -1      8473-7.55008E+00 7.65854E+01 0.00000E+00
 -1      8474 4.78202E+00 1.70916E+02 0.00000E+00
 -1      8475 5.74135E+00 1.69304E+02-1.50000E+00
 -1      8476-2.83513E+00 1.47344E+02 0.00000E+00
 -1      8477-1.37926E+00 1.46759E+02 0.00000E+00
 -1      8478-1.38825E+00 1.48846E+02 0.00000E+00
 -1      8479-4.86503E+00 1.42718E+02 0.00000E+00
 -1      8480-4.71580E+00 1.97467E+02 0.00000E+00
 -1      8481-3.80636E+00 1.96129E+02 0.00000E+00
 -1      8482-2.08128E+00 1.98280E+02-1.50000E+00
 -1      8483-1.17184E+00 1.96942E+02 1.50000E+00
 -1      8484-2.08128E+00 1.98280E+02 1.50000E+00
 -1      8485 3.89168E+00 1.35017E+01 2.50000E+00
 -1      8486-1.45974E+00 1.96173E+02 0.00000E+00
 -1      8487-4.53169E-03 1.95497E+02 0.00000E+00
 -1      8488-8.28733E+00 1.41534E+02-1.50000E+00
 -1      8489-8.28733E+00 1.43520E+02-1.50000E+00
 -1      8490-8.28733E+00 1.41534E+02 1.50000E+00
 -1      8491-8.28733E+00 1.43520E+02 1.50000E+00
 -1      8492-6.57465E+00 1.41338E+02 0.00000E+00
 -1      8493 4.80219E+00 1.65333E+02 0.00000E+00
 -1      8494 5.75532E+00 1.66915E+02-1.50000E+00
 -1      8495 5.48627E+00 1.84053E+02 0.00000E+00
 -1      8496-5.26568E+00 2.20345E+02 0.00000E+00
 -1      8497-7.13911E+00 2.21532E+02-1.49272E+00
 -1      8498-5.33432E+00 2.21307E+02-1.49272E+00
 -1      8499-7.13911E+00 2.21532E+02 1.50728E+00
 -1      8500 5.78547E+00 1.36856E+02 0.00000E+00
 -1      8501-6.43353E+00 2.08791E+02 0.00000E+00
 -1      8502-3.77914E+00 1.72342E+02 0.00000E+00
 -1      8503 1.16277E+01 9.35614E+00 2.50000E+00
 -1      8504 9.79993E+00 1.14340E+01 2.50000E+00
 -1      8505 9.60048E+00 9.68651E+00 2.50000E+00
 -1      8506 1.05058E+01 9.74319E+00 0.00000E+00
 -1      8507 7.86720E+00 4.97311E+00-1.85748E+00
 -1      8508 7.38905E+00 3.06865E+01 0.00000E+00
 -1      8509 5.89945E+00 3.20701E+01 0.00000E+00
 -1      8510 7.98003E+00 3.20333E+01 0.00000E+00
 -1      8511-8.28409E+00 1.29624E+02-1.50000E+00
 -1      8512-8.28409E+00 1.31610E+02-1.50000E+00
 -1      8513-8.28409E+00 1.29624E+02 1.50000E+00
 -1      8514-8.28409E+00 1.31610E+02 1.50000E+00
 -1      8515-6.56817E+00 1.29438E+02 0.00000E+00
 -1      8516-8.28193E+00 1.03872E+02-1.50000E+00
 -1      8517-8.96402E+00 1.01996E+02-1.50000E+00
 -1      8518-8.96402E+00 1.01996E+02 1.50000E+00
 -1      8519-1.92226E+01 1.30942E+01 3.33511E+00
 -1      8520-4.81661E+00 1.57063E+02 0.00000E+00
 -1      8521 1.18305E+01 1.14456E+01 1.87775E+00
 -1      8522-8.71707E+00 2.85585E+01 0.00000E+00
 -1      8523-7.94977E+00 2.65512E+01 0.00000E+00
 -1      8524 4.02493E+00 9.77690E+00 2.53666E+00
 -1      8525 6.87084E+00 1.05259E+01 2.50000E+00
 -1      8526 5.42585E+00 8.46285E+00 3.16580E+00
 -1      8527 7.23306E+00 9.75802E+00 6.65803E-01
 -1      8528 1.69638E+01 7.22434E+00-2.50000E+00
 -1      8529-1.58831E+00 5.93525E+01 0.00000E+00
 -1      8530-7.16028E-02 6.05250E+01 0.00000E+00
 -1      8531 3.55136E+00 1.50987E+01 2.50000E+00
 -1      8532 2.78178E+00 1.26453E+01 2.53666E+00
 -1      8533-2.21404E+01 6.14056E+00 2.85148E+00
 -1      8534-2.23424E+01 3.52332E+00 2.35930E+00
 -1      8535-5.82195E+00 2.56867E+01 0.00000E+00
 -1      8536-1.00776E+01 2.74156E+01 0.00000E+00
 -1      8537-1.83886E+01 1.32551E+01-3.35502E+00
 -1      8538-1.99831E+01 1.32021E+01-3.35502E+00
 -1      8539-4.02168E+00 2.18635E+02 0.00000E+00
 -1      8540-5.72570E+00 2.00532E+01 2.37506E+00
 -1      8541-7.13758E+00 2.11891E+01-1.24935E-01
 -1      8542-5.17311E+00 1.98451E+01-1.52032E-01
 -1      8543-8.87571E+00 1.49693E+02-1.50000E+00
 -1      8544-8.23575E+00 1.47973E+02 1.50000E+00
 -1      8545-7.11147E+00 1.47991E+02 0.00000E+00
 -1      8546-7.75143E+00 1.49711E+02 0.00000E+00
 -1      8547-8.87571E+00 1.49693E+02 1.50000E+00
 -1      8548-1.70852E+01 6.18325E+00 2.50000E+00
 -1      8549-1.60307E+01 7.58279E+00 3.20110E+00
 -1      8550-8.60387E+00 2.20852E+02 7.28235E-03
 -1      8551-8.23934E+00 1.71790E+02-1.50000E+00
 -1      8552-7.11849E+00 1.71804E+02 0.00000E+00
 -1      8553 1.09415E+01-1.80893E-01 3.08333E+00
 -1      8554-2.92155E+00 7.59511E+01 0.00000E+00
 -1      8555 3.74015E+00 2.25044E+02-1.50000E+00
 -1      8556 5.54440E+00 2.25528E+02-1.50000E+00
 -1      8557 3.47875E+00 2.26516E+02 4.44089E-16
 -1      8558 6.18445E+00 2.24770E+02-2.19544E-14
 -1      8559 6.44586E+00 2.23297E+02-1.50000E+00
 -1      8560 3.74015E+00 2.25044E+02 1.50000E+00
 -1      8561 5.54440E+00 2.25528E+02 1.50000E+00
 -1      8562 6.44586E+00 2.23297E+02 1.50000E+00
 -1      8563-1.10909E+00 2.80526E+01 0.00000E+00
 -1      8564-8.59174E-01 2.14920E+02 0.00000E+00
 -1      8565 1.53245E+01-1.31034E+01 2.50000E+00
 -1      8566 1.37100E+01-1.48864E+01 2.77206E+00
 -1      8567 1.60608E+01-9.18302E+00-4.44089E-16
 -1      8568 1.68351E+01-9.95737E+00 2.50000E+00
 -1      8569 1.68106E+01-7.12632E+00 2.50000E+00
 -1      8570 1.47573E+01-7.57356E+00-3.78016E-01
 -1      8571 1.55315E+01-8.34792E+00 2.12198E+00
 -1      8572 1.47817E+01-1.04046E+01-3.78016E-01
 -1      8573-8.56261E+00 1.00282E+02-1.50000E+00
 -1      8574-7.52663E+00 1.00282E+02 0.00000E+00
 -1      8575-3.00894E+00 1.34041E+02 0.00000E+00
 -1      8576-3.76924E+00 1.60470E+02 0.00000E+00
 -1      8577 1.26464E+01-1.96110E+01-2.31350E+00
 -1      8578 1.12771E+01-2.07586E+01-2.31350E+00
 -1      8579 1.27757E+01-1.86734E+01 4.58567E-01
 -1      8580 1.13577E+01-1.76653E+01-2.22794E+00
 -1      8581 1.27270E+01-1.65177E+01-2.22794E+00
 -1      8582-8.07897E+00 5.83412E+01 1.50000E+00
 -1      8583-7.21642E+00 7.32884E+01 0.00000E+00
 -1      8584-2.21404E+01 6.14056E+00-2.14852E+00
 -1      8585 2.34173E-01 2.00442E+02 1.50000E+00
 -1      8586-8.63211E+00 7.65854E+01-1.50000E+00
 -1      8587-8.63211E+00 7.65854E+01 1.50000E+00
 -1      8588-8.91796E+00 7.81557E+01 1.50000E+00
 -1      8589-1.76597E+00 2.19735E+02 0.00000E+00
 -1      8590-2.71688E+00 2.21619E+02 4.44089E-16
 -1      8591 4.02493E+00 9.77690E+00-2.46334E+00
 -1      8592 5.42585E+00 8.46285E+00-1.83420E+00
 -1      8593-1.02953E+01 2.19136E+01 2.22045E-16
 -1      8594-9.42824E+00 2.26127E+01 1.50000E+00
 -1      8595-2.85540E+00 8.13574E+01 0.00000E+00
 -1      8596-1.42491E+00 8.07753E+00 3.74891E+00
 -1      8597-2.70898E+00 1.02060E+01 2.32133E+00
 -1      8598-2.06364E+01-4.08859E+00 2.50000E+00
 -1      8599-1.93129E+01-4.73710E+00 2.50000E+00
 -1      8600-2.01278E+01-6.19985E+00 2.88295E+00
 -1      8601-1.88043E+01-6.84836E+00 2.88295E+00
 -1      8602-6.41797E+00 7.82667E+01 0.00000E+00
 -1      8603-7.83593E+00 7.81557E+01 0.00000E+00
 -1      8604-8.28939E+00 9.20111E+01-1.50000E+00
 -1      8605-8.95415E+00 9.00757E+01-1.50000E+00
 -1      8606-7.90829E+00 9.00757E+01 0.00000E+00
 -1      8607-8.95415E+00 9.00757E+01 1.50000E+00
 -1      8608-7.24354E+00 9.20111E+01 0.00000E+00
 -1      8609-1.17574E+00 1.71875E+01 3.88329E+00
 -1      8610-5.59899E+00 1.51552E+02 0.00000E+00
 -1      8611-3.81359E+00 1.03260E+02 0.00000E+00
 -1      8612-2.39698E+01-2.28323E+00 4.44089E-16
 -1      8613-2.54461E+01-4.43141E-03 2.50000E+00
 -1      8614-2.46239E+01 7.32936E-01-1.40699E-01
 -1      8615 4.58664E+00 1.64334E+01-2.50000E+00
 -1      8616 4.13221E+00 1.88936E+01-2.36003E+00
 -1      8617-1.21506E+01 2.25082E+01 4.00000E+00
 -1      8618-8.63211E+00 7.45987E+01-1.50000E+00
 -1      8619-8.63211E+00 7.45987E+01 1.50000E+00
 -1      8620-8.58430E+00 7.28720E+01 1.50000E+00
 -1      8621-9.80070E+00 1.93557E+01-2.50000E+00
 -1      8622-1.01263E+01 1.68251E+01-2.47849E+00
 -1      8623-3.75957E+00 1.48589E+02 0.00000E+00
 -1      8624-2.36178E+00 2.18294E+02 0.00000E+00
 -1      8625-2.08324E+00 7.01005E+01 0.00000E+00
 -1      8626-4.57740E+00 2.25528E+02 2.33333E+00
 -1      8627-4.57740E+00 2.25528E+02-2.33333E+00
 -1      8628-5.60704E+00 1.63452E+02 0.00000E+00
 -1      8629-3.85315E+00 1.98897E+02 0.00000E+00
 -1      8630-1.21862E+00 1.99710E+02 1.50000E+00
 -1      8631-1.21862E+00 1.99710E+02-1.50000E+00
 -1      8632-5.59686E+00 1.75384E+02 0.00000E+00
 -1      8633 5.28203E+00 5.43105E+00-3.75000E+00
 -1      8634 7.95814E+00 6.93354E+00-3.25173E+00
 -1      8635-2.99527E+00 1.45721E+02 0.00000E+00
 -1      8636-5.39889E+00 2.38608E+01-1.62494E+00
 -1      8637 1.15036E+01-1.09026E+01-3.44166E+00
 -1      8638 1.04313E+01-1.26615E+01-3.44166E+00
 -1      8639 1.32355E+01-1.31766E+01-2.22794E+00
 -1      8640 1.21632E+01-1.49355E+01-2.22794E+00
 -1      8641 1.11244E+01-1.33060E+01-6.69601E-01
 -1      8642-2.82879E+00 7.20555E+01 0.00000E+00
 -1      8643-6.02316E+00 1.00145E+02 0.00000E+00
 -1      8644-2.38843E+01 1.08954E+01-2.50000E+00
 -1      8645-2.23040E+01 8.71754E+00-2.14852E+00
 -1      8646 6.18748E+00 3.91770E+01-1.49882E+00
 -1      8647 6.18748E+00 3.91770E+01 1.50118E+00
 -1      8648 4.42130E-01 2.09550E+02 0.00000E+00
 -1      8649 1.76885E+00 1.99694E+02-1.50000E+00
 -1      8650 1.76885E+00 1.99694E+02 1.50000E+00
 -1      8651-2.72639E+00 9.30752E+01 0.00000E+00
 -1      8652 8.30160E+00 4.64790E+01-1.50000E+00
 -1      8653-5.58312E+00 1.59949E+02 0.00000E+00
 -1      8654-7.11344E+00 1.59897E+02 0.00000E+00
 -1      8655-6.22608E+00 1.61677E+02 0.00000E+00
 -1      8656-6.23250E+00 1.73582E+02 0.00000E+00
 -1      8657 1.20706E+01 1.31453E+01 1.87775E+00
 -1      8658 1.07086E+01 1.18326E+01-6.22249E-01
 -1      8659-4.93208E+00 1.13571E+02 0.00000E+00
 -1      8660 8.47481E+00 5.35639E+01 1.50000E+00
 -1      8661 6.94962E+00 5.50648E+01 0.00000E+00
 -1      8662 8.47481E+00 5.35639E+01-1.50000E+00
 -1      8663 8.33016E+00 5.16949E+01-1.50000E+00
 -1      8664 6.80498E+00 5.31958E+01 0.00000E+00
 -1      8665-1.61473E+01-5.11337E+00-3.31437E+00
 -1      8666-1.77967E+01-3.72617E+00-8.14369E-01
 -1      8667-1.72881E+01-5.83743E+00-4.31418E-01
 -1      8668-9.45537E+00 1.49329E+01-2.47849E+00
 -1      8669-7.16530E+00 1.61194E+01-2.52710E+00
 -1      8670-4.84528E+00 1.57121E+01-8.18810E-01
 -1      8671-6.64019E+00 1.41762E+01-3.29171E+00
 -1      8672-4.12225E+00 9.97086E+01 0.00000E+00
 -1      8673-4.92111E+00 1.01723E+02 0.00000E+00
 -1      8674-6.77711E-03 2.11460E+02 0.00000E+00
 -1      8675-8.91796E+00 7.81557E+01-1.50000E+00
 -1      8676-6.66860E-01 2.17910E+02 0.00000E+00
 -1      8677 1.27557E+01 6.86233E+00 2.50000E+00
 -1      8678 1.13431E+01 5.58812E+00 3.18015E+00
 -1      8679-9.22935E+00 3.10265E+01-1.50000E+00
 -1      8680-9.78853E+00 2.93920E+01-1.50000E+00
 -1      8681-9.78853E+00 2.93920E+01 1.50000E+00
 -1      8682-9.22935E+00 3.10265E+01 1.50000E+00
 -1      8683-7.13270E+00 1.51491E+02 0.00000E+00
 -1      8684-6.21772E+00 1.49772E+02 0.00000E+00
 -1      8685-4.81346E+00 1.45184E+02 0.00000E+00
 -1      8686-6.52308E+00 1.43805E+02 0.00000E+00
 -1      8687 6.87084E+00 1.05259E+01-2.50000E+00
 -1      8688 8.67373E+00 9.77137E+00-7.51732E-01
 -1      8689 6.86653E+00 8.47620E+00-3.25173E+00
 -1      8690 5.82783E+00 9.02236E+00-7.15076E-01
 -1      8691-3.91879E+00 1.27076E+02 0.00000E+00
 -1      8692 1.19744E+01 5.14146E+00 1.58817E+00
 -1      8693 1.38091E+01 5.61270E+00 3.40802E+00
 -1      8694-4.66513E+00 1.70565E+02 0.00000E+00
 -1      8695-8.30672E+00 2.01094E+02 1.50000E+00
 -1      8696-4.35250E+00 3.22904E+01 0.00000E+00
 -1      8697-2.27901E+00 3.12040E+01 0.00000E+00
 -1      8698-5.67705E+00 3.46975E+01-1.50736E+00
 -1      8699-2.17257E+01-3.08704E+00-2.50000E+00
 -1      8700-2.23799E+01-7.08719E-02-2.64070E+00
 -1      8701-8.22090E+00 6.39562E+01-1.50000E+00
 -1      8702-5.57775E+00 1.48052E+02 0.00000E+00
 -1      8703-5.66462E+00 1.99163E+02 0.00000E+00
 -1      8704-3.63438E+00 7.81347E+01 0.00000E+00
 -1      8705-4.83665E+00 1.33300E+02 0.00000E+00
 -1      8706 8.41212E+00 1.06645E+01 2.50000E+00
 -1      8707 7.99094E-01 2.79558E+01 0.00000E+00
 -1      8708-3.53742E+00 6.96118E+01 0.00000E+00
 -1      8709 6.56538E+00 1.35110E+02 0.00000E+00
 -1      8710 6.46242E+00 1.89271E+02 0.00000E+00
 -1      8711 5.30847E+00 3.07233E+01 0.00000E+00
 -1      8712 6.53687E+00 9.97057E+01 0.00000E+00
 -1      8713 1.58894E+00 2.94727E+01 0.00000E+00
 -1      8714 2.59356E+00 2.73109E+01 0.00000E+00
 -1      8715 6.53790E+00 1.11509E+02 0.00000E+00
 -1      8716 1.24160E+00 6.15303E+01 0.00000E+00
 -1      8717-4.59790E+00 1.09299E+01 2.83077E+00
 -1      8718 2.25921E+01 1.18309E+01 2.50000E+00
 -1      8719 2.29919E+01 9.85109E+00 2.50000E+00
 -1      8720 2.19932E+01 1.01597E+01-6.81076E-01
 -1      8721 6.53854E+00 1.23311E+02 0.00000E+00
 -1      8722 9.16887E+00 2.90749E+01-1.50000E+00
 -1      8723 1.03525E+01 2.79087E+01 1.50000E+00
 -1      8724 1.03525E+01 2.79087E+01-1.50000E+00
 -1      8725-8.28168E+00 8.01339E+01-1.50000E+00
 -1      8726-7.19964E+00 8.01339E+01 0.00000E+00
 -1      8727-3.98998E+00 2.11243E+02 0.00000E+00
 -1      8728 5.19119E+00 3.32672E+01 0.00000E+00
 -1      8729 3.08704E+00 3.40666E+01 0.00000E+00
 -1      8730 6.56553E+00 1.46911E+02 0.00000E+00
 -1      8731 6.57889E+00 1.44521E+02 0.00000E+00
 -1      8732 6.52741E+00 1.79915E+02 0.00000E+00
 -1      8733 6.47766E+00 1.82303E+02 0.00000E+00
 -1      8734 6.56432E+00 1.58713E+02 0.00000E+00
 -1      8735 2.18879E+01 7.00349E+00-1.92475E+00
 -1      8736-2.18912E+00 6.82693E+01 0.00000E+00
 -1      8737-6.52688E+00 1.91468E+02 0.00000E+00
 -1      8738-6.55934E+00 1.93858E+02 0.00000E+00
 -1      8739 6.53785E+00 2.03468E+02 0.00000E+00
 -1      8740 6.56232E+00 2.01066E+02 0.00000E+00
 -1      8741 2.01070E+01 1.44119E+01-2.50000E+00
 -1      8742 2.14839E+01 1.34672E+01 2.50000E+00
 -1      8743 2.01070E+01 1.44119E+01 2.50000E+00
 -1      8744 6.57687E+00 8.55071E+01 0.00000E+00
 -1      8745 6.54411E+00 8.79020E+01 0.00000E+00
 -1      8746 8.33016E+00 5.16949E+01 1.50000E+00
 -1      8747-1.95345E+01-1.21582E+01 1.11742E+00
 -1      8748-1.92503E+01-1.12287E+01 2.05911E+00
 -1      8749-1.81885E+01-8.78269E+00 1.32463E+00
 -1      8750-2.10070E+01-1.00185E+01 1.50038E+00
 -1      8751-1.84727E+01-9.71219E+00 3.82951E-01
 -1      8752-9.42824E+00 2.26127E+01-1.50000E+00
 -1      8753-9.72374E+00 3.23582E+01-1.50000E+00
 -1      8754-9.34504E+00 3.41202E+01-1.49829E+00
 -1      8755-9.72374E+00 3.23582E+01 1.50000E+00
 -1      8756 9.80107E+00-2.04639E+01 1.86505E-01
 -1      8757 1.01741E+01-1.92440E+01-7.60543E-01
 -1      8758 1.02547E+01-1.61506E+01-6.74985E-01
 -1      8759 9.88167E+00-1.73705E+01 2.72062E-01
 -1      8760 1.49046E+01 6.67148E+00-4.44089E-16
 -1      8761 1.48500E+01-1.13937E+01-2.50000E+00
 -1      8762-1.38905E+01 6.93679E+00 3.20110E+00
 -1      8763-1.46335E+01 8.32152E+00 3.20110E+00
 -1      8764-2.05523E-01 3.01176E+01 0.00000E+00
 -1      8765-8.57904E+00 2.04936E+02-1.50000E+00
 -1      8766-7.83061E+00 2.06363E+02 1.50000E+00
 -1      8767-8.57904E+00 2.04936E+02 1.50000E+00
 -1      8768-1.06844E+01 2.54496E+01 1.50000E+00
 -1      8769-1.87598E+01 8.93202E+00 2.50000E+00
 -1      8770-1.76014E+01 7.61713E+00 3.20110E+00
 -1      8771-1.78506E+01 9.13207E+00 3.20110E+00
 -1      8772-1.72505E+00 1.35102E+01-2.50000E+00
 -1      8773-2.69002E+00 1.16694E+01-2.67867E+00
 -1      8774 5.78506E+00 1.52168E+02 0.00000E+00
 -1      8775 6.44722E+00 1.50396E+02 0.00000E+00
 -1      8776 6.85150E-01 4.55765E+01 0.00000E+00
 -1      8777-4.67944E-01 4.37211E+01 0.00000E+00
 -1      8778-8.28402E+00 1.19746E+02-1.50000E+00
 -1      8779-8.28402E+00 1.17759E+02-1.50000E+00
 -1      8780-6.56805E+00 1.17629E+02 0.00000E+00
 -1      8781-8.28402E+00 1.17759E+02 1.50000E+00
 -1      8782-8.28402E+00 1.19746E+02 1.50000E+00
 -1      8783 2.42284E+00 7.81432E+00 3.66562E-02
 -1      8784 6.44459E+00 1.62196E+02 0.00000E+00
 -1      8785-5.33432E+00 2.21307E+02 1.50728E+00
 -1      8786-7.91472E+00 1.08760E+01-2.50000E+00
 -1      8787-8.37470E+00 1.26217E+01-2.50000E+00
 -1      8788-7.91472E+00 1.08760E+01 2.50000E+00
 -1      8789-8.37470E+00 1.26217E+01 2.50000E+00
 -1      8790 1.80667E+00 3.11123E+01 0.00000E+00
 -1      8791 3.81887E+00 3.21070E+01 0.00000E+00
 -1      8792 1.73823E+00 3.30893E+01 0.00000E+00
 -1      8793-3.42396E-01 3.40717E+01 0.00000E+00
 -1      8794-2.73959E-01 3.20947E+01 0.00000E+00
 -1      8795 6.44135E+00 1.73995E+02 0.00000E+00
 -1      8796-5.85452E+00 3.09959E+01 0.00000E+00
 -1      8797 7.79271E-01 2.16405E+02 0.00000E+00
 -1      8798-1.18434E+01 2.67793E+01-1.50000E+00
 -1      8799-1.25002E+01 2.57401E+01-1.50000E+00
 -1      8800-1.13413E+01 2.44104E+01-1.50000E+00
 -1      8801-1.24502E+01 2.48134E+01-2.22045E-16
 -1      8802-1.06844E+01 2.54496E+01-1.50000E+00
 -1      8803-1.18434E+01 2.67793E+01 1.50000E+00
 -1      8804-1.25002E+01 2.57401E+01 1.50000E+00
 -1      8805-1.13413E+01 2.44104E+01 1.50000E+00
 -1      8806-2.56207E+00 7.96245E+01 0.00000E+00
 -1      8807-4.68400E+00 1.49833E+02 0.00000E+00
 -1      8808-2.31269E+00 1.50090E+02 0.00000E+00
 -1      8809-3.08983E+00 8.36594E+01 0.00000E+00
 -1      8810-4.65660E+00 1.58691E+02 0.00000E+00
 -1      8811 8.75602E+00-1.82359E+01-3.44705E+00
 -1      8812 1.01253E+01-1.70883E+01-3.44705E+00
 -1      8813 6.50067E+00 7.37507E+01 0.00000E+00
 -1      8814 6.55160E+00 7.61633E+01 0.00000E+00
 -1      8815-3.70948E+00 4.91355E+01 0.00000E+00
 -1      8816-1.26408E+00 4.92687E+01 0.00000E+00
 -1      8817-1.34298E+01 3.95987E+00-3.33333E+00
 -1      8818-1.49684E+01 5.06004E+00-3.04157E+00
 -1      8819-1.36714E+01 5.89440E+00-3.04157E+00
 -1      8820-3.46089E+00 2.20119E+02 0.00000E+00
 -1      8821-4.69576E+00 1.61728E+02 0.00000E+00
 -1      8822-2.32403E+00 1.61955E+02 0.00000E+00
 -1      8823 1.00641E+00 3.50490E+01 0.00000E+00
 -1      8824 7.27178E+00 3.32304E+01 0.00000E+00
 -1      8825-2.34745E+00 3.31811E+01 0.00000E+00
 -1      8826-4.28717E+00 7.61942E+01 0.00000E+00
 -1      8827-5.00001E+00 7.83778E+01 0.00000E+00
 -1      8828-3.33628E+00 1.21337E+02 0.00000E+00
 -1      8829-2.28683E+01 7.40880E+00 2.85148E+00
 -1      8830-2.30703E+01 4.79156E+00 2.35930E+00
 -1      8831 5.77043E+00 1.60459E+02 0.00000E+00
 -1      8832 7.23646E+00 1.72250E+02 0.00000E+00
 -1      8833 1.98781E+01-4.32902E+00-2.50000E+00
 -1      8834 1.68923E+01-3.25050E+00-2.91916E+00
 -1      8835 8.59867E+00 6.40847E+01 1.50000E+00
 -1      8836 8.59867E+00 6.40847E+01-1.50000E+00
 -1      8837 8.54231E+00 6.22912E+01-1.50000E+00
 -1      8838-4.70030E+00 1.35093E+02 0.00000E+00
 -1      8839-2.70607E+00 1.04797E+02 0.00000E+00
 -1      8840-5.37147E+00 7.27861E+01 0.00000E+00
 -1      8841-7.16861E+00 7.15616E+01 0.00000E+00
 -1      8842-4.70669E+00 1.73619E+02 0.00000E+00
 -1      8843-2.33393E+00 1.73800E+02 0.00000E+00
 -1      8844-2.71204E+00 1.16623E+02 0.00000E+00
 -1      8845-3.02489E+00 9.53846E+01 0.00000E+00
 -1      8846 3.60114E+00 3.04674E+01 0.00000E+00
 -1      8847 8.23883E+00 1.82075E+02 1.50000E+00
 -1      8848 8.23883E+00 1.82075E+02-1.50000E+00
 -1      8849-7.28125E+00 1.13228E+01 2.83077E+00
 -1      8850 8.28269E+00 1.34881E+02-1.50000E+00
 -1      8851 8.28269E+00 1.34881E+02 1.50000E+00
 -1      8852 5.89212E+00 5.65982E+01 0.00000E+00
 -1      8853 5.34808E+00 5.42177E+01 0.00000E+00
 -1      8854 9.97175E+00 2.13118E+00 3.91406E+00
 -1      8855 1.02370E+01 4.62801E+00 3.18015E+00
 -1      8856 2.18879E+01 7.00349E+00 3.07525E+00
 -1      8857 1.80605E+01-7.75010E+00 1.23629E-01
 -1      8858 1.94556E+01-6.77048E+00 2.62363E+00
 -1      8859 8.28216E+00 1.58481E+02-1.50000E+00
 -1      8860 8.28216E+00 1.58481E+02 1.50000E+00
 -1      8861 8.28277E+00 1.46681E+02-1.50000E+00
 -1      8862 8.28277E+00 1.46681E+02 1.50000E+00
 -1      8863 8.26927E+00 1.23083E+02 1.50000E+00
 -1      8864 8.26927E+00 1.23083E+02-1.50000E+00
 -1      8865 8.26895E+00 1.11282E+02 1.50000E+00
 -1      8866 8.26895E+00 1.11282E+02-1.50000E+00
 -1      8867 8.26844E+00 9.94814E+01-1.50000E+00
 -1      8868 8.26844E+00 9.94814E+01 1.50000E+00
 -1      8869 8.23121E+00 1.89492E+02 1.50000E+00
 -1      8870 8.23121E+00 1.89492E+02-1.50000E+00
 -1      8871 1.92572E+01-6.08300E+00-2.50000E+00
 -1      8872 1.68106E+01-7.12632E+00-2.50000E+00
 -1      8873 1.88347E+01-8.52446E+00-2.37637E+00
 -1      8874 1.35089E+01-4.67511E+00 3.33333E+00
 -1      8875-4.82345E+00 7.51745E+00-3.75977E+00
 -1      8876-6.71253E+00 9.80326E+00-2.50000E+00
 -1      8877-5.90011E+00 8.37404E+00-1.25977E+00
 -1      8878-3.37772E+00 8.09688E+00-1.43844E+00
 -1      8879-5.26680E+00 1.03827E+01-1.78675E-01
 -1      8880-4.19014E+00 9.52609E+00-2.67867E+00
 -1      8881 8.30160E+00 4.45711E+01 1.51256E+00
 -1      8882 8.30160E+00 4.30377E+01 1.60553E+00
 -1      8883 8.30160E+00 4.30377E+01-1.39447E+00
 -1      8884 8.30160E+00 4.45711E+01-1.48744E+00
 -1      8885-3.32339E+00 9.76940E+01 0.00000E+00
 -1      8886 1.37508E+00 2.17847E+02 0.00000E+00
 -1      8887 8.27205E+00 8.76803E+01 1.50000E+00
 -1      8888 8.27205E+00 8.76803E+01-1.50000E+00
 -1      8889-3.32943E+00 1.09515E+02 0.00000E+00
 -1      8890-8.30869E+00 5.65724E+01 1.50000E+00
 -1      8891-8.30869E+00 5.65724E+01-1.50000E+00
 -1      8892-6.46821E+00 1.79569E+02 0.00000E+00
 -1      8893-6.44937E+00 1.81989E+02 0.00000E+00
 -1      8894-8.36712E+00 4.09863E+01 1.50000E+00
 -1      8895-8.36712E+00 4.09863E+01-1.50000E+00
 -1      8896-8.50080E+00 3.87568E+01-7.36187E-03
 -1      8897-2.16334E+01-5.05099E+00-2.50000E+00
 -1      8898-2.11248E+01-7.16225E+00-2.11705E+00
 -1      8899 1.01433E+01-1.93447E+01 1.00088E+00
 -1      8900 1.02239E+01-1.62513E+01 1.08644E+00
 -1      8901 8.28116E+00 2.01289E+02-1.50000E+00
 -1      8902 8.28116E+00 2.01289E+02 1.50000E+00
 -1      8903-5.50993E+00 1.87334E+02 0.00000E+00
 -1      8904 2.55984E+01-4.22344E+00 2.50000E+00
 -1      8905 2.50392E+01-2.81966E+00 2.50000E+00
 -1      8906-8.58430E+00 7.28720E+01-1.50000E+00
 -1      8907-8.27967E+00 1.93620E+02-1.50000E+00
 -1      8908-8.27967E+00 1.93620E+02 1.50000E+00
 -1      8909-6.53804E+00 1.25833E+02 0.00000E+00
 -1      8910-6.13908E+00 1.24112E+02 0.00000E+00
 -1      8911 5.86326E-02 1.50347E+02 0.00000E+00
 -1      8912-3.02416E+00 1.18980E+02 0.00000E+00
 -1      8913 1.31979E+01 1.03755E+01-3.12225E+00
 -1      8914-1.51592E+01 1.71103E+00-3.60795E+00
 -1      8915 8.70618E+00 3.07996E+01-1.50000E+00
 -1      8916 8.70618E+00 3.07996E+01 1.50000E+00
 -1      8917 9.16887E+00 2.90749E+01 1.50000E+00
 -1      8918-1.40767E+01 2.18046E+01-5.14996E-01
 -1      8919-1.31477E+01 2.36518E+01 3.17524E-14
 -1      8920-1.22203E+01 2.16365E+01-5.14996E-01
 -1      8921-1.34538E+01 2.32084E+01 7.50000E-01
 -1      8922 8.27580E+00 7.59117E+01 1.50000E+00
 -1      8923 8.27580E+00 7.59117E+01-1.50000E+00
 -1      8924-5.48740E+00 1.83790E+02 0.00000E+00
 -1      8925 4.76967E-02 1.62183E+02 0.00000E+00
 -1      8926-1.57991E+01-2.03547E+00-2.50000E+00
 -1      8927-1.55331E+01-1.16542E+00-3.60795E+00
 -1      8928-1.76943E+01-7.28358E-01-2.18543E+00
 -1      8929-1.58420E+01-5.56931E-01 3.14571E-01
 -1      8930-1.92152E+00 2.04435E+01-2.60056E+00
 -1      8931-4.03003E+00 2.13825E+01-2.62494E+00
 -1      8932 1.20706E+01 1.31453E+01-3.12225E+00
 -1      8933-5.72570E+00 2.00532E+01-2.62494E+00
 -1      8934-8.28193E+00 1.05859E+02-1.50000E+00
 -1      8935-8.28193E+00 1.07846E+02-1.50000E+00
 -1      8936-8.28193E+00 1.05859E+02 1.50000E+00
 -1      8937-8.28193E+00 1.07846E+02 1.50000E+00
 -1      8938-6.56386E+00 1.05749E+02 0.00000E+00
 -1      8939-3.20671E+00 4.17478E+01 0.00000E+00
 -1      8940-5.26465E+00 4.24297E+01 0.00000E+00
 -1      8941-1.29778E+00 5.72941E+01 0.00000E+00
 -1      8942 8.30753E+00 4.07502E+01-1.39447E+00
 -1      8943 8.30753E+00 4.07502E+01 1.60553E+00
 -1      8944 6.61507E+00 4.02528E+01 0.00000E+00
 -1      8945 4.69093E-01 5.38894E+01 0.00000E+00
 -1      8946-7.84748E-01 5.57541E+01 0.00000E+00
 -1      8947-3.91730E+00 2.58371E+01 0.00000E+00
 -1      8948 1.14889E-02 1.94308E+01 2.39944E+00
 -1      8949 2.19918E+00 1.94274E+01 2.63997E+00
 -1      8950-8.22468E+00 1.81725E+02 1.50000E+00
 -1      8951-8.22468E+00 1.81725E+02-1.50000E+00
 -1      8952-4.65332E+00 1.46808E+02 0.00000E+00
 -1      8953-1.93068E+01-2.77840E+00 2.50000E+00
 -1      8954-1.93068E+01-2.77840E+00-2.50000E+00
 -1      8955-8.57001E+00 8.84357E+01 1.50000E+00
 -1      8956-7.52415E+00 8.84357E+01 0.00000E+00
 -1      8957-6.08010E+00 7.03424E+01 0.00000E+00
 -1      8958-8.56261E+00 9.82948E+01-1.50000E+00
 -1      8959-7.12522E+00 9.85674E+01 0.00000E+00
 -1      8960-8.56261E+00 9.82948E+01 1.50000E+00
 -1      8961-8.28939E+00 9.59845E+01 1.50000E+00
 -1      8962-6.85200E+00 9.62570E+01 0.00000E+00
 -1      8963-6.47867E+00 1.70064E+02 0.00000E+00
 -1      8964-3.32426E+00 8.59614E+01 0.00000E+00
 -1      8965-5.11476E+00 1.25831E+02 0.00000E+00
 -1      8966 3.88282E-02 1.73981E+02 0.00000E+00
 -1      8967-6.73409E+00 7.13748E+00-3.90575E+00
 -1      8968 2.44288E+01-8.68485E+00-2.50000E+00
 -1      8969 2.27684E+01-9.24711E+00 1.23629E-01
 -1      8970 3.75137E+00 2.09812E+01-2.36003E+00
 -1      8971 6.55329E+00 1.82632E+01-2.50000E+00
 -1      8972-1.12848E+00 4.52093E+01 0.00000E+00
 -1      8973-8.36915E+00 2.08920E+01 2.50000E+00
 -1      8974-6.20740E+00 2.17376E+01 2.37506E+00
 -1      8975 8.30481E+00 8.13526E+01 1.50000E+00
 -1      8976-6.86573E+00 1.20011E+02 0.00000E+00
 -1      8977-8.58170E+00 1.22128E+02-1.50000E+00
 -1      8978-8.58170E+00 1.22128E+02 1.50000E+00
 -1      8979-7.16340E+00 1.22393E+02 0.00000E+00
 -1      8980 1.74315E+01-5.37233E+00-2.50000E+00
 -1      8981 9.47000E+00 2.21368E+01 4.00000E+00
 -1      8982 9.47000E+00 2.21368E+01-4.00000E+00
 -1      8983-8.60292E+00 2.09717E+02 1.50000E+00
 -1      8984-7.83061E+00 2.08349E+02-1.50000E+00
 -1      8985-8.60292E+00 2.09717E+02-1.50000E+00
 -1      8986 8.54231E+00 6.22912E+01 1.50000E+00
 -1      8987-8.56429E+00 1.10191E+02-1.50000E+00
 -1      8988-6.84622E+00 1.08094E+02 0.00000E+00
 -1      8989-8.56429E+00 1.10191E+02 1.50000E+00
 -1      8990-7.12857E+00 1.10439E+02 0.00000E+00
 -1      8991-6.49223E+00 1.55720E+02 0.00000E+00
 -1      8992-6.47048E+00 1.58170E+02 0.00000E+00
 -1      8993-8.22090E+00 6.39562E+01 1.50000E+00
 -1      8994-6.03033E+00 1.12005E+02 0.00000E+00
 -1      8995-4.65259E+00 9.35109E+01 0.00000E+00
 -1      8996 9.59617E+00 7.63681E+00-3.25173E+00
 -1      8997-8.23934E+00 1.69803E+02 1.50000E+00
 -1      8998-8.23934E+00 1.69803E+02-1.50000E+00
 -1      8999-8.57001E+00 8.64491E+01-1.50000E+00
 -1      9000-8.28168E+00 8.41073E+01-1.50000E+00
 -1      9001-6.85169E+00 8.44540E+01 0.00000E+00
 -1      9002-8.57001E+00 8.64491E+01 1.50000E+00
 -1      9003-7.14001E+00 8.67958E+01 0.00000E+00
 -1      9004-5.22430E+00 9.81307E+01 0.00000E+00
 -1      9005-8.30869E+00 5.45857E+01 1.50000E+00
 -1      9006-8.30869E+00 5.45857E+01-1.50000E+00
 -1      9007-8.33070E+00 5.27906E+01-1.50000E+00
 -1      9008 1.29147E+00 4.71014E+01 0.00000E+00
 -1      9009 1.40694E+00 4.92452E+01 0.00000E+00
 -1      9010 4.57740E+00 2.25528E+02-2.33333E+00
 -1      9011 4.57740E+00 2.25528E+02 2.33333E+00
 -1      9012 4.97977E+00 1.50403E+02 0.00000E+00
 -1      9013-8.23524E+00 1.57896E+02-1.50000E+00
 -1      9014-8.23524E+00 1.57896E+02 1.50000E+00
 -1      9015 7.68408E-02 5.84821E+01 0.00000E+00
 -1      9016-5.04418E+00 9.04206E+01 0.00000E+00
 -1      9017-4.18422E+00 8.81910E+01 0.00000E+00
 -1      9018-3.82206E+00 1.15097E+02 0.00000E+00
 -1      9019 2.82121E+00 2.16342E+02 0.00000E+00
 -1      9020 4.68216E+00 2.14686E+02 0.00000E+00
 -1      9021 6.54310E+00 2.13030E+02 0.00000E+00
 -1      9022-6.09210E+00 8.86082E+01 0.00000E+00
 -1      9023-6.47624E+00 9.02481E+01 0.00000E+00
 -1      9024 4.97654E+00 1.62205E+02 0.00000E+00
 -1      9025 2.51212E+00 1.62194E+02 0.00000E+00
 -1      9026 1.10291E+00 5.54020E+01 0.00000E+00
 -1      9027 5.20343E+00 5.23487E+01 0.00000E+00
 -1      9028 2.65350E-01 1.98324E+02 1.50000E+00
 -1      9029 2.83364E-01 1.96266E+02 1.50000E+00
 -1      9030 1.78017E+00 1.96978E+02 1.50000E+00
 -1      9031 3.23812E+00 5.18009E+01 0.00000E+00
 -1      9032-8.26400E+00 1.34067E+02-1.50000E+00
 -1      9033-6.54809E+00 1.31895E+02 0.00000E+00
 -1      9034-8.26400E+00 1.34067E+02 1.50000E+00
 -1      9035-6.52801E+00 1.34352E+02 0.00000E+00
 -1      9036-3.53229E+00 1.19372E+01-9.70388E-01
 -1      9037 8.29612E+00 1.40358E+02 1.50000E+00
 -1      9038 8.29517E+00 1.52159E+02 1.50000E+00
 -1      9039 4.97301E+00 1.74004E+02 0.00000E+00
 -1      9040-2.31420E+01-5.12486E+00 4.44089E-16
 -1      9041-2.38131E+01-6.82595E+00-2.50000E+00
 -1      9042-2.26335E+01-7.23612E+00 3.82951E-01
 -1      9043 8.28116E+00 1.99322E+02 1.50000E+00
 -1      9044-4.64004E+00 1.17126E+02 0.00000E+00
 -1      9045-1.11491E+01 2.82491E+01 1.50000E+00
 -1      9046-1.17559E+01 2.62832E+01-2.22045E-16
 -1      9047-1.11491E+01 2.82491E+01-1.50000E+00
 -1      9048-8.23575E+00 1.45987E+02-1.50000E+00
 -1      9049-6.47150E+00 1.46271E+02 0.00000E+00
 -1      9050-8.23575E+00 1.45987E+02 1.50000E+00
 -1      9051-2.54844E+00 2.33588E+01 4.00000E+00
 -1      9052 3.15171E+00 7.51988E+00 1.28666E+00
 -1      9053-4.70938E+00 8.17348E+01 0.00000E+00
 -1      9054-4.63497E+00 1.05273E+02 0.00000E+00
 -1      9055 7.58721E+00 2.17243E+02 0.00000E+00
 -1      9056 5.20421E+00 2.16792E+02 0.00000E+00
 -1      9057 7.06516E+00 2.15136E+02 0.00000E+00
 -1      9058 5.77508E+00 1.75766E+02 0.00000E+00
 -1      9059-5.22900E+00 1.09977E+02 0.00000E+00
 -1      9060 8.47481E+00 5.55303E+01 1.50000E+00
 -1      9061 8.47481E+00 5.55303E+01-1.50000E+00
 -1      9062 7.41731E+00 5.70637E+01-1.50000E+00
 -1      9063-7.49580E+00 6.76794E+01-1.50000E+00
 -1      9064-8.22090E+00 6.59428E+01-1.50000E+00
 -1      9065-8.22090E+00 6.59428E+01 1.50000E+00
 -1      9066-5.71670E+00 6.73866E+01 0.00000E+00
 -1      9067 6.16582E-01 8.19549E+00 3.23159E-02
 -1      9068-2.24874E+00 8.08671E+00-1.83015E-01
 -1      9069-1.80123E+00 4.27644E+01 0.00000E+00
 -1      9070-4.95216E+00 1.19483E+02 0.00000E+00
 -1      9071-5.24984E+00 1.21865E+02 0.00000E+00
 -1      9072 1.09963E+01 2.62956E+01 1.50000E+00
 -1      9073 1.09963E+01 2.62956E+01-1.50000E+00
 -1      9074-3.64330E+00 6.77807E+01 0.00000E+00
 -1      9075 8.28216E+00 1.60448E+02-1.50000E+00
 -1      9076-3.13933E+00 2.47483E+01 4.00000E+00
 -1      9077-4.62092E+00 2.27720E+01 2.37506E+00
 -1      9078 8.27580E+00 7.78781E+01-1.50000E+00
 -1      9079 1.26827E+01 1.70712E+00-2.50000E+00
 -1      9080 1.33986E+01-4.81249E-01-2.91916E+00
 -1      9081-7.04045E+00 7.02615E+00 3.53588E+00
 -1      9082-6.71253E+00 9.80326E+00 2.50000E+00
 -1      9083-5.73402E+00 4.96292E+01 0.00000E+00
 -1      9084-4.22731E+00 1.91927E+01 2.47290E+00
 -1      9085-7.83061E+00 2.06363E+02-1.50000E+00
 -1      9086-1.72761E+01 1.77483E+01 3.33067E-14
 -1      9087-1.80439E+01 1.85206E+01 2.50000E+00
 -1      9088-1.96022E+01 1.66808E+01 8.35107E-01
 -1      9089-1.82147E+01 1.56434E+01 3.33511E+00
 -1      9090 8.28174E+00 1.28560E+02 1.50000E+00
 -1      9091 4.17508E+00 2.17960E+02 0.00000E+00
 -1      9092 5.52895E+00 2.19578E+02 0.00000E+00
 -1      9093 6.55808E+00 2.18410E+02 0.00000E+00
 -1      9094-8.56261E+00 1.00282E+02 1.50000E+00
 -1      9095 6.59119E+00 1.65736E+02 0.00000E+00
 -1      9096 5.75532E+00 1.66915E+02 1.50000E+00
 -1      9097 1.36972E+01-5.47798E+00 8.33333E-01
 -1      9098 1.54058E+00 1.58008E+01 3.88329E+00
 -1      9099 1.82268E+01 8.75479E+00-3.18108E+00
 -1      9100 8.28036E+00 1.16759E+02-1.50000E+00
 -1      9101 2.38404E+01 8.06648E+00-2.50000E+00
 -1      9102 2.48007E+01 6.61036E+00-2.50000E+00
 -1      9103 2.37293E+01 6.94852E+00 5.75247E-01
 -1      9104 8.27871E+00 1.04957E+02 1.50000E+00
 -1      9105 6.55329E+00 1.82632E+01 2.50000E+00
 -1      9106 4.58664E+00 1.64334E+01 2.50000E+00
 -1      9107 7.28914E+00 1.95818E+02 0.00000E+00
 -1      9108 6.60389E+00 1.97578E+02 0.00000E+00
 -1      9109 8.27677E+00 9.31559E+01 1.50000E+00
 -1      9110-5.23214E+00 8.63786E+01 0.00000E+00
 -1      9111-5.59268E+00 1.71841E+02 0.00000E+00
 -1      9112-1.47921E+01 2.19786E-01-3.60795E+00
 -1      9113-1.69533E+01 6.56847E-01-2.18543E+00
 -1      9114-8.56429E+00 1.12177E+02 1.50000E+00
 -1      9115 1.20588E+01-1.53543E-01-8.03241E-01
 -1      9116 1.12154E+01-7.14885E-01-3.30324E+00
 -1      9117 1.27747E+01-2.34191E+00-1.22240E+00
 -1      9118 1.39004E+00 5.94874E+01 0.00000E+00
 -1      9119-3.57434E+00 7.40106E+01 0.00000E+00
 -1      9120-2.05720E+01 7.50349E+00 2.85148E+00
 -1      9121 8.26895E+00 1.13249E+02-1.50000E+00
 -1      9122 8.27205E+00 8.96467E+01 1.50000E+00
 -1      9123 1.68351E+01-9.95737E+00-2.50000E+00
 -1      9124 1.80850E+01-1.05812E+01 1.23629E-01
 -1      9125 8.26927E+00 1.25049E+02 1.50000E+00
 -1      9126-8.27967E+00 1.95607E+02-1.50000E+00
 -1      9127-5.63757E+00 1.95663E+02 0.00000E+00
 -1      9128-8.49806E+00 2.31612E+01 4.00000E+00
 -1      9129 2.06265E+01 6.21974E+00-3.18108E+00
 -1      9130 2.10003E+01 8.43001E+00-3.18108E+00
 -1      9131 1.04127E+01 6.29001E-01-3.47084E+00
 -1      9132 1.28249E+00 5.13041E+01 0.00000E+00
 -1      9133-8.28939E+00 9.39978E+01-1.50000E+00
 -1      9134-8.28939E+00 9.59845E+01-1.50000E+00
 -1      9135-8.28939E+00 9.39978E+01 1.50000E+00
 -1      9136-6.57879E+00 9.39466E+01 0.00000E+00
 -1      9137 6.56323E+00 1.70514E+02 0.00000E+00
 -1      9138 5.74135E+00 1.69304E+02 1.50000E+00
 -1      9139-2.23040E+01 8.71754E+00 2.85148E+00
 -1      9140 1.27653E+00 2.19784E+02 0.00000E+00
 -1      9141 2.84494E+00 2.38031E+01-4.00000E+00
 -1      9142 2.53327E+01 3.10614E+00 2.50000E+00
 -1      9143 2.53563E+01 4.71423E+00 2.50000E+00
 -1      9144 2.28482E+01 5.54738E+00 3.07525E+00
 -1      9145 8.23883E+00 1.84041E+02 1.50000E+00
 -1      9146-8.33070E+00 5.27906E+01 1.50000E+00
 -1      9147 3.76893E+00 5.93121E+01 0.00000E+00
 -1      9148-8.58170E+00 1.24114E+02-1.50000E+00
 -1      9149-1.40342E+01 1.60115E+01-2.50000E+00
 -1      9150-1.14490E+01 1.56834E+01-2.47849E+00
 -1      9151-2.24001E+01 1.30381E+01 8.35107E-01
 -1      9152 1.22458E+01 3.20380E+00 2.50000E+00
 -1      9153 2.10768E+01-6.44334E-01-3.15630E+00
 -1      9154-1.98102E+01-1.30599E+01 2.24659E+00
 -1      9155-1.22183E+01 2.35266E+01 1.50000E+00
 -1      9156-1.30484E+01 1.79369E+01-3.01500E+00
 -1      9157 4.13221E+00 1.88936E+01 2.63997E+00
 -1      9158-4.95109E+00 9.58203E+01 0.00000E+00
 -1      9159-1.86559E+01 6.21758E+00 2.50000E+00
 -1      9160 2.51442E+01-8.46935E-01 2.50000E+00
 -1      9161 2.55670E+01 1.14439E+00 2.50000E+00
 -1      9162 2.51067E+01 2.01562E-01-6.56300E-01
 -1      9163-8.28168E+00 8.41073E+01 1.50000E+00
 -1      9164-6.56335E+00 8.21122E+01 0.00000E+00
 -1      9165-8.28402E+00 1.15772E+02-1.50000E+00
 -1      9166 1.41728E+01-1.95902E+00-2.91916E+00
 -1      9167-5.37262E+00 4.42199E+01 0.00000E+00
 -1      9168-5.87842E+00 4.65684E+01 0.00000E+00
 -1      9169-6.95020E+00 4.51439E+01 0.00000E+00
 -1      9170-4.94665E+00 1.07632E+02 0.00000E+00
 -1      9171-1.31820E+01 9.30327E+00-2.50000E+00
 -1      9172-1.31874E+01 7.53646E+00-3.04157E+00
 -1      9173-7.83061E+00 2.08349E+02 1.50000E+00
 -1      9174-8.24352E+00 1.75332E+02 1.50000E+00
 -1      9175 4.14603E-01 1.44484E+01 3.88329E+00
 -1      9176-1.73767E+01 1.90638E+01-3.80000E+00
 -1      9177-1.66088E+01 1.82915E+01-1.30000E+00
 -1      9178-1.58886E+01 1.67108E+01-2.50000E+00
 -1      9179-1.49029E+01 1.86362E+01-3.01500E+00
 -1      9180-1.56231E+01 2.02169E+01-1.81500E+00
 -1      9181 2.28808E+01 8.73314E+00 5.75247E-01
 -1      9182 2.96876E+00 5.67667E+01 0.00000E+00
 -1      9183 2.42473E+00 5.43863E+01 0.00000E+00
 -1      9184 1.88347E+01-8.52446E+00 2.62363E+00
 -1      9185 5.89875E-01 5.69420E+01 0.00000E+00
 -1      9186 9.29716E+00 3.21464E+01 1.50000E+00
 -1      9187 9.29716E+00 3.21464E+01-1.50000E+00
 -1      9188 1.73379E+01-1.24574E+01-2.50000E+00
 -1      9189 1.92508E+01-1.32196E+01-4.44089E-16
 -1      9190 2.05034E+01-1.36629E+01-2.50000E+00
 -1      9191 1.93375E+01-1.10245E+01-2.37637E+00
 -1      9192 2.12505E+01-1.17866E+01 1.23629E-01
 -1      9193-2.17257E+01-3.08704E+00 2.50000E+00
 -1      9194 7.76448E+00 2.19393E+02-1.50000E+00
 -1      9195 7.76448E+00 2.19393E+02 1.50000E+00
 -1      9196 8.54295E+00 2.20874E+02-2.23984E-14
 -1      9197 6.30743E+00 2.21058E+02 1.50000E+00
 -1      9198 6.30743E+00 2.21058E+02-1.50000E+00
 -1      9199-2.46176E+00 4.42526E+01 0.00000E+00
 -1      9200-2.96755E+00 4.66011E+01 0.00000E+00
 -1      9201-3.79505E+00 4.32959E+01 0.00000E+00
 -1      9202-5.26664E+00 8.82081E+00 1.57100E+00
 -1      9203-6.07906E+00 1.02500E+01 2.83077E+00
 -1      9204-4.82345E+00 7.51745E+00 3.74023E+00
 -1      9205-3.37772E+00 8.09688E+00 1.06156E+00
 -1      9206-4.19014E+00 9.52609E+00 2.32133E+00
 -1      9207-8.28939E+00 9.20111E+01 1.50000E+00
 -1      9208 2.29850E+00 2.21667E+02-4.44089E-16
 -1      9209-5.22152E-01 4.67342E+01 0.00000E+00
 -1      9210 1.27030E+01 4.65259E+00 3.40802E+00
 -1      9211 5.95962E+00 5.94262E+01 0.00000E+00
 -1      9212-2.34442E+01 1.22757E+01 2.50000E+00
 -1      9213-4.02753E-02 5.03180E+01 0.00000E+00
 -1      9214-8.28193E+00 1.03872E+02 1.50000E+00
 -1      9215-2.70898E+00 1.02060E+01-2.67867E+00
 -1      9216-6.84223E+00 4.33537E+01 0.00000E+00
 -1      9217 1.17196E+01-8.98407E+00-3.78016E-01
 -1      9218 1.14354E+01-9.91360E+00-1.31968E+00
 -1      9219 1.13286E+01-1.02627E+01 5.29484E-01
 -1      9220 1.55315E+01-8.34792E+00-2.87802E+00
 -1      9221 2.44288E+01-8.68485E+00 2.50000E+00
 -1      9222 1.10177E+01-1.36551E+01 1.17956E+00
 -1      9223 1.31673E+01-1.21876E+01-1.05954E-01
 -1      9224-1.71899E+01 1.41083E+01-3.35502E+00
 -1      9225-8.33070E+00 5.08040E+01-1.50000E+00
 -1      9226-7.40332E+00 4.91676E+01-1.50000E+00
 -1      9227-8.33070E+00 5.08040E+01 1.50000E+00
 -1      9228-3.34229E+00 8.19737E+00 3.74023E+00
 -1      9229-2.21331E+00 8.18721E+00 2.49566E+00
 -1      9230-8.25916E+00 1.63386E+02 1.50000E+00
 -1      9231-7.49580E+00 6.96661E+01-1.50000E+00
 -1      9232-7.49580E+00 6.76794E+01 1.50000E+00
 -1      9233-7.49580E+00 6.96661E+01 1.50000E+00
 -1      9234-4.99160E+00 6.91232E+01 0.00000E+00
 -1      9235-2.36123E+00 4.81260E+01 0.00000E+00
 -1      9236 8.41720E-02 4.82591E+01 0.00000E+00
 -1      9237 4.29058E+00 5.57510E+01 0.00000E+00
 -1      9238 3.74654E+00 5.33705E+01 0.00000E+00
 -1      9239-4.94381E+00 8.40368E+01 0.00000E+00
 -1      9240 1.79091E+00 5.28737E+01 0.00000E+00
 -1      9241 1.81493E+01-1.68983E+01-2.50000E+00
 -1      9242 1.78995E+01-1.46609E+01-4.44089E-16
 -1      9243 1.81493E+01-1.68983E+01 2.50000E+00
 -1      9244 1.19896E+01-2.19266E+00-3.30324E+00
 -1      9245-9.00100E+00 3.95133E+01 1.50000E+00
 -1      9246-7.50180E+00 3.78611E+01 1.49264E+00
 -1      9247-1.89390E+01 1.39644E+01-1.99143E-02
 -1      9248-4.28297E+00 7.15669E+01 0.00000E+00
 -1      9249-1.78275E+01-3.82683E+00 9.47082E-01
 -1      9250-1.61781E+01-5.21404E+00 3.44708E+00
 -1      9251-1.73189E+01-5.93810E+00 1.33003E+00
 -1      9252 4.72565E+00 2.34662E+01-4.00000E+00
 -1      9253-2.28683E+01 7.40880E+00-2.14852E+00
 -1      9254-2.43764E+01 7.28625E+00 3.51479E-01
 -1      9255-2.53781E+01 6.77815E+00-2.50000E+00
 -1      9256-2.30703E+01 4.79156E+00-2.64070E+00
 -1      9257-2.45784E+01 4.66902E+00-1.40699E-01
 -1      9258 2.45573E+00 5.83068E+01 0.00000E+00
 -1      9259-8.36915E+00 2.08920E+01-2.50000E+00
 -1      9260-6.20740E+00 2.17376E+01-2.62494E+00
 -1      9261-9.00100E+00 3.95133E+01-1.50000E+00
 -1      9262-7.50180E+00 3.78611E+01-1.50736E+00
 -1      9263-5.78168E+00 8.02450E+01 0.00000E+00
 -1      9264-6.92079E+00 8.23546E+00-3.47222E-02
 -1      9265 1.73379E+01-1.24574E+01 2.50000E+00
 -1      9266 2.05034E+01-1.36629E+01 2.50000E+00
 -1      9267 1.93375E+01-1.10245E+01 2.62363E+00
 -1      9268-4.62092E+00 2.27720E+01-2.62494E+00
 -1      9269-1.93782E+01-1.23597E+01-5.62834E-01
 -1      9270-2.08507E+01-1.02200E+01-1.79883E-01
 -1      9271-1.17257E+01 1.90786E+01-3.01500E+00
 -1      9272-8.28168E+00 8.01339E+01 1.50000E+00
 -1      9273 1.99916E+01 8.07840E-01-2.50000E+00
 -1      9274 2.19888E+01 5.23988E-01-3.15630E+00
 -1      9275 4.09380E+00 1.98936E+02 0.00000E+00
 -1      9276-8.28168E+00 8.21206E+01-1.50000E+00
 -1      9277-8.28168E+00 8.21206E+01 1.50000E+00
 -1      9278-4.30084E+00 4.56443E+01 0.00000E+00
 -1      9279-1.66102E+01-6.62776E+00-2.10684E+00
 -1      9280-1.77511E+01-7.35183E+00 7.76111E-01
 -1      9281 8.27155E+00 2.11204E+02 1.50000E+00
 -1      9282-2.38131E+01-6.82595E+00 2.50000E+00
 -1      9283-2.16334E+01-5.05099E+00 2.50000E+00
 -1      9284-2.11248E+01-7.16225E+00 2.88295E+00
 -1      9285 1.91521E+01-1.51042E+01-2.50000E+00
 -1      9286 1.91521E+01-1.51042E+01 2.50000E+00
 -1      9287-8.23934E+00 1.71790E+02 1.50000E+00
 -1      9288-8.83223E+00 2.25208E+02-8.33333E-01
 -1      9289-8.83223E+00 2.25208E+02 8.33333E-01
 -1      9290-9.20728E+00 2.26514E+02 8.33333E-01
 -1      9291-9.20728E+00 2.26514E+02-8.33333E-01
 -1      9292-2.47332E+01-2.02037E+00 2.50000E+00
 -1      9293-1.93551E+01 1.75440E+01 2.50000E+00
 -1      9294-1.95259E+01 1.46667E+01 3.33511E+00
 -1      9295-8.47510E+00 4.42665E+01-1.59219E+00
 -1      9296-8.36712E+00 4.24763E+01-1.59219E+00
 -1      9297-8.36712E+00 4.24763E+01 1.40781E+00
 -1      9298 8.79361E+00 2.18226E+02-1.50000E+00
 -1      9299 1.65798E+01-1.80988E+01-2.50000E+00
 -1      9300 1.45863E+01-1.85821E+01-2.50000E+00
 -1      9301 1.47156E+01-1.76444E+01 2.72062E-01
 -1      9302-8.57001E+00 8.84357E+01-1.50000E+00
 -1      9303-3.13933E+00 2.47483E+01-4.00000E+00
 -1      9304 8.83273E+00 2.25210E+02 8.33333E-01
 -1      9305 9.21874E+00 2.26545E+02 8.33333E-01
 -1      9306 9.21874E+00 2.26545E+02-8.33333E-01
 -1      9307 8.83273E+00 2.25210E+02-8.33333E-01
 -1      9308-4.80663E+00 4.79928E+01 0.00000E+00
 -1      9309-7.40332E+00 4.72231E+01-1.50784E+00
 -1      9310-7.40332E+00 4.72231E+01 1.49216E+00
 -1      9311-7.40332E+00 4.91676E+01 1.50000E+00
 -1      9312 7.41731E+00 5.90301E+01 1.50000E+00
 -1      9313 7.41731E+00 5.70637E+01 1.50000E+00
 -1      9314 4.83462E+00 5.81315E+01 0.00000E+00
 -1      9315 7.41731E+00 5.90301E+01-1.50000E+00
 -1      9316 4.85502E+00 2.21378E+02 1.50000E+00
 -1      9317-3.06460E+00 1.89061E+01-1.27655E-01
 -1      9318 1.16277E+01 9.35614E+00-2.50000E+00
 -1      9319-8.23575E+00 1.47973E+02-1.50000E+00
 -1      9320 2.87820E+00 1.98336E+02 1.50000E+00
 -1      9321 8.41212E+00 1.06645E+01-2.50000E+00
 -1      9322 8.40781E+00 8.61476E+00-3.25173E+00
 -1      9323-8.47510E+00 4.42665E+01 1.40781E+00
 -1      9324-5.84146E+00 1.27635E+02 0.00000E+00
 -1      9325-7.07251E+00 3.62004E+01-1.50736E+00
 -1      9326-8.49806E+00 2.31612E+01-4.00000E+00
 -1      9327-1.40747E+01 2.36947E+01 1.50000E+00
 -1      9328-3.92770E+00 7.98676E+01 0.00000E+00
 -1      9329 5.78386E+00 1.63970E+02 0.00000E+00
 -1      9330 8.58890E+00 3.33435E+01-1.50000E+00
 -1      9331 1.81733E+01 6.00948E+00-2.50000E+00
 -1      9332 1.93635E+01 4.68929E+00 2.50000E+00
 -1      9333 2.72266E+00 2.18279E+02 0.00000E+00
 -1      9334 2.20680E+01 1.26693E+01 2.50000E+00
 -1      9335 2.14691E+01 1.09981E+01-6.81076E-01
 -1      9336-2.47902E+01 4.53115E+00 2.50000E+00
 -1      9337-2.55180E+01 5.79940E+00 2.50000E+00
 -1      9338-2.47183E+01 3.69027E+00-1.40699E-01
 -1      9339-1.42491E+00 8.07753E+00-3.75109E+00
 -1      9340 8.54231E+00 6.03248E+01 1.50000E+00
 -1      9341 8.54231E+00 6.03248E+01-1.50000E+00
 -1      9342 2.51172E+01 5.67363E+00-2.50000E+00
 -1      9343 2.40459E+01 6.01179E+00 5.75247E-01
 -1      9344 5.77265E+00 1.48657E+02 0.00000E+00
 -1      9345 9.99377E+00-1.40924E+01-2.89313E+00
 -1      9346 1.06869E+01-1.47369E+01-1.21066E-01
 -1      9347-4.18149E+00 1.68325E+01 4.79066E-01
 -1      9348-1.43597E+01 1.63425E+00 3.33333E+00
 -1      9349-1.69533E+01 6.56847E-01 2.81457E+00
 -1      9350 5.76812E+00 1.72259E+02 0.00000E+00
 -1      9351-1.56978E+01 1.50149E+01-2.50000E+00
 -1      9352-1.88960E+01 8.03054E+00 1.05258E+00
 -1      9353-8.47510E+00 4.57987E+01-1.50784E+00
 -1      9354-8.47510E+00 4.57987E+01 1.49216E+00
 -1      9355-4.39840E+00 7.95829E+00-2.13397E-01
 -1      9356 1.67463E+01 5.83128E+00 2.50000E+00
 -1      9357 1.52287E+01 5.57546E+00 3.40802E+00
 -1      9358-1.61412E+01-3.15467E+00-3.31437E+00
 -1      9359-1.61842E+01-1.67613E+00-4.99798E-01
 -1      9360-3.88528E+00 9.17479E+01 0.00000E+00
 -1      9361 9.79562E+00 9.38432E+00-3.25173E+00
 -1      9362 8.79361E+00 2.16751E+02 1.60553E+00
 -1      9363 8.27155E+00 2.14645E+02 1.60553E+00
 -1      9364 8.79361E+00 2.16751E+02-1.39447E+00
 -1      9365 1.36972E+01-5.47798E+00-8.33333E-01
 -1      9366 1.58481E+01-5.54908E+00-2.50000E+00
 -1      9367 1.35089E+01-4.67511E+00-3.33333E+00
 -1      9368 1.31580E+01-3.35614E+00-1.25249E+00
 -1      9369 1.53089E+01-3.42724E+00-2.91916E+00
 -1      9370 8.96756E+00-1.96920E+01-1.50988E+00
 -1      9371 8.59455E+00-2.09119E+01-5.62834E-01
 -1      9372 1.48500E+01-1.13937E+01 2.50000E+00
 -1      9373 1.35465E+01-9.78420E+00 2.12198E+00
 -1      9374 8.27155E+00 2.13111E+02 1.51256E+00
 -1      9375 8.27155E+00 2.13111E+02-1.48744E+00
 -1      9376-3.47790E+00 1.35011E+01-3.29171E+00
 -1      9377 1.19775E+01-8.14061E+00 7.45456E-01
 -1      9378 1.24181E+01-6.69959E+00 4.55317E-01
 -1      9379 1.21260E+01-7.65479E+00-3.78597E-01
 -1      9380-2.30928E+01 1.94506E+00-2.64070E+00
 -1      9381-5.81148E+00 9.21836E+01 0.00000E+00
 -1      9382 1.67463E+01 5.83128E+00-2.50000E+00
 -1      9383 1.51928E+01 5.63482E+00-3.36051E+00
 -1      9384-1.76943E+01-7.28358E-01 2.81457E+00
 -1      9385 2.62412E+00 2.20216E+02 0.00000E+00
 -1      9386-1.03565E+01 2.31644E+01 4.00000E+00
 -1      9387-1.12236E+01 2.24653E+01 2.50000E+00
 -1      9388-1.02276E+01 2.08951E+01-2.50000E+00
 -1      9389-1.03565E+01 2.31644E+01-4.00000E+00
 -1      9390-1.12236E+01 2.24653E+01-2.50000E+00
 -1      9391 2.54165E+01-5.19527E+00 2.50000E+00
 -1      9392 2.38087E+01-4.92934E+00 0.00000E+00
 -1      9393 2.54165E+01-5.19527E+00-2.50000E+00
 -1      9394-4.22731E+00 1.91927E+01-2.52710E+00
 -1      9395-1.47820E+01 2.52918E-01 3.63333E+00
 -1      9396-1.55659E+01 3.46256E-01 1.44790E+00
 -1      9397-1.80707E+00 1.89489E+01 2.39944E+00
 -1      9398-4.11286E+00 1.76981E+01 2.47290E+00
 -1      9399 2.28417E+01 8.37504E+00-6.81076E-01
 -1      9400 1.24586E+01-5.85827E+00-3.33333E+00
 -1      9401 1.47978E+01-6.73225E+00-2.50000E+00
 -1      9402 2.06472E+01-9.46993E+00-2.37637E+00
 -1      9403 8.79361E+00 2.18226E+02 1.50000E+00
 -1      9404-5.84413E+00 7.37887E+00-2.53472E+00
 -1      9405 8.27155E+00 2.14645E+02-1.39447E+00
 -1      9406 2.39977E+01-9.57463E+00-2.50000E+00
 -1      9407 2.28999E+01-1.04586E+01-2.50000E+00
 -1      9408 2.23373E+01-1.01369E+01 1.23629E-01
 -1      9409-1.80439E+01 1.85206E+01-2.50000E+00
 -1      9410 2.84494E+00 2.38031E+01 4.00000E+00
 -1      9411 3.75137E+00 2.09812E+01 2.63997E+00
 -1      9412 1.60358E+00 7.07443E+00-2.50000E+00
 -1      9413 1.35187E+01-7.95385E+00-2.87802E+00
 -1      9414 1.24181E+01-6.69959E+00-1.21135E+00
 -1      9415-2.59009E+00 1.47295E+01-3.29171E+00
 -1      9416 4.07654E+00 2.19897E+02 0.00000E+00
 -1      9417-1.24437E+00 1.63219E+01 1.88945E+00
 -1      9418-1.99270E+01-8.18926E+00-2.11705E+00
 -1      9419-1.73807E+01 1.58042E+01-3.35502E+00
 -1      9420-1.87682E+01 1.68417E+01-8.55021E-01
 -1      9421-1.62149E+01-1.77679E+00 1.26165E+00
 -1      9422-2.08325E+01-1.08368E+01-3.06283E+00
 -1      9423-1.96360E+01-1.32032E+01-1.68631E+00
 -1      9424-1.87124E+01-1.11725E+01-3.62347E+00
 -1      9425-1.84546E+01-1.03290E+01-2.50000E+00
 -1      9426 5.88840E+00 1.95818E+02 0.00000E+00
 -1      9427 1.54131E+01 1.84384E+01-4.00000E+00
 -1      9428 1.54131E+01 1.84384E+01 4.00000E+00
 -1      9429-2.38843E+01 1.08954E+01 2.50000E+00
 -1      9430 1.44045E+01 5.22540E+00 4.75084E-02
 -1      9431-6.63045E+00 2.35636E+01 4.00000E+00
 -1      9432-8.58430E+00 7.08853E+01-1.50000E+00
 -1      9433-8.58430E+00 7.08853E+01 1.50000E+00
 -1      9434-5.84413E+00 7.37887E+00 2.46528E+00
 -1      9435 4.85502E+00 2.21378E+02-1.50000E+00
 -1      9436 2.51351E+01-1.83559E+00 2.50000E+00
 -1      9437 2.50976E+01-7.87093E-01-6.56300E-01
 -1      9438-9.91317E+00 2.27910E+02-7.50000E-01
 -1      9439-9.42966E+00 2.27073E+02-1.58333E+00
 -1      9440-9.69078E+00 2.27351E+02 1.04361E-14
 -1      9441 5.88273E+00 1.99322E+02 0.00000E+00
 -1      9442 3.82376E+00 6.50026E+00 6.65803E-01
 -1      9443 9.70224E+00 2.27382E+02 1.04361E-14
 -1      9444 9.91649E+00 2.27918E+02 7.50000E-01
 -1      9445 9.43299E+00 2.27081E+02 1.58333E+00
 -1      9446-9.03225E+00 3.85451E+01-1.99766E+00
 -1      9447-8.53205E+00 3.77885E+01-5.05019E-01
 -1      9448 6.89565E+00 5.72053E+00-7.51732E-01
 -1      9449 5.45497E+00 5.70718E+00 6.65803E-01
 -1      9450-1.65815E+01 1.96184E+01-4.00000E+00
 -1      9451-1.48279E+01 2.07714E+01-2.01500E+00
 -1      9452 2.20680E+01 1.26693E+01-2.50000E+00
 -1      9453 4.55263E+00 6.20583E+00 1.91580E+00
 -1      9454-1.34606E+01 1.96877E+01-3.01500E+00
 -1      9455-9.03326E+00 3.85296E+01 2.00081E+00
 -1      9456-8.53306E+00 3.77731E+01 4.93450E-01
 -1      9457 1.32355E+01-1.31766E+01 2.77206E+00
 -1      9458-1.80707E+00 1.89489E+01-2.60056E+00
 -1      9459 8.97402E+00 2.20109E+02 1.50000E+00
 -1      9460 7.51697E+00 2.21775E+02 1.50000E+00
 -1      9461 8.97402E+00 2.20109E+02-1.50000E+00
 -1      9462 7.51697E+00 2.21775E+02-1.50000E+00
 -1      9463-2.41654E+01-5.90208E+00 2.50000E+00
 -1      9464-2.42578E+01-3.93813E+00 2.50000E+00
 -1      9465-2.34944E+01-4.20099E+00 4.44089E-16
 -1      9466-2.42578E+01-3.93813E+00-2.50000E+00
 -1      9467-2.41654E+01-5.90208E+00-2.50000E+00
 -1      9468 1.38022E+01 1.19816E+01-3.12225E+00
 -1      9469-4.11286E+00 1.76981E+01-2.52710E+00
 -1      9470 1.01111E+01 2.23882E+02 1.50000E+00
 -1      9471 9.87759E+00 2.24648E+02 1.50000E+00
 -1      9472 9.47880E+00 2.23494E+02 1.50000E+00
 -1      9473 1.01111E+01 2.23882E+02-1.50000E+00
 -1      9474 9.47880E+00 2.23494E+02-1.50000E+00
 -1      9475 9.87759E+00 2.24648E+02-1.50000E+00
 -1      9476 1.00706E+01-2.12066E+01-3.06283E+00
 -1      9477 1.65798E+01-1.80988E+01 2.50000E+00
 -1      9478 1.45863E+01-1.85821E+01 2.50000E+00
 -1      9479 1.27270E+01-1.65177E+01 2.77206E+00
 -1      9480-1.31473E+01 2.16794E+01-2.01500E+00
 -1      9481-1.21526E+01 2.06181E+01-3.01500E+00
 -1      9482-1.21506E+01 2.25082E+01-4.00000E+00
 -1      9483-1.22183E+01 2.35266E+01-1.50000E+00
 -1      9484-1.61720E+01-3.25534E+00 3.44708E+00
 -1      9485 1.17879E+01-9.97310E+00 2.50000E+00
 -1      9486 1.20458E+01-9.12964E+00 3.62347E+00
 -1      9487 8.72523E+00-1.83365E+01 3.31438E+00
 -1      9488 1.00946E+01-1.71889E+01 3.31438E+00
 -1      9489 1.13577E+01-1.76653E+01 2.77206E+00
 -1      9490-7.21237E+00 2.24747E+02 8.40616E-01
 -1      9491-7.21237E+00 2.24747E+02-8.26051E-01
 -1      9492-8.82760E+00 2.22955E+02 7.28235E-03
 -1      9493 2.18131E+01-1.21083E+01-2.50000E+00
 -1      9494-1.86879E+01 1.80872E+01-3.80000E+00
 -1      9495-1.93551E+01 1.75440E+01-2.50000E+00
 -1      9496-1.86879E+01 1.80872E+01 3.80000E+00
 -1      9497-2.45350E+01-2.98905E+00 2.50000E+00
 -1      9498-2.37716E+01-3.25192E+00 4.44089E-16
 -1      9499-2.47332E+01-2.02037E+00-2.50000E+00
 -1      9500-2.45350E+01-2.98905E+00-2.50000E+00
 -1      9501 7.86307E+00 2.25284E+02 2.33333E+00
 -1      9502 7.79752E+00 2.23054E+02 1.50000E+00
 -1      9503 8.76719E+00 2.22980E+02-2.08441E-14
 -1      9504 7.15145E+00 2.24770E+02 8.33333E-01
 -1      9505 7.86307E+00 2.25284E+02-2.33333E+00
 -1      9506 7.79752E+00 2.23054E+02-1.50000E+00
 -1      9507 7.15145E+00 2.24770E+02-8.33333E-01
 -1      9508 2.23924E+01-1.13071E+01-2.50000E+00
 -1      9509 2.18298E+01-1.09854E+01 1.23629E-01
 -1      9510 4.72565E+00 2.34662E+01 4.00000E+00
 -1      9511-2.66094E+00 2.25059E+02-2.33333E+00
 -1      9512-2.66094E+00 2.25059E+02 2.33333E+00
 -1      9513 1.94362E+01 7.53993E+00-3.18108E+00
 -1      9514-1.86919E+01 1.48276E+01-3.35502E+00
 -1      9515 8.32534E+00 3.52172E+01 1.50000E+00
 -1      9516 8.32534E+00 3.52172E+01-1.50000E+00
 -1      9517 7.92353E+00 3.70541E+01 1.18169E-03
 -1      9518 2.57586E+00 1.71355E+01 3.88329E+00
 -1      9519 2.28999E+01-1.04586E+01 2.50000E+00
 -1      9520 2.39977E+01-9.57463E+00 2.50000E+00
 -1      9521 2.06472E+01-9.46993E+00 2.62363E+00
 -1      9522 5.20315E+00 1.97578E+02 0.00000E+00
 -1      9523 4.65365E+00 1.96885E+02-1.50000E+00
 -1      9524 4.65365E+00 1.96885E+02 1.50000E+00
 -1      9525 2.32870E+00 1.97643E+02-1.15289E-14
 -1      9526 2.87820E+00 1.98336E+02-1.50000E+00
 -1      9527 1.20180E+01-7.29929E+00 3.62347E+00
 -1      9528 1.24586E+01-5.85827E+00 3.33333E+00
 -1      9529 1.47978E+01-6.73225E+00 2.50000E+00
 -1      9530 1.32566E+01-6.91900E+00 1.12347E+00
 -1      9531 6.42819E-01 1.76694E+01 3.88329E+00
 -1      9532-6.64304E+00 1.15330E+01-2.50000E+00
 -1      9533-1.81704E+01-9.39953E+00 3.44168E+00
 -1      9534-2.09889E+01-1.06353E+01 3.61742E+00
 -1      9535-1.99270E+01-8.18926E+00 2.88295E+00
 -1      9536-1.51392E+01 2.06698E+01-4.00000E+00
 -1      9537-3.34229E+00 8.19737E+00-3.75977E+00
 -1      9538-2.50429E+00 8.10390E+00-2.67867E+00
 -1      9539 1.13271E+01-9.68412E-01 4.02778E+00
 -1      9540 8.37766E+00 5.63114E+00 3.18015E+00
 -1      9541 1.35187E+01-7.95385E+00 2.12198E+00
 -1      9542-1.07996E+01 5.12953E+00-3.08829E+00
 -1      9543-1.24444E+01 6.15173E+00-3.04157E+00
 -1      9544-8.81883E+00 1.83474E+02 1.50000E+00
 -1      9545-8.81883E+00 1.83474E+02-1.50000E+00
 -1      9546 1.38140E+01 1.41695E+01-3.12225E+00
 -1      9547 7.15592E+00 4.18499E+00-3.60575E+00
 -1      9548 8.83689E+00-2.08324E+01 1.11742E+00
 -1      9549 8.84555E+00 6.97335E+01 1.50000E+00
 -1      9550 1.18305E+01 1.14456E+01-3.12225E+00
 -1      9551-1.87302E+01-1.12307E+01 3.62917E+00
 -1      9552-1.47772E+01 2.44924E+02 3.68058E+00
 -1      9553-1.37385E+01 2.42994E+02 4.04519E+00
 -1      9554-1.45056E+01 2.43104E+02 2.72577E+00
 -1      9555-1.40221E+01 2.44909E+02 2.72577E+00
 -1      9556-1.29835E+01 2.42979E+02 3.09038E+00
 -1      9557-1.32550E+01 2.44798E+02 4.04519E+00
 -1      9558-2.33893E+01-7.71927E+00-2.50000E+00
 -1      9559-2.21915E+01-8.74628E+00-2.50000E+00
 -1      9560-2.22096E+01-8.12944E+00 3.82951E-01
 -1      9561 7.45973E+00 1.68088E+02 1.50000E+00
 -1      9562 7.45973E+00 1.67105E+02-4.44089E-15
 -1      9563 7.45973E+00 1.69071E+02-4.44089E-15
 -1      9564 7.45973E+00 1.68088E+02-1.50000E+00
 -1      9565 8.81789E+00 1.87749E+02-1.50000E+00
 -1      9566-1.69410E+01-7.70953E+00-3.40750E+00
 -1      9567-1.80818E+01-8.43359E+00-5.24548E-01
 -1      9568-8.87820E+00 1.59624E+02-1.50000E+00
 -1      9569-8.87820E+00 1.59624E+02 1.50000E+00
 -1      9570-1.51403E+01 2.35473E+02 3.87229E+00
 -1      9571-1.48688E+01 2.37292E+02 2.91748E+00
 -1      9572-1.37385E+01 2.36006E+02 4.04519E+00
 -1      9573-1.32550E+01 2.34202E+02 4.04519E+00
 -1      9574-1.29835E+01 2.36021E+02 3.09038E+00
 -1      9575-1.43853E+01 2.35488E+02 2.91748E+00
 -1      9576 2.33396E+01 7.85723E+00 5.75247E-01
 -1      9577 2.24519E+01 9.28374E+00-6.81076E-01
 -1      9578-1.37385E+01 2.36006E+02-4.04519E+00
 -1      9579-1.32550E+01 2.34202E+02-4.04519E+00
 -1      9580-1.29835E+01 2.36021E+02-3.09038E+00
 -1      9581-1.48676E+01 2.37285E+02-2.88901E+00
 -1      9582-1.43841E+01 2.35481E+02-2.88901E+00
 -1      9583-1.51391E+01 2.35465E+02-3.84383E+00
 -1      9584 1.21632E+01-1.49355E+01 2.77206E+00
 -1      9585 2.18131E+01-1.21083E+01 2.50000E+00
 -1      9586 7.87994E+00 3.96745E+01 1.06711E-01
 -1      9587 1.07043E+01 9.78293E+00-1.37398E+00
 -1      9588 2.23924E+01-1.13071E+01 2.50000E+00
 -1      9589 8.89930E+00 1.01228E+02-1.50000E+00
 -1      9590 8.89930E+00 1.01228E+02 1.50000E+00
 -1      9591-9.91317E+00 2.27910E+02 7.50000E-01
 -1      9592-1.02297E+01 2.28574E+02-7.36390E-16
 -1      9593-2.55180E+01 5.79940E+00-2.50000E+00
 -1      9594 1.29835E+01 2.42979E+02 3.09038E+00
 -1      9595 1.32550E+01 2.44798E+02 4.04519E+00
 -1      9596 1.37385E+01 2.42994E+02 4.04519E+00
 -1      9597 1.48662E+01 2.41723E+02 2.70625E+00
 -1      9598 1.51377E+01 2.43543E+02 3.66106E+00
 -1      9599 1.43827E+01 2.43528E+02 2.70625E+00
 -1      9600 1.37355E+01-1.90858E+01-2.50000E+00
 -1      9601 1.38648E+01-1.81482E+01 2.72062E-01
 -1      9602-2.45876E+01 9.04936E+00-2.50000E+00
 -1      9603-2.51519E+01 7.74062E+00-2.50000E+00
 -1      9604-2.41502E+01 8.24873E+00 3.51479E-01
 -1      9605-2.48441E+01 3.54391E+00 2.50000E+00
 -1      9606-2.47723E+01 2.70303E+00-1.40699E-01
 -1      9607 8.88533E+00 2.07423E+02-1.50000E+00
 -1      9608-1.80637E+01-9.05043E+00-3.40750E+00
 -1      9609-8.89286E+00 1.99348E+02 1.50000E+00
 -1      9610-8.89286E+00 1.99348E+02-1.50000E+00
 -1      9611 2.54913E+01 2.13021E+00 2.50000E+00
 -1      9612 2.50311E+01 1.18738E+00-6.56300E-01
 -1      9613 6.18437E+00 4.93240E+00-2.50000E+00
 -1      9614-1.03967E+01 2.28748E+02 1.58333E+00
 -1      9615-9.91317E+00 2.27910E+02 2.29519E+00
 -1      9616-9.91317E+00 2.27910E+02-2.29519E+00
 -1      9617-1.03967E+01 2.28748E+02-1.58333E+00
 -1      9618 1.29835E+01 2.36021E+02 3.09038E+00
 -1      9619 1.37385E+01 2.36006E+02 4.04519E+00
 -1      9620 1.32550E+01 2.34202E+02 4.04519E+00
 -1      9621 1.43813E+01 2.35464E+02 2.78570E+00
 -1      9622 1.51363E+01 2.35449E+02 3.74051E+00
 -1      9623 1.48648E+01 2.37268E+02 2.78570E+00
 -1      9624 9.91649E+00 2.27918E+02 2.29519E+00
 -1      9625 1.04000E+01 2.28755E+02 1.58333E+00
 -1      9626 1.04000E+01 2.28755E+02-1.58333E+00
 -1      9627 9.91649E+00 2.27918E+02-7.50000E-01
 -1      9628 9.91649E+00 2.27918E+02-2.29519E+00
 -1      9629 9.01712E+00 2.21037E+02 2.01000E+00
 -1      9630 8.58606E+00 2.21802E+02 5.10000E-01
 -1      9631 8.95484E+00 1.72017E+02 1.50000E+00
 -1      9632 8.95484E+00 1.72017E+02-1.50000E+00
 -1      9633 8.95888E+00 1.36621E+02-1.50000E+00
 -1      9634 8.95733E+00 1.48420E+02-1.50000E+00
 -1      9635-1.07132E+01 2.29412E+02 8.33333E-01
 -1      9636-1.07132E+01 2.29412E+02-8.33333E-01
 -1      9637 9.01736E+00 2.21039E+02-1.99800E+00
 -1      9638 8.58629E+00 2.21804E+02-4.98000E-01
 -1      9639 1.02297E+01 2.28574E+02-1.37997E-15
 -1      9640 1.48342E+01 2.44758E+02-4.27634E+00
 -1      9641 1.37385E+01 2.42994E+02-4.04519E+00
 -1      9642 1.45627E+01 2.42938E+02-3.32153E+00
 -1      9643 1.40792E+01 2.44743E+02-3.32153E+00
 -1      9644 1.29835E+01 2.42979E+02-3.09038E+00
 -1      9645 1.32550E+01 2.44798E+02-4.04519E+00
 -1      9646-1.66102E+01-6.62776E+00 2.89316E+00
 -1      9647 1.07132E+01 2.29412E+02 8.33333E-01
 -1      9648 1.07132E+01 2.29412E+02-8.33333E-01
 -1      9649 8.95484E+00 1.75950E+02 1.50000E+00
 -1      9650-2.55944E+01 1.96566E+00 2.50000E+00
 -1      9651 8.56782E+00 3.40184E+00 3.18015E+00
 -1      9652 8.95632E+00 1.64152E+02 1.50000E+00
 -1      9653 9.00232E+00 1.95612E+02-1.50000E+00
 -1      9654 9.00232E+00 1.95612E+02 1.50000E+00
 -1      9655-8.81883E+00 1.87447E+02-1.50000E+00
 -1      9656 2.34507E+01 8.97518E+00 2.50000E+00
 -1      9657-6.63045E+00 2.35636E+01-4.00000E+00
 -1      9658-8.87571E+00 1.51680E+02-1.50000E+00
 -1      9659-8.87571E+00 1.51680E+02 1.50000E+00
 -1      9660-1.43808E+01 2.32513E+01-2.25000E+00
 -1      9661-1.40747E+01 2.36947E+01-1.50000E+00
 -1      9662-1.43828E+01 2.13612E+01-1.26500E+00
 -1      9663-8.98519E+00 1.39742E+02 1.50000E+00
 -1      9664-8.98519E+00 1.35769E+02-1.50000E+00
 -1      9665-8.98519E+00 1.35769E+02 1.50000E+00
 -1      9666-8.98067E+00 1.27822E+02 1.50000E+00
 -1      9667 1.13969E+01-1.12517E+01 3.40750E+00
 -1      9668-1.89712E+01-1.40598E+01 2.09262E+00
 -1      9669-1.86955E+01-1.31581E+01 9.63449E-01
 -1      9670 1.32897E+01-4.04267E+00-4.15278E+00
 -1      9671-1.51544E+01 2.43441E+02 3.92570E+00
 -1      9672-1.48829E+01 2.41621E+02 2.97089E+00
 -1      9673 1.98580E+01-1.44120E+01 2.50000E+00
 -1      9674 1.86055E+01-1.39687E+01-4.44089E-16
 -1      9675 1.98580E+01-1.44120E+01-2.50000E+00
 -1      9676 6.51747E+00 6.92019E+00 3.16580E+00
 -1      9677-7.75879E+00 2.25304E+02-2.33333E+00
 -1      9678-9.37402E+00 2.23511E+02-1.50000E+00
 -1      9679-7.75416E+00 2.23051E+02-1.49272E+00
 -1      9680 7.97834E+00 3.93595E+00 1.94838E+00
 -1      9681 1.35465E+01-9.78420E+00-2.87802E+00
 -1      9682-2.55621E+01 9.77464E-01 2.50000E+00
 -1      9683-2.47400E+01 1.71483E+00-1.40699E-01
 -1      9684-9.37402E+00 2.23511E+02 1.50000E+00
 -1      9685-7.75879E+00 2.25304E+02 2.33333E+00
 -1      9686-7.75416E+00 2.23051E+02 1.50728E+00
 -1      9687-2.47183E+01 3.69027E+00-2.64070E+00
 -1      9688-2.42770E+01 9.98801E+00-2.50000E+00
 -1      9689-2.38396E+01 9.18738E+00 3.51479E-01
 -1      9690 2.66094E+00 2.25059E+02-2.33333E+00
 -1      9691 2.66094E+00 2.25059E+02 2.33333E+00
 -1      9692 3.55563E+00 1.95528E+02 1.50000E+00
 -1      9693 8.26186E+00 2.26438E+02 2.33333E+00
 -1      9694 8.26186E+00 2.26438E+02-2.33333E+00
 -1      9695 9.79993E+00 1.14340E+01-2.50000E+00
 -1      9696-1.29835E+01 2.42979E+02-3.09038E+00
 -1      9697-1.32550E+01 2.44798E+02-4.04519E+00
 -1      9698-1.37385E+01 2.42994E+02-4.04519E+00
 -1      9699-1.45124E+01 2.43085E+02-2.86194E+00
 -1      9700-1.47839E+01 2.44905E+02-3.81675E+00
 -1      9701-1.40289E+01 2.44890E+02-2.86194E+00
 -1      9702 7.31608E+00-2.20618E+01 2.07140E+00
 -1      9703 8.57087E+00-2.17024E+01 2.22538E+00
 -1      9704 7.58210E+00-2.11918E+01 9.63449E-01
 -1      9705 8.86748E+00 3.64405E+01 1.50000E+00
 -1      9706 6.70384E+00 3.74877E+01 1.50118E+00
 -1      9707 8.86748E+00 3.64405E+01-1.50000E+00
 -1      9708 6.70384E+00 3.74877E+01-1.49882E+00
 -1      9709 1.21536E+01-2.57445E+00-4.15278E+00
 -1      9710-2.05500E+01 1.48932E+01-3.35502E+00
 -1      9711 9.56151E+00-1.55061E+01-3.44705E+00
 -1      9712 1.03245E+01-1.30106E+01 3.40750E+00
 -1      9713 7.31516E+00 4.41814E+00 6.80154E-01
 -1      9714 9.03360E+00 3.40201E+01 1.50000E+00
 -1      9715-3.49686E+00 1.20377E+01-3.29171E+00
 -1      9716-1.15522E+01 4.69586E+00-4.02778E+00
 -1      9717-1.21410E+01 5.11820E+00-2.06935E+00
 -1      9718 1.32821E+01 2.48266E+02 4.14611E+00
 -1      9719-3.89550E+00 2.53695E+02 4.54632E+00
 -1      9720 1.16823E+01 2.48954E+02 2.67258E+00
 -1      9721 1.11958E+01 2.50358E+02 3.62739E+00
 -1      9722 1.03390E+01 2.49087E+02 4.04519E+00
 -1      9723 1.10639E+01 2.48287E+02 4.04519E+00
 -1      9724 1.19207E+01 2.49558E+02 3.62739E+00
 -1      9725-4.12065E+00 1.12558E+01-2.67867E+00
 -1      9726 1.48318E+01 2.34235E+02-3.97228E+00
 -1      9727 1.32550E+01 2.34202E+02-4.04519E+00
 -1      9728 1.40768E+01 2.34250E+02-3.01747E+00
 -1      9729 1.45603E+01 2.36054E+02-3.01747E+00
 -1      9730 1.29835E+01 2.36021E+02-3.09038E+00
 -1      9731 1.37385E+01 2.36006E+02-4.04519E+00
 -1      9732-9.84395E+00 5.52884E+00-3.90575E+00
 -1      9733-2.29731E+01 1.31450E+01-2.50000E+00
 -1      9734-2.24281E+01 1.39699E+01-2.50000E+00
 -1      9735-2.10950E+01 1.40682E+01-8.55021E-01
 -1      9736-2.05500E+01 1.48932E+01-8.55021E-01
 -1      9737-1.96482E+01-1.25301E+01 3.61742E+00
 -1      9738-4.90853E+00 1.30875E+01-3.29171E+00
 -1      9739-5.04397E+00 2.45980E+01 4.00000E+00
 -1      9740 6.84755E+00 4.45021E+00 3.76823E+00
 -1      9741 6.11815E+00 5.22499E+00 1.93403E+00
 -1      9742-2.55621E+01 9.77464E-01-2.50000E+00
 -1      9743-2.54461E+01-4.43141E-03-2.50000E+00
 -1      9744 1.32329E+01 2.30657E+02 4.06282E+00
 -1      9745 2.65350E-01 1.98324E+02-1.50000E+00
 -1      9746 5.25913E+00 5.82945E+00 3.16580E+00
 -1      9747 4.83955E+00 7.14952E+00 3.16580E+00
 -1      9748 3.56789E+00 8.26913E+00 3.16580E+00
 -1      9749-8.64695E+00 2.21779E+02 5.17282E-01
 -1      9750-8.64716E+00 2.21781E+02-4.90718E-01
 -1      9751-2.55944E+01 1.96566E+00-2.50000E+00
 -1      9752-1.87570E+00 1.80834E+01 4.05605E-01
 -1      9753-2.92396E+00 1.68753E+01 3.00616E+00
 -1      9754-8.57832E+00 2.20817E+02 2.01000E+00
 -1      9755-8.57853E+00 2.20819E+02-1.99800E+00
 -1      9756-2.15825E+01-9.79085E+00-2.31350E+00
 -1      9757-2.16006E+01-9.17402E+00 5.69456E-01
 -1      9758 8.28162E+00 1.70281E+02 1.50000E+00
 -1      9759 8.28162E+00 1.70281E+02-1.50000E+00
 -1      9760 1.20358E+01-7.24111E+00-3.62917E+00
 -1      9761 1.19953E+01-8.08243E+00-1.50718E+00
 -1      9762 8.29559E+00 1.65926E+02 1.50000E+00
 -1      9763 8.29559E+00 1.65926E+02-1.50000E+00
 -1      9764 1.07750E+01 2.49862E+02 3.10795E+00
 -1      9765 1.02886E+01 2.51265E+02 4.06276E+00
 -1      9766-2.51519E+01 7.74062E+00 2.50000E+00
 -1      9767-2.45876E+01 9.04936E+00 2.50000E+00
 -1      9768 1.37355E+01-1.90858E+01 2.50000E+00
 -1      9769-3.47875E+00 2.52484E+02 3.09038E+00
 -1      9770-3.89550E+00 2.53695E+02 2.87965E+00
 -1      9771-3.05825E+00 2.54179E+02 3.59151E+00
 -1      9772-4.86250E+00 2.53695E+02 3.59151E+00
 -1      9773 1.02636E+01 2.25983E+02-1.50000E+00
 -1      9774 1.02636E+01 2.25983E+02 1.50000E+00
 -1      9775 1.29388E+01-2.72371E+00-2.07194E+00
 -1      9776-1.47438E+01 2.42312E+02 4.04519E+00
 -1      9777 1.38752E+01 2.45291E+02 3.02126E+00
 -1      9778 1.46303E+01 2.45306E+02 3.97607E+00
 -1      9779 7.17478E+00-2.25240E+01 9.60859E-01
 -1      9780 8.18723E+00-2.22441E+01-5.65424E-01
 -1      9781-1.46686E+01 2.33789E+02 3.46157E+00
 -1      9782-1.39136E+01 2.33804E+02 2.50676E+00
 -1      9783 2.54913E+01 2.13021E+00-2.50000E+00
 -1      9784-1.91019E+01-1.44874E+01 9.64031E-01
 -1      9785-1.97846E+01-1.36890E+01-5.62252E-01
 -1      9786 3.47875E+00 2.52484E+02 0.00000E+00
 -1      9787 2.97334E+00 2.53897E+02 7.96812E-01
 -1      9788 2.13609E+00 2.54381E+02-3.65211E-02
 -1      9789 3.94034E+00 2.53897E+02-3.65211E-02
 -1      9790-1.46782E+01 2.33813E+02-3.43448E+00
 -1      9791-1.39232E+01 2.33828E+02-2.47967E+00
 -1      9792 1.16822E+01-1.99796E+01 3.61742E+00
 -1      9793 1.03129E+01-2.11272E+01 3.61742E+00
 -1      9794-2.19290E+01 1.39074E+01 8.35107E-01
 -1      9795-2.13840E+01 1.47323E+01 8.35107E-01
 -1      9796-1.04745E+01 2.26511E+02 2.25000E+00
 -1      9797-8.74536E+00 2.27275E+02 3.04519E+00
 -1      9798-8.74536E+00 2.27275E+02 1.50000E+00
 -1      9799-2.05230E+01 1.63705E+01 2.50000E+00
 -1      9800-2.07701E+01 1.55073E+01 8.35107E-01
 -1      9801 1.04778E+01 2.26518E+02-2.25000E+00
 -1      9802 8.74536E+00 2.27275E+02-1.50000E+00
 -1      9803 8.74536E+00 2.27275E+02-3.04519E+00
 -1      9804-1.26654E+01 2.48538E+02 3.67543E+00
 -1      9805-1.33432E+01 2.48169E+02 3.67543E+00
 -1      9806-1.24270E+01 2.47935E+02 2.72062E+00
 -1      9807-1.17417E+01 2.47918E+02 4.04519E+00
 -1      9808-1.10639E+01 2.48287E+02 4.04519E+00
 -1      9809 2.97334E+00 2.53897E+02-8.69854E-01
 -1      9810-1.32271E+01 2.30649E+02 3.99360E+00
 -1      9811-1.55230E+01-1.13229E+00 3.63333E+00
 -1      9812-1.43853E+01 2.36455E+02 2.20562E+00
 -1      9813-8.26186E+00 2.26438E+02-2.33333E+00
 -1      9814-1.04745E+01 2.26511E+02-2.25000E+00
 -1      9815-1.02521E+01 2.25951E+02-1.50000E+00
 -1      9816 1.46339E+01 2.33703E+02 3.78338E+00
 -1      9817 1.38789E+01 2.33718E+02 2.82857E+00
 -1      9818-1.43841E+01 2.36448E+02-2.17716E+00
 -1      9819 1.04778E+01 2.26518E+02 2.25000E+00
 -1      9820-1.32299E+01 2.30653E+02-3.98561E+00
 -1      9821 9.53073E+00-1.56068E+01 3.31438E+00
 -1      9822 9.93779E+00 2.50345E+02 2.39609E+00
 -1      9823 9.50178E+00 2.49571E+02 3.33333E+00
 -1      9824-1.40221E+01 2.43942E+02 2.01392E+00
 -1      9825 1.08451E+01 2.49438E+02 1.96073E+00
 -1      9826-2.05230E+01 1.63705E+01-2.50000E+00
 -1      9827-1.99361E+01 1.56682E+01-8.55021E-01
 -1      9828 1.43827E+01 2.42561E+02 1.99439E+00
 -1      9829-1.31972E+01 2.58122E+01 1.50000E+00
 -1      9830-1.31972E+01 2.58122E+01-1.50000E+00
 -1      9831-1.34228E+01 2.48038E+02-3.98834E+00
 -1      9832 1.43813E+01 2.36431E+02 2.07384E+00
 -1      9833-4.47941E+00 1.46382E+01-3.29171E+00
 -1      9834-2.29731E+01 1.31450E+01 2.50000E+00
 -1      9835 2.51172E+01 5.67363E+00 2.50000E+00
 -1      9836 2.19932E+01 1.01597E+01-3.18108E+00
 -1      9837 1.47438E+01 2.42312E+02 4.04519E+00
 -1      9838 1.24667E+01 2.29661E+02-4.00000E+00
 -1      9839 1.15505E+01 2.29895E+02-1.37997E-15
 -1      9840 9.50475E+00 2.29995E+02 0.00000E+00
 -1      9841-9.50475E+00 2.29995E+02 4.44089E-16
 -1      9842-1.15505E+01 2.29895E+02-1.18048E-15
 -1      9843-2.33893E+01-7.71927E+00 2.50000E+00
 -1      9844 1.26464E+01-1.96110E+01 2.68650E+00
 -1      9845 1.47998E+01 2.42068E+02-2.86150E+00
 -1      9846 1.43163E+01 2.43873E+02-2.86150E+00
 -1      9847 2.25921E+01 1.18309E+01-2.50000E+00
 -1      9848 1.29995E+01 2.48681E+02-4.10750E+00
 -1      9849 2.34507E+01 8.97518E+00-2.50000E+00
 -1      9850-2.42770E+01 9.98801E+00 2.50000E+00
 -1      9851-2.95934E+00 2.53899E+02 1.90643E+00
 -1      9852-2.12209E+00 2.54383E+02 2.61828E+00
 -1      9853 1.47438E+01 2.42312E+02-4.04519E+00
 -1      9854-1.47438E+01 2.42312E+02-4.04519E+00
 -1      9855-1.27792E+01 4.43853E+00-4.02778E+00
 -1      9856 1.47438E+01 2.36688E+02 4.04519E+00
 -1      9857-2.17186E+01-8.98773E+00 2.88295E+00
 -1      9858-1.47438E+01 2.36688E+02-4.04519E+00
 -1      9859-1.70477E+01-8.05863E+00 3.44168E+00
 -1      9860-1.47438E+01 2.36688E+02 4.04519E+00
 -1      9861 1.12271E+01 2.50276E+02-4.03315E+00
 -1      9862 1.10639E+01 2.48287E+02-4.04519E+00
 -1      9863 1.09886E+01 2.49672E+02-3.07834E+00
 -1      9864 1.05021E+01 2.51076E+02-4.03315E+00
 -1      9865 1.03390E+01 2.49087E+02-4.04519E+00
 -1      9866 2.37293E+01 6.94851E+00 3.07525E+00
 -1      9867 2.48007E+01 6.61036E+00 2.50000E+00
 -1      9868 9.45429E+00 2.51182E+02 3.10795E+00
 -1      9869 9.01828E+00 2.50408E+02 4.04519E+00
 -1      9870 2.29919E+01 9.85109E+00-2.50000E+00
 -1      9871-5.04397E+00 2.45980E+01-4.00000E+00
 -1      9872-5.00452E+00 1.65814E+01-2.52710E+00
 -1      9873-1.82369E+00 2.24576E+02-3.04519E+00
 -1      9874-1.82369E+00 2.24576E+02 3.04519E+00
 -1      9875 2.51351E+01-1.83559E+00-2.50000E+00
 -1      9876 2.51067E+01 2.01554E-01-3.15630E+00
 -1      9877-6.51140E+00 2.25528E+02-2.33333E+00
 -1      9878-6.51140E+00 2.25528E+02 2.33333E+00
 -1      9879-1.04800E+01 2.50133E+02-9.17507E-02
 -1      9880-1.09635E+01 2.49296E+02 7.41583E-01
 -1      9881-1.18008E+01 2.48813E+02-9.17507E-02
 -1      9882-9.50475E+00 2.49005E+02-4.44089E-16
 -1      9883-1.40289E+01 2.43923E+02-2.15009E+00
 -1      9884-2.27803E+01-8.76385E+00 2.68650E+00
 -1      9885-1.40289E+01 2.44890E+02-1.31675E+00
 -1      9886-1.43391E+01 2.43763E+02 1.14572E-01
 -1      9887-1.43391E+01 2.42796E+02-7.18762E-01
 -1      9888 1.29835E+01 2.42979E+02 0.00000E+00
 -1      9889 1.48450E+01 2.41842E+02-2.37720E-01
 -1      9890 1.43615E+01 2.42680E+02 5.95613E-01
 -1      9891 1.43615E+01 2.43647E+02-2.37720E-01
 -1      9892 1.47438E+01 2.36688E+02-4.04519E+00
 -1      9893-1.09635E+01 2.49296E+02-9.25084E-01
 -1      9894-5.18053E+00 2.53600E+02-3.13587E+00
 -1      9895-4.21353E+00 2.53600E+02-2.42401E+00
 -1      9896-5.18053E+00 2.53600E+02-1.59068E+00
 -1      9897 1.49338E+01 2.37758E+02-1.27408E+00
 -1      9898 1.44503E+01 2.36921E+02-2.10741E+00
 -1      9899 1.49338E+01 2.37758E+02-2.81927E+00
 -1      9900-1.18008E+01 2.48813E+02 1.45344E+00
 -1      9901-1.29835E+01 2.36021E+02 0.00000E+00
 -1      9902-1.43469E+01 2.36243E+02-7.79939E-01
 -1      9903-1.48304E+01 2.37081E+02 5.33941E-02
 -1      9904-1.43469E+01 2.35276E+02 5.33941E-02
 -1      9905-1.43994E+01 2.42459E+02 2.25903E+00
 -1      9906 1.40768E+01 2.35217E+02-2.30561E+00
 -1      9907 1.40768E+01 2.34250E+02-1.47228E+00
 -1      9908 1.43163E+01 2.42906E+02-2.14964E+00
 -1      9909-1.48836E+01 2.41618E+02-2.95229E+00
 -1      9910-1.44001E+01 2.42455E+02-2.24044E+00
 -1      9911-1.48836E+01 2.41618E+02-1.40710E+00
 -1      9912 1.82369E+00 2.24576E+02 3.04519E+00
 -1      9913 1.82369E+00 2.24576E+02-3.04519E+00
 -1      9914 4.34923E+00 2.53821E+02-2.82484E+00
 -1      9915 3.38223E+00 2.53821E+02-2.11298E+00
 -1      9916 2.54498E+00 2.54305E+02-2.82484E+00
 -1      9917 3.47875E+00 2.52484E+02-3.09038E+00
 -1      9918-1.43469E+01 2.36243E+02 8.86727E-01
 -1      9919 8.30753E+00 3.92754E+01-1.50000E+00
 -1      9920 7.87994E+00 3.81997E+01 1.18169E-03
 -1      9921-1.02297E+01 2.28574E+02-3.04519E+00
 -1      9922-1.07132E+01 2.29412E+02-2.33333E+00
 -1      9923-1.07132E+01 2.29412E+02 2.33333E+00
 -1      9924-1.02297E+01 2.28574E+02 3.04519E+00
 -1      9925-1.93382E+01-1.35668E+01-3.62347E+00
 -1      9926-1.93560E+01-1.36250E+01 3.62917E+00
 -1      9927 1.02297E+01 2.28574E+02 3.04519E+00
 -1      9928 1.07132E+01 2.29412E+02 2.33333E+00
 -1      9929 2.38404E+01 8.06648E+00 2.50000E+00
 -1      9930-1.29835E+01 2.42979E+02 0.00000E+00
 -1      9931-1.48226E+01 2.41959E+02 1.14572E-01
 -1      9932-1.39136E+01 2.34771E+02 1.79490E+00
 -1      9933 4.82540E+00 2.53706E+02 1.09199E+00
 -1      9934 5.79240E+00 2.53706E+02 1.92533E+00
 -1      9935 4.82540E+00 2.53706E+02 2.63718E+00
 -1      9936 1.43615E+01 2.42680E+02-1.07105E+00
 -1      9937-1.20383E+01 2.44825E+01 1.50000E+00
 -1      9938-1.20383E+01 2.44825E+01-1.50000E+00
 -1      9939 1.20636E+01-9.07146E+00-3.62917E+00
 -1      9940 5.72519E+00 2.53402E+02-5.11248E-01
 -1      9941 4.75819E+00 2.53402E+02-1.34458E+00
 -1      9942 1.39832E+01 2.45016E+02 4.19974E-01
 -1      9943 1.39832E+01 2.44049E+02 1.25331E+00
 -1      9944 1.17417E+01 2.47918E+02 4.04519E+00
 -1      9945 1.23659E+01 2.48032E+02 3.19130E+00
 -1      9946 1.26044E+01 2.48636E+02 4.14611E+00
 -1      9947-4.24372E+00 2.53843E+02-3.75482E-01
 -1      9948-3.47875E+00 2.52484E+02 4.44089E-16
 -1      9949-2.43947E+00 2.54326E+02-3.75482E-01
 -1      9950-3.27672E+00 2.53843E+02 4.57851E-01
 -1      9951-1.39232E+01 2.34795E+02-1.76781E+00
 -1      9952-1.34586E+01 2.15778E+01-4.00000E+00
 -1      9953 1.38752E+01 2.44324E+02 2.30941E+00
 -1      9954-1.43391E+01 2.42796E+02 9.47905E-01
 -1      9955 8.31840E+00-2.18151E+01-1.69617E+00
 -1      9956-1.39232E+01 2.33828E+02-9.34479E-01
 -1      9957 1.04971E+01 2.25216E+02-1.50000E+00
 -1      9958 1.04971E+01 2.25216E+02 1.50000E+00
 -1      9959-8.74409E+00 3.55859E+01-1.49829E+00
 -1      9960-1.23877E+01 2.30379E+02 8.33333E-01
 -1      9961-1.31347E+01 2.31346E+02 8.39742E-01
 -1      9962-1.22975E+01 2.30862E+02 6.40822E-03
 -1      9963 8.30753E+00 3.92754E+01 1.50000E+00
 -1      9964 1.07132E+01 2.29412E+02-2.33333E+00
 -1      9965 1.02297E+01 2.28574E+02-3.04519E+00
 -1      9966-1.40221E+01 2.44909E+02 1.18058E+00
 -1      9967-1.39136E+01 2.33804E+02 9.61567E-01
 -1      9968 3.85840E+00 2.53706E+02 1.92533E+00
 -1      9969-1.01503E+01 5.41751E+00 3.53588E+00
 -1      9970-1.23877E+01 2.30379E+02-8.33333E-01
 -1      9971-1.31347E+01 2.31346E+02-8.26925E-01
 -1      9972 1.38789E+01 2.34685E+02 2.11671E+00
 -1      9973 3.38223E+00 2.53821E+02-3.77965E+00
 -1      9974-3.74015E+00 2.25044E+02-3.04519E+00
 -1      9975-3.47875E+00 2.26516E+02-3.09038E+00
 -1      9976-5.54440E+00 2.25528E+02-3.04519E+00
 -1      9977-3.74015E+00 2.25044E+02 3.04519E+00
 -1      9978-3.47875E+00 2.26516E+02 3.09038E+00
 -1      9979-5.54440E+00 2.25528E+02 3.04519E+00
 -1      9980-2.53781E+01 6.77815E+00 2.50000E+00
 -1      9981-3.81562E+00 1.57587E+01-1.99384E+00
 -1      9982 8.82389E+00 3.75860E+01 1.50000E+00
 -1      9983 7.87994E+00 3.81997E+01 1.50118E+00
 -1      9984 6.51140E+00 2.25528E+02-2.33333E+00
 -1      9985 6.51140E+00 2.25528E+02 2.33333E+00
 -1      9986 1.29884E+00 2.54864E+02 7.96812E-01
 -1      9987 2.13609E+00 2.54381E+02 1.50867E+00
 -1      9988-1.23877E+01 2.30379E+02-2.33333E+00
 -1      9989-1.15505E+01 2.29895E+02-1.50000E+00
 -1      9990-1.15505E+01 2.29895E+02 1.50000E+00
 -1      9991-1.23877E+01 2.30379E+02 2.33333E+00
 -1      9992 1.15505E+01 2.29895E+02 1.50000E+00
 -1      9993 1.23877E+01 2.30379E+02 2.33333E+00
 -1      9994 1.23877E+01 2.30379E+02 8.33333E-01
 -1      9995-9.68381E+00 2.50554E+02-1.44489E+00
 -1      9996-9.20031E+00 2.51391E+02-6.11558E-01
 -1      9997 1.70773E+00 2.54788E+02-2.11298E+00
 -1      9998 2.54498E+00 2.54305E+02-1.27965E+00
 -1      9999-8.59453E+00 3.70825E+01 1.49264E+00
 -1     10000-1.48226E+01 2.41959E+02 1.65976E+00
 -1     10001-4.71064E+00 2.53421E+02 1.83495E+00
 -1     10002-5.67764E+00 2.53421E+02 2.54681E+00
 -1     10003 8.82389E+00 3.75860E+01-1.50000E+00
 -1     10004 1.39832E+01 2.45016E+02 1.96516E+00
 -1     10005-1.48688E+01 2.37292E+02 1.37229E+00
 -1     10006-1.00845E+01 2.23884E+02 1.50000E+00
 -1     10007-1.00845E+01 2.23884E+02-1.50000E+00
 -1     10008 1.00091E+01 2.50283E+02 1.46963E+00
 -1     10009-8.59453E+00 3.70825E+01-1.50736E+00
 -1     10010-1.54670E+01 2.39500E+02 2.22045E-16
 -1     10011-1.49835E+01 2.38663E+02 8.33333E-01
 -1     10012-1.54670E+01 2.39500E+02 1.66667E+00
 -1     10013 1.23877E+01 2.30379E+02-2.33333E+00
 -1     10014 1.25790E+01 2.31565E+02-3.33333E+00
 -1     10015 1.15505E+01 2.29895E+02-3.04519E+00
 -1     10016 1.17417E+01 2.31082E+02-4.04519E+00
 -1     10017-1.15880E+01 2.49063E+02 4.04519E+00
 -1     10018-8.26186E+00 2.26438E+02 2.33333E+00
 -1     10019-1.15505E+01 2.29895E+02-3.04519E+00
 -1     10020-1.15505E+01 2.29895E+02 3.04519E+00
 -1     10021 1.15505E+01 2.29895E+02 3.04519E+00
 -1     10022-1.48676E+01 2.37285E+02-1.34383E+00
 -1     10023-1.13824E+01 2.49286E+02-3.09133E+00
 -1     10024-1.16209E+01 2.49890E+02-4.04614E+00
 -1     10025-1.10639E+01 2.48287E+02-4.04519E+00
 -1     10026-1.17417E+01 2.47918E+02-4.04519E+00
 -1     10027-1.22987E+01 2.49520E+02-4.04614E+00
 -1     10028 1.38789E+01 2.33718E+02 1.28338E+00
 -1     10029-1.26380E+01 2.48329E+02 7.41583E-01
 -1     10030 8.97204E+00 2.51565E+02-3.58748E-01
 -1     10031 9.45554E+00 2.50727E+02-1.19208E+00
 -1     10032 8.97204E+00 2.51565E+02-1.90394E+00
 -1     10033 1.16823E+01 2.48954E+02 1.12739E+00
 -1     10034 6.69219E+00 2.53402E+02 3.22086E-01
 -1     10035-1.13421E+01 2.50168E+02 3.86223E+00
 -1     10036-1.11036E+01 2.49565E+02 2.90742E+00
 -1     10037 1.15505E+01 2.29895E+02-1.50000E+00
 -1     10038 1.23877E+01 2.30379E+02-8.33333E-01
 -1     10039 1.37134E+01 2.31495E+02-3.61274E+00
 -1     10040-1.31347E+01 2.32313E+02 6.40822E-03
 -1     10041-1.39136E+01 2.32837E+02 1.79490E+00
 -1     10042-3.27672E+00 2.53843E+02-1.20882E+00
 -1     10043 7.87994E+00 3.81997E+01-1.49882E+00
 -1     10044-1.53671E+01 2.40780E+02-2.24044E+00
 -1     10045-1.39232E+01 2.32861E+02-1.76781E+00
 -1     10046 1.23217E+01 2.49050E+02-4.10750E+00
 -1     10047 1.20833E+01 2.48447E+02-3.15269E+00
 -1     10048 1.01514E+01 2.50156E+02-2.36648E+00
 -1     10049 9.66786E+00 2.50993E+02-3.07834E+00
 -1     10050-3.47875E+00 2.52484E+02-3.09038E+00
 -1     10051-3.37628E+00 2.54083E+02-3.13587E+00
 -1     10052-5.67764E+00 2.53421E+02 1.00162E+00
 -1     10053 3.47875E+00 2.26516E+02-3.09038E+00
 -1     10054 5.54440E+00 2.25528E+02-3.04519E+00
 -1     10055 3.74015E+00 2.25044E+02-3.04519E+00
 -1     10056 3.74015E+00 2.25044E+02 3.04519E+00
 -1     10057 3.47875E+00 2.26516E+02 3.09038E+00
 -1     10058 5.54440E+00 2.25528E+02 3.04519E+00
 -1     10059 9.05810E+00-2.14865E+01 3.46345E+00
 -1     10060 8.11700E+00-2.03258E+01 3.60795E+00
 -1     10061-2.13840E+01 1.47323E+01 3.33511E+00
 -1     10062 9.29767E+00 2.22316E+02 2.01000E+00
 -1     10063 1.25196E+01 2.48471E+02 1.96073E+00
 -1     10064-4.57740E+00 2.25528E+02-4.00000E+00
 -1     10065-4.57740E+00 2.25528E+02 4.00000E+00
 -1     10066 1.32137E+01 2.32435E+02 3.07387E-02
 -1     10067 1.38789E+01 2.32751E+02 2.11671E+00
 -1     10068 1.32137E+01 2.31468E+02 8.64072E-01
 -1     10069 9.29790E+00 2.22318E+02-1.99800E+00
 -1     10070-1.53664E+01 2.40784E+02 2.25903E+00
 -1     10071-1.56674E+01 2.41704E+02 3.92570E+00
 -1     10072-1.47350E+01 2.40420E+02 3.33333E+00
 -1     10073-1.42515E+01 2.41257E+02 4.04519E+00
 -1     10074 3.47875E+00 2.52484E+02 3.09038E+00
 -1     10075 3.02115E+00 2.54189E+02 2.63718E+00
 -1     10076-1.06172E+01 2.50968E+02 3.86223E+00
 -1     10077-1.03390E+01 2.49087E+02 4.04519E+00
 -1     10078-1.18008E+01 2.48813E+02-1.63694E+00
 -1     10079-1.42515E+01 2.41257E+02-4.04519E+00
 -1     10080-1.56681E+01 2.41700E+02-3.90710E+00
 -1     10081-1.47350E+01 2.40420E+02-3.33333E+00
 -1     10082 5.56699E+00 2.53464E+02-4.04519E+00
 -1     10083 1.46289E+01 2.36270E+02-1.46812E-01
 -1     10084 1.41454E+01 2.35433E+02-9.80145E-01
 -1     10085 1.17417E+01 2.31082E+02 4.04519E+00
 -1     10086 1.10639E+01 2.30713E+02 4.04519E+00
 -1     10087 1.23167E+01 2.30892E+02 3.10801E+00
 -1     10088 1.25551E+01 2.30288E+02 4.06282E+00
 -1     10089-1.33772E+01 2.48563E+01-1.50000E+00
 -1     10090-1.33772E+01 2.48563E+01 1.50000E+00
 -1     10091 1.56507E+01 2.41806E+02 3.66106E+00
 -1     10092-2.12209E+00 2.54383E+02 1.07310E+00
 -1     10093-1.10639E+01 2.30713E+02 4.04519E+00
 -1     10094-1.10639E+01 2.30713E+02-4.04519E+00
 -1     10095 1.10639E+01 2.30713E+02-4.04519E+00
 -1     10096-1.42515E+01 2.37743E+02-4.04519E+00
 -1     10097-1.56521E+01 2.37202E+02-3.84383E+00
 -1     10098-1.53511E+01 2.38122E+02-2.17716E+00
 -1     10099-1.47350E+01 2.38580E+02-3.33333E+00
 -1     10100 1.57471E+01 2.41007E+02-4.15409E+00
 -1     10101-1.53523E+01 2.38129E+02 2.20562E+00
 -1     10102-1.47350E+01 2.38580E+02 3.33333E+00
 -1     10103-1.56533E+01 2.37209E+02 3.87229E+00
 -1     10104-1.42515E+01 2.37743E+02 4.04519E+00
 -1     10105-1.57680E+01 2.40420E+02 3.33333E+00
 -1     10106 9.50475E+00 2.49005E+02 4.44089E-16
 -1     10107 1.16963E+01 2.48938E+02-2.10091E-01
 -1     10108 1.08591E+01 2.49421E+02 6.23243E-01
 -1     10109 1.03756E+01 2.50259E+02-2.10091E-01
 -1     10110-1.35550E+01 2.45975E+02 4.04519E+00
 -1     10111-1.02664E+01 2.50048E+02 2.19556E+00
 -1     10112 3.85840E+00 2.53706E+02 3.59199E+00
 -1     10113 1.55843E+01 2.42151E+02-3.81631E+00
 -1     10114 1.42515E+01 2.41257E+02-4.04519E+00
 -1     10115 1.56493E+01 2.37186E+02 3.74051E+00
 -1     10116-1.53061E+01 2.41121E+02-7.18762E-01
 -1     10117 5.72519E+00 2.53402E+02-2.05644E+00
 -1     10118 9.52556E+00 2.51121E+02 2.18148E+00
 -1     10119-1.40289E+01 2.45857E+02-2.15009E+00
 -1     10120 1.25222E+01 2.47777E+02 6.29289E-01
 -1     10121 1.33595E+01 2.47294E+02 1.46262E+00
 -1     10122-1.37690E+01 2.45537E+02-1.02884E-01
 -1     10123 3.55125E-01 2.54959E+02 2.02866E+00
 -1     10124 1.19238E+00 2.54476E+02 2.74052E+00
 -1     10125-6.29931E+00 2.53145E+02-2.05335E+00
 -1     10126-6.29931E+00 2.53145E+02-5.08162E-01
 -1     10127 1.48648E+01 2.37268E+02 1.24051E+00
 -1     10128 1.36344E+01 2.32213E+02-1.94607E+00
 -1     10129 1.83168E+00 2.54423E+02 4.04519E+00
 -1     10130-1.28484E+00 2.54866E+02 1.90643E+00
 -1     10131-4.82125E-01 2.54476E+02 2.74052E+00
 -1     10132 9.52556E+00 2.51121E+02 6.36292E-01
 -1     10133 1.48450E+01 2.41842E+02-1.78291E+00
 -1     10134 9.04206E+00 2.51958E+02 1.46963E+00
 -1     10135 1.48662E+01 2.41723E+02 1.16106E+00
 -1     10136-1.54670E+01 2.39500E+02-1.66667E+00
 -1     10137-1.57680E+01 2.40420E+02-3.33333E+00
 -1     10138 1.08591E+01 2.49421E+02-1.04342E+00
 -1     10139-1.08960E+01 2.50690E+02-4.04614E+00
 -1     10140-1.03390E+01 2.49087E+02-4.04519E+00
 -1     10141-1.83168E+00 2.24577E+02 4.04519E+00
 -1     10142-1.83168E+00 2.24577E+02-4.04519E+00
 -1     10143 4.57740E+00 2.25528E+02-4.00000E+00
 -1     10144 4.57740E+00 2.25528E+02 4.00000E+00
 -1     10145-1.17417E+01 2.31082E+02-4.04519E+00
 -1     10146-1.25522E+01 2.30284E+02-3.98561E+00
 -1     10147-1.23137E+01 2.30887E+02-3.03080E+00
 -1     10148-8.74536E+00 2.27275E+02-3.04519E+00
 -1     10149-8.45389E+00 2.51915E+02-3.14507E+00
 -1     10150-9.20031E+00 2.51391E+02-2.15675E+00
 -1     10151-1.00346E+01 2.51474E+02-3.11156E+00
 -1     10152-9.01828E+00 2.50408E+02-4.04519E+00
 -1     10153-9.28817E+00 2.51998E+02-4.09988E+00
 -1     10154 1.29884E+00 2.54864E+02-8.69854E-01
 -1     10155-1.03390E+01 2.29913E+02-4.04519E+00
 -1     10156-1.17889E+01 2.29292E+02-4.00000E+00
 -1     10157-1.10640E+01 2.28492E+02-4.00000E+00
 -1     10158-1.03390E+01 2.29913E+02 4.04519E+00
 -1     10159-1.10640E+01 2.28492E+02 4.00000E+00
 -1     10160-1.17889E+01 2.29292E+02 4.00000E+00
 -1     10161 1.17889E+01 2.29292E+02 4.00000E+00
 -1     10162 1.03390E+01 2.29913E+02 4.04519E+00
 -1     10163 1.10640E+01 2.28492E+02 4.00000E+00
 -1     10164 1.57183E+01 2.37676E+02-3.77408E+00
 -1     10165 1.42515E+01 2.37743E+02-4.04519E+00
 -1     10166 9.01828E+00 2.28592E+02 4.04519E+00
 -1     10167 9.50178E+00 2.29429E+02 3.33333E+00
 -1     10168-9.01828E+00 2.28592E+02-4.04519E+00
 -1     10169-9.50178E+00 2.29429E+02-3.33333E+00
 -1     10170 8.74536E+00 2.27275E+02 3.04519E+00
 -1     10171-1.57680E+01 2.38580E+02 3.33333E+00
 -1     10172-1.40221E+01 2.45876E+02 2.01392E+00
 -1     10173-1.04596E+01 2.25190E+02-1.50000E+00
 -1     10174-1.04596E+01 2.25190E+02 1.50000E+00
 -1     10175-1.25066E+01 2.47804E+02-3.03353E+00
 -1     10176-1.33438E+01 2.47320E+02-2.32167E+00
 -1     10177-1.26380E+01 2.48329E+02-9.25084E-01
 -1     10178 1.23764E+01 2.30984E+02 3.07387E-02
 -1     10179-1.05452E+01 2.49770E+02-2.37947E+00
 -1     10180-9.50178E+00 2.49571E+02-3.33333E+00
 -1     10181 1.41454E+01 2.35433E+02 6.86521E-01
 -1     10182-1.00617E+01 2.50607E+02-3.09133E+00
 -1     10183 1.83168E+00 2.54423E+02-4.04519E+00
 -1     10184 1.38080E+01 2.44482E+02-1.73067E+00
 -1     10185 1.38080E+01 2.45449E+02-8.97339E-01
 -1     10186 1.42515E+01 2.41257E+02 4.04519E+00
 -1     10187 1.42515E+01 2.37743E+02 4.04519E+00
 -1     10188 1.36344E+01 2.33180E+02-1.11274E+00
 -1     10189 1.36344E+01 2.33180E+02-2.65793E+00
 -1     10190-9.01061E+00 2.51536E+02 4.77898E-01
 -1     10191-1.33438E+01 2.46353E+02-3.03353E+00
 -1     10192-1.40989E+01 2.46369E+02-3.98834E+00
 -1     10193 1.29835E+01 2.36021E+02-4.44089E-16
 -1     10194 1.41454E+01 2.34466E+02-1.46812E-01
 -1     10195 1.16963E+01 2.48938E+02-1.75528E+00
 -1     10196-4.21353E+00 2.53600E+02-4.09068E+00
 -1     10197-9.49411E+00 2.50699E+02 1.31123E+00
 -1     10198-9.01061E+00 2.51536E+02 2.02309E+00
 -1     10199 1.32137E+01 2.31468E+02-8.02595E-01
 -1     10200-9.19358E+00 2.22337E+02-1.99800E+00
 -1     10201 8.10686E+00-2.03589E+01-3.63334E+00
 -1     10202 7.86810E+00-2.19497E+01-3.63334E+00
 -1     10203-1.53139E+01 2.37918E+02-7.79939E-01
 -1     10204-9.19337E+00 2.22335E+02 2.01000E+00
 -1     10205 6.77865E+00 2.52888E+02 2.60534E+00
 -1     10206 7.74565E+00 2.52888E+02 1.89348E+00
 -1     10207-1.35550E+01 2.33025E+02-4.04519E+00
 -1     10208 7.87823E+00-2.19166E+01 3.60795E+00
 -1     10209 3.55125E-01 2.54959E+02 3.69533E+00
 -1     10210-1.83168E+00 2.54423E+02 4.04519E+00
 -1     10211 1.10640E+01 2.28492E+02-4.00000E+00
 -1     10212 1.17889E+01 2.29292E+02-4.00000E+00
 -1     10213 1.03390E+01 2.29913E+02-4.04519E+00
 -1     10214 8.97079E+00 2.52020E+02 2.39609E+00
 -1     10215 1.25336E+01 2.48454E+02-1.04342E+00
 -1     10216 1.38080E+01 2.46416E+02-1.73067E+00
 -1     10217 1.33595E+01 2.47294E+02-2.04044E-01
 -1     10218-1.54670E+01 2.39500E+02 3.33333E+00
 -1     10219 1.49773E+01 2.40657E+02-2.37754E+00
 -1     10220-1.57680E+01 2.38580E+02-3.33333E+00
 -1     10221 1.39832E+01 2.45983E+02 1.25331E+00
 -1     10222 9.01828E+00 2.50408E+02-4.04519E+00
 -1     10223 9.50475E+00 2.49005E+02-3.09038E+00
 -1     10224-9.01828E+00 2.50408E+02 4.04519E+00
 -1     10225-9.50475E+00 2.49005E+02 3.09038E+00
 -1     10226-9.50475E+00 2.29995E+02 3.09038E+00
 -1     10227-9.01828E+00 2.28592E+02 4.04519E+00
 -1     10228 9.50475E+00 2.29995E+02-3.09038E+00
 -1     10229 9.01828E+00 2.28592E+02-4.04519E+00
 -1     10230-1.35550E+01 2.33025E+02 4.04519E+00
 -1     10231 1.83168E+00 2.24577E+02-4.04519E+00
 -1     10232 1.83168E+00 2.24577E+02 4.04519E+00
 -1     10233 1.53483E+01 2.38106E+02 2.07384E+00
 -1     10234 1.57679E+01 2.40374E+02 3.77214E+00
 -1     10235 1.49834E+01 2.40291E+02 2.81733E+00
 -1     10236 1.49626E+01 2.40924E+02-3.19928E+00
 -1     10237 6.97168E+00 2.52772E+02-2.98248E+00
 -1     10238-1.83168E+00 2.54423E+02-4.04519E+00
 -1     10239 1.31539E+01 2.31375E+02 2.39616E+00
 -1     10240 5.56699E+00 2.53464E+02 4.04519E+00
 -1     10241-1.32642E+01 2.47452E+02 2.00877E+00
 -1     10242 1.54173E+01 2.38596E+02-2.10741E+00
 -1     10243-1.31481E+01 2.31366E+02 2.32693E+00
 -1     10244-1.23109E+01 2.30883E+02 3.03878E+00
 -1     10245 7.74565E+00 2.52888E+02 2.26816E-01
 -1     10246 6.69219E+00 2.53402E+02-1.34458E+00
 -1     10247-2.43947E+00 2.54326E+02-1.92067E+00
 -1     10248 6.70853E+00-2.26259E+01-7.24533E-01
 -1     10249 6.83970E+00-2.21969E+01-1.85528E+00
 -1     10250-1.31510E+01 2.31371E+02-2.31895E+00
 -1     10251 1.33595E+01 2.46327E+02 6.29289E-01
 -1     10252 1.29205E+01 2.47963E+02-2.44083E+00
 -1     10253-9.65720E-01 2.54482E+02 7.07882E-02
 -1     10254-1.28470E-01 2.54966E+02 9.04122E-01
 -1     10255-1.86238E+01-1.43467E+01-1.84541E+00
 -1     10256-1.87723E+01-1.48325E+01-7.21361E-01
 -1     10257 1.49816E+01 2.38487E+02 1.86976E-01
 -1     10258 7.93868E+00 2.52772E+02-2.27062E+00
 -1     10259 8.48854E+00 2.52402E+02-1.19208E+00
 -1     10260 8.48854E+00 2.52402E+02 4.74585E-01
 -1     10261-1.54670E+01 2.39500E+02-3.33333E+00
 -1     10262-1.35550E+01 2.32058E+02-3.33333E+00
 -1     10263 1.49834E+01 2.38617E+02 2.81733E+00
 -1     10264 1.57679E+01 2.38534E+02 3.77214E+00
 -1     10265 1.54669E+01 2.39454E+02 3.77214E+00
 -1     10266 1.53497E+01 2.40886E+02 1.99439E+00
 -1     10267-1.35550E+01 2.32058E+02 3.33333E+00
 -1     10268-1.60222E+00 2.54810E+02-1.20882E+00
 -1     10269-7.26631E+00 2.53145E+02-1.34150E+00
 -1     10270-1.32642E+01 2.46485E+02 2.72062E+00
 -1     10271 9.57964E+00 2.27192E+02 4.00000E+00
 -1     10272-9.57964E+00 2.27192E+02 4.00000E+00
 -1     10273-9.57964E+00 2.27192E+02-4.00000E+00
 -1     10274-1.02521E+01 2.25951E+02 1.50000E+00
 -1     10275-1.37690E+01 2.46504E+02-9.36217E-01
 -1     10276-1.37690E+01 2.46504E+02 7.30450E-01
 -1     10277 1.32032E+01 2.47549E+02 2.47945E+00
 -1     10278-1.51789E+00 1.67921E+02 1.50000E+00
 -1     10279-5.56699E+00 2.53464E+02 4.04519E+00
 -1     10280 1.53285E+01 2.41005E+02 5.95613E-01
 -1     10281 1.38080E+01 2.45449E+02-2.44253E+00
 -1     10282-1.67383E+00 2.54441E+02-3.23301E+00
 -1     10283 7.93868E+00 2.52772E+02-3.93729E+00
 -1     10284 9.57964E+00 2.27192E+02-4.00000E+00
 -1     10285-1.25790E+01 2.47435E+02 3.33333E+00
 -1     10286 1.38789E+01 2.32751E+02 3.78338E+00
 -1     10287-8.10619E+00 2.52666E+02 2.44511E+00
 -1     10288-8.10619E+00 2.52666E+02 4.11177E+00
 -1     10289-7.13919E+00 2.52666E+02 3.15696E+00
 -1     10290 1.35550E+01 2.46942E+02-3.33333E+00
 -1     10291 1.35550E+01 2.45975E+02-4.04519E+00
 -1     10292-1.53061E+01 2.41121E+02 9.47905E-01
 -1     10293-8.71681E+00 2.52228E+02-1.44489E+00
 -1     10294 1.54608E+01 2.39820E+02-1.66568E+00
 -1     10295 1.54461E+01 2.40087E+02-2.48742E+00
 -1     10296 1.59988E-01 2.54965E+02-1.96920E+00
 -1     10297 9.97238E-01 2.54482E+02-2.68106E+00
 -1     10298-6.64464E+00 2.53421E+02 1.83495E+00
 -1     10299 7.74565E+00 2.52888E+02 3.56015E+00
 -1     10300-9.78289E+00 2.50886E+02 2.90742E+00
 -1     10301 8.77853E+00 2.51702E+02-4.04519E+00
 -1     10302-7.00339E+00 2.52753E+02-3.14507E+00
 -1     10303-7.97039E+00 2.52753E+02-2.43322E+00
 -1     10304-1.28470E-01 2.54966E+02-7.62545E-01
 -1     10305 7.08780E-01 2.54482E+02 7.07882E-02
 -1     10306 1.54669E+01 2.39454E+02 2.10547E+00
 -1     10307-5.56699E+00 2.53464E+02-4.04519E+00
 -1     10308 1.38752E+01 2.46258E+02 2.30941E+00
 -1     10309 1.31539E+01 2.31375E+02 4.06282E+00
 -1     10310-6.51140E+00 2.25528E+02 4.00000E+00
 -1     10311-6.51140E+00 2.25528E+02-4.00000E+00
 -1     10312-6.64464E+00 2.53421E+02 3.50162E+00
 -1     10313-7.97039E+00 2.52753E+02-4.09988E+00
 -1     10314-1.32642E+01 2.47452E+02 3.67543E+00
 -1     10315 1.45630E+01 2.45464E+02-3.39734E+00
 -1     10316 1.54651E+01 2.39324E+02-6.46358E-01
 -1     10317-8.52711E+00 2.52373E+02 1.31123E+00
 -1     10318 1.32032E+01 2.47549E+02 4.14611E+00
 -1     10319 1.38752E+01 2.46258E+02 3.97607E+00
 -1     10320 1.54651E+01 2.39324E+02 1.02031E+00
 -1     10321 1.36344E+01 2.32213E+02-3.61274E+00
 -1     10322-1.31481E+01 2.31366E+02 3.99360E+00
 -1     10323-1.51789E+00 1.67921E+02-1.50000E+00
 -1     10324 1.49816E+01 2.40161E+02 1.86976E-01
 -1     10325 1.49773E+01 2.40657E+02-8.32347E-01
 -1     10326 8.42218E+00 2.51935E+02-2.98248E+00
 -1     10327-8.52711E+00 2.52373E+02-3.55435E-01
 -1     10328-8.36577E-01 2.54924E+02-2.52115E+00
 -1     10329-1.31510E+01 2.31371E+02-3.98561E+00
 -1     10330-5.56699E+00 2.25536E+02 4.04519E+00
 -1     10331-5.56699E+00 2.25536E+02-4.04519E+00
 -1     10332 5.56699E+00 2.25536E+02 4.04519E+00
 -1     10333 5.56699E+00 2.25536E+02-4.04519E+00
 -1     10334 1.43895E+01 2.33165E+02-3.61274E+00
 -1     10335 1.54173E+01 2.38596E+02-3.77408E+00
 -1     10336 8.77853E+00 2.51702E+02 4.04519E+00
 -1     10337-1.17417E+01 2.31082E+02 4.04519E+00
 -1     10338 6.51140E+00 2.25528E+02-4.00000E+00
 -1     10339 6.51140E+00 2.25528E+02 4.00000E+00
 -1     10340-7.26631E+00 2.53145E+02 3.25171E-01
 -1     10341-1.33438E+01 2.47320E+02-3.98834E+00
 -1     10342 1.54461E+01 2.40087E+02-4.15409E+00
 -1     10343 1.29205E+01 2.47963E+02-4.10750E+00
 -1     10344-9.42397E+00 2.51912E+02 4.11177E+00
 -1     10345-8.58969E+00 2.51829E+02 3.15696E+00
 -1     10346 1.17417E+01 2.47918E+02-4.04519E+00
 -1     10347-9.86437E-01 2.24092E+02-4.00000E+00
 -1     10348 9.86437E-01 2.24092E+02-4.00000E+00
 -1     10349-9.86437E-01 2.24092E+02 4.00000E+00
 -1     10350 9.86437E-01 2.24092E+02 4.00000E+00
 -1     10351-8.26186E+00 2.26438E+02 4.00000E+00
 -1     10352-8.26186E+00 2.26438E+02-4.00000E+00
 -1     10353 1.59988E-01 2.54965E+02-3.63587E+00
 -1     10354 8.26186E+00 2.26438E+02-4.00000E+00
 -1     10355 8.26186E+00 2.26438E+02 4.00000E+00
 -1     10356 5.33890E+00 1.95126E+02 1.50000E+00
 -1     10357-8.36577E-01 2.54924E+02-4.18782E+00
 -1     10358-8.77853E+00 2.51702E+02 4.04519E+00
 -1     10359 5.33890E+00 1.95126E+02-1.50000E+00
 -1     10360 3.55563E+00 1.95528E+02-1.50000E+00
 -1     10361 8.77853E+00 2.27298E+02-4.04519E+00
 -1     10362 8.77853E+00 2.27298E+02 4.04519E+00
 -1     10363-8.77853E+00 2.27298E+02-4.04519E+00
 -1     10364-8.77853E+00 2.27298E+02 4.04519E+00
 -1     10365-1.24667E+01 2.29661E+02 4.00000E+00
 -1     10366 3.60411E+00 5.66038E+00 3.75000E+00
 -1     10367-1.36714E+01 5.89440E+00 1.95843E+00
 -1     10368-1.24444E+01 6.15173E+00 1.95843E+00
 -1     10369 1.92507E+01 3.30914E+00 2.50000E+00
 -1     10370 5.20083E+00 4.15138E+01 0.00000E+00
 -1     10371 3.57671E+00 6.58043E+00 3.16580E+00
 -1     10372 1.31399E+01 3.15591E+00 3.40802E+00
 -1     10373 1.49228E+00 1.96209E+02 0.00000E+00
 -1     10374 2.56943E+01-3.23937E+00-2.50000E+00
 -1     10375-2.15661E+01 1.31989E+01-8.55021E-01
 -1     10376 1.39274E+01 2.08700E+01 2.50000E+00
 -1     10377 1.39274E+01 2.08700E+01-2.50000E+00
 -1     10378-5.90011E+00 8.37404E+00 1.24023E+00
 -1     10379 1.18115E+01-1.90419E+01 1.38949E+00
 -1     10380 9.17911E+00-1.97132E+01 1.93180E+00
 -1     10381-9.74907E+00 2.24817E+02 1.50000E+00
 -1     10382-9.74907E+00 2.24817E+02-1.50000E+00
 -1     10383 8.29503E+00 2.52540E+02 3.33333E+00
 -1     10384 2.04080E+00 1.96874E+02-1.50000E+00
 -1     10385-1.92630E+00 1.58499E+01-1.99384E+00
 -1     10386-2.92396E+00 1.68753E+01-1.99384E+00
 -3
    3C                          5099                                     1
 -1      4000    6    0    1
 -2      1506       317      1034      1033      1922      6947      6948      6950      6949      1036
 -1      4001    6    0    1
 -2      1602      1517       831      2895      1728      6951      6952      6954      6953      6955
 -1      4002    6    0    1
 -2      1034       451      1506      1033      6957      6956      6948      1036      6958      6950
 -1      4003    6    0    1
 -2      5653      6891      6902      6909      6961      6959      6960      6963      6962      6964
 -1      4004    6    0    1
 -2      6894      5626      6897      6905      6967      6965      6966      6969      6968      6970
 -1      4005    6    0    1
 -2      5148      6894      6897      6905      6972      6966      6971      6973      6969      6970
 -1      4006    6    0    1
 -2      5633      5556      6889      6908      5838      6974      6975      6977      6976      6978
 -1      4007    6    0    1
 -2      6897       433       298      6916      6981      6979      6980      6983      6982      6984
 -1      4008    6    0    1
 -2       300       436       301      6900      6986      6985       309      6988      6987      6989
 -1      4009    6    0    1
 -2       300       435      6900      6916      6991      6990      6988      6993      6992      6994
 -1      4010    6    0    1
 -2      5566      6888      6928      6929      6997      6995      6996      6999      6998      7000
 -1      4011    6    0    1
 -2      6900       436       301      6922      6987      6985      6989      7002      7001      7003
 -1      4012    6    0    1
 -2      6905      5626      6897      6912      6968      6965      6970      7005      7004      7006
 -1      4013    6    0    1
 -2      6897      5148      6905      6912      6971      6973      6970      7006      7007      7005
 -1      4014    6    0    1
 -2      6894       432      1359      6897      7010      7008      7009      6966      7011      7012
 -1      4015    6    0    1
 -2      1359       297      6894      6897      7014      7013      7009      7012      7015      6966
 -1      4016    6    0    1
 -2      5169      5095      6894      6897      5515      7016      7017      7019      7018      6966
 -1      4017    6    0    1
 -2      5573      5647      6894      6897      5993      7020      7021      7023      7022      6966
 -1      4018    6    0    1
 -2       297      5169      6894      6897      7024      7017      7013      7015      7019      6966
 -1      4019    6    0    1
 -2      6894      5647       432      6897      7020      7025      7010      6966      7022      7011
 -1      4020    6    0    1
 -2       435       436       300      6900       444      6986      6991      6990      6987      6988
 -1      4021    6    0    1
 -2      6889      5084      6900      6912      7028      7026      7027      7030      7029      7031
 -1      4022    6    0    1
 -2      2981      1448      1688      2952      7033      2459      7032      3752      7034      7035
 -1      4023    6    0    1
 -2      2754      1594      1461      6934      7037      2563      7036      7039      7038      7040
 -1      4024    6    0    1
 -2      6926      5639      6899      6933      7043      7041      7042      7045      7044      7046
 -1      4025    6    0    1
 -2      5095      5169      5138      6897      5515      5258      5518      7018      7019      7047
 -1      4026    6    0    1
 -2      5616      5647      5573      6897      5736      5993      5996      7048      7022      7023
 -1      4027    6    0    1
 -2      1594      2754      2887      6934      7037      3856      7049      7038      7039      7050
 -1      4028    6    0    1
 -2      5559      6899      6910      6917      7053      7051      7052      7055      7054      7056
 -1      4029    6    0    1
 -2      5615      5639      6926      6933      5980      7043      7057      7058      7044      7045
 -1      4030    6    0    1
 -2       432       433       297      6897       441      7059      7060      7011      6981      7015
 -1      4031    6    0    1
 -2      2837      2918      2719      1625      3518      3511      3517      7062      7061      7063
 -1      4032    6    0    1
 -2      1426      2932      1555      1639      7065      7064      2227      2221      7066      2226
 -1      4033    6    0    1
 -2      1550      1429      2925      1632      2269      7067      7068      2268      2263      7069
 -1      4034    6    0    1
 -2      2837      1453      2918      1625      7071      7070      3518      7062      2501      7061
 -1      4035    6    0    1
 -2       298       433       299      6916      6979      7072       307      6984      6982      7073
 -1      4036    6    0    1
 -2      1638      2931      1427      1554      7075      7074      2235      2240      7076      2241
 -1      4037    6    0    1
 -2      2844      2721      2930      1637      3548      3542      3547      7078      7077      7079
 -1      4038    6    0    1
 -2      5102      5181      5159      6910      5549      5285      5548      7081      7080      7082
 -1      4039    6    0    1
 -2      5659      5580      5637      6910      6027      6026      5763      7084      7083      7085
 -1      4040    6    0    1
 -2      2810       831      1517      2895      7087      6951      7086      3021      6955      6953
 -1      4041    6    0    1
 -2      5084      5116      6889      6900      5436      7088      7028      7026      7089      7027
 -1      4042    6    0    1
 -2      1639      1426      2932      1488      2221      7065      7066      2220      2219      7090
 -1      4043    6    0    1
 -2      1491      2925      1429      1632      7091      7067      2261      2262      7069      2263
 -1      4044    6    0    1
 -2       298      5177      6897      6916      7093      7092      6980      6984      7094      6983
 -1      4045    6    0    1
 -2       434       299       433      6916      7095      7072       442      7096      7073      6982
 -1      4046    6    0    1
 -2      2783      2930      2721      1637      3541      3542      3540      7097      7079      7077
 -1      4047    6    0    1
 -2      6896      5108      6375      6928      7100      7098      7099      7102      7101      7103
 -1      4048    6    0    1
 -2      1638      1427      2931      1489      2235      7074      7075      2234      2233      7104
 -1      4049    6    0    1
 -2      2719      2918      2781      1625      3511      3510      3512      7063      7061      7105
 -1      4050    6    0    1
 -2      2915      1622      1429      1547      7107      2259      7106      7108      2267      2266
 -1      4051    6    0    1
 -2      2915      1429      1622      1491      7106      2259      7107      7109      2261      2260
 -1      4052    6    0    1
 -2      2885      2991      2768      1475      3035      3939      3941      7111      7110      7112
 -1      4053    6    0    1
 -2      1623      2721      1490      2916      7114      7113      2246      7115      3539      7116
 -1      4054    6    0    1
 -2      2721      1623      2839      2916      7114      7117      3545      3539      7115      3546
 -1      4055    6    0    1
 -2      1624      2917      1427      1489      7119      7118      2231      2232      7120      2233
 -1      4056    6    0    1
 -2      5636       835      6892      6936      7123      7121      7122      7125      7124      7126
 -1      4057    6    0    1
 -2      1698      2991      2885      1475      7128      3035      7127      2646      7110      7111
 -1      4058    6    0    1
 -2      1545      2917      1427      1624      7129      7118      2238      2239      7119      2231
 -1      4059    6    0    1
 -2      5650      5596      6888      6945      5851      7130      7131      7133      7132      7134
 -1      4060    6    0    1
 -2      5138      5169       297      6897      5258      7024      7135      7047      7019      7015
 -1      4061    6    0    1
 -2       432      5647      5616      6897      7025      5736      7136      7011      7022      7048
 -1      4062    6    0    1
 -2      2741      1517      1602      2895      7138      1728      7137      3746      6953      6954
 -1      4063    6    0    1
 -2      2842      2753      2924      1631      3848      3850      3595      7140      7139      7141
 -1      4064    6    0    1
 -2      1506      1034       317       452      6948      6947      1922      7143      7142      7144
 -1      4065    6    0    1
 -2      5640      5626      6894      6905      5833      6967      7145      7146      6968      6969
 -1      4066    6    0    1
 -2      5148      5162      6894      6905      5356      7147      6972      6973      7148      6969
 -1      4067    6    0    1
 -2      1452      1555      2932      1639      2495      7064      7149      2496      2226      7066
 -1      4068    6    0    1
 -2      6890      6374      5605      6909      7152      7150      7151      7154      7153      7155
 -1      4069    6    0    1
 -2      6377      5170      6915      6942      7158      7156      7157      7160      7159      7161
 -1      4070    6    0    1
 -2      6892      5183      6891      6936      7164      7162      7163      7126      7165      7166
 -1      4071    6    0    1
 -2      2768      1646      1640      1475      7168      2108      7167      7112      2645      2647
 -1      4072    6    0    1
 -2      1359       432       297      6897      7008      7060      7014      7012      7011      7015
 -1      4073    6    0    1
 -2      1466      2899      1649      2759      7170      7169      2607      7171      3901      7172
 -1      4074    6    0    1
 -2      2799      1506       452      1034      7173      7143      3214      7174      6948      7142
 -1      4075    6    0    1
 -2      5084      5116      5114      6889      5436      5435      5434      7028      7088      7175
 -1      4076    6    0    1
 -2      2952      2741      1602      2895      3749      7137      7176      3232      3746      6954
 -1      4077    6    0    1
 -2      5599      5563      6894      6898      5927      7177      7178      7180      7179      7181
 -1      4078    6    0    1
 -2      2740      1550      2925      1632      7182      7068      3744      7183      2268      7069
 -1      4079    6    0    1
 -2      6909      5127      6890      6918      7185      7184      7154      7187      7186      7188
 -1      4080    6    0    1
 -2      5084      6900      6912      6916      7026      7031      7029      7189      6994      7190
 -1      4081    6    0    1
 -2      1426      1544      2837      1625      2224      7191      7192      2217      2225      7062
 -1      4082    6    0    1
 -2      2885      2768      1640      1475      3941      7167      7193      7111      7112      2647
 -1      4083    6    0    1
 -2      1638      1451      2931      1554      2488      7194      7075      2240      2487      7076
 -1      4084    6    0    1
 -2      2844      2930      2743      1637      3547      3773      3772      7078      7079      7195
 -1      4085    6    0    1
 -2      2722      2925      2843      1550      3556      3561      3562      7196      7068      7197
 -1      4086    6    0    1
 -2      1453      2837      1544      1625      7071      7191      2502      2501      7062      2225
 -1      4087    6    0    1
 -2      2941      1523      1634      1648      7199      2605      7198      7200      2584      2306
 -1      4088    6    0    1
 -2      1426      1555      2932      2848      2227      7064      7065      7202      7201      3519
 -1      4089    6    0    1
 -2      2847      1427      2931      1554      7203      7074      3533      7204      2241      7076
 -1      4090    6    0    1
 -2      2884      2768      2991      1475      3937      3939      3032      7205      7112      7110
 -1      4091    6    0    1
 -2      2844      1551      2721      1637      7207      7206      3548      7078      2254      7077
 -1      4092    6    0    1
 -2      1547      2915      1622      1450      7108      7107      2267      2478      7208      2477
 -1      4093    6    0    1
 -2      6900      5124       300      6916      7210      7209      6988      6994      7211      6993
 -1      4094    6    0    1
 -2      1648      2941      1523      1463      7200      7199      2584      2582      7212      2583
 -1      4095    6    0    1
 -2      1698      2884      2991      1475      7213      3032      7128      2646      7205      7110
 -1      4096    6    0    1
 -2      2839      2916      1623      1451      3546      7115      7117      7215      7214      2485
 -1      4097    6    0    1
 -2      6890      5127      6362      6918      7184      7216      7217      7188      7186      7218
 -1      4098    6    0    1
 -2      5559      5652      6899      6917      5880      7219      7053      7055      7220      7054
 -1      4099    6    0    1
 -2      2927      1466      2816      2759      7222      7221      3897      3898      7171      3899
 -1      4100    6    0    1
 -2      2943      1465      2817      2758      7224      7223      3889      3890      7225      3891
 -1      4101    6    0    1
 -2      5127      6362      6373      6890      7216      6430      7226      7184      7217      7227
 -1      4102    6    0    1
 -2      6926      5092      5146      6933      7229      5496      7228      7045      7230      7231
 -1      4103    6    0    1
 -2       435      5602      6900      6916      7233      7232      6990      6992      7234      6994
 -1      4104    6    0    1
 -2      1452      2917      1545      1624      7235      7129      2494      2493      7119      2239
 -1      4105    6    0    1
 -2      2758      1465      2950      2900      7225      7236      3892      3893      7237      3895
 -1      4106    6    0    1
 -2      1574      1467      2901      2760      2615      7238      7239      7241      7240      3909
 -1      4107    6    0    1
 -2      6896      5108      6928      6944      7100      7101      7102      7243      7242      7244
 -1      4108    6    0    1
 -2      5170      6377      6929      6942      7158      7245      7246      7159      7160      7247
 -1      4109    6    0    1
 -2       451      1506      2799      1034      6956      7173      3215      6957      6948      7174
 -1      4110    6    0    1
 -2      1631      2924      2842      1432      7141      3595      7140      2297      7248      7249
 -1      4111    6    0    1
 -2      1432      1631      2924      1495      2297      7141      7248      2299      2298      7250
 -1      4112    6    0    1
 -2      2837      2918      1453      2746      3518      7070      7071      3795      3794      7251
 -1      4113    6    0    1
 -2      6897      5655       433      6916      7253      7252      6981      6983      7254      6982
 -1      4114    6    0    1
 -2      5177      5101      6897      6916      5544      7255      7092      7094      7256      6983
 -1      4115    6    0    1
 -2      1432      2941      1648      1495      7257      7200      2301      2299      7258      2300
 -1      4116    6    0    1
 -2      1495      2941      1648      1463      7258      7200      2300      2579      7212      2582
 -1      4117    6    0    1
 -2       298       299      5177      6916       307      7259      7093      6984      7073      7094
 -1      4118    6    0    1
 -2      1544      2837      2888      1426      7191      3515      7260      2224      7192      7261
 -1      4119    6    0    1
 -2         6      5647       272      6894      7263      7262       273      7264      7020      7265
 -1      4120    6    0    1
 -2       272      5169         5      6894      7267      7266       274      7265      7017      7268
 -1      4121    6    0    1
 -2      1543      1626      2747      2919      2211      7269      7270      7272      7271      3802
 -1      4122    6    0    1
 -2      6928      5108      6888      6944      7101      7273      6995      7244      7242      7274
 -1      4123    6    0    1
 -2      2902      1465      2943      2758      7275      7224      3896      3894      7225      3890
 -1      4124    6    0    1
 -2      2740      1548      2843      1550      7277      7276      3743      7182      2347      7197
 -1      4125    6    0    1
 -2      1475      2884      2768      1646      7205      3937      7112      2645      7278      7168
 -1      4126    6    0    1
 -2      2760      1467      2901      2876      7240      7238      3909      3905      7279      3388
 -1      4127    6    0    1
 -2       297       433       298      6897      7059      6979       306      7015      6981      6980
 -1      4128    6    0    1
 -2      6928      5632      5566      6929      7280      5951      6996      7000      7281      6999
 -1      4129    6    0    1
 -2      6920       303       438      6922      7284      7282      7283      7286      7285      7287
 -1      4130    6    0    1
 -2      1594      1510      2754      1461      2091      7288      7037      2563      2564      7036
 -1      4131    6    0    1
 -2      1510      2754      2887      1594      7288      3856      7289      2091      7037      7049
 -1      4132    6    0    1
 -2      1426      2837      2719      1625      7192      3517      7290      2217      7062      7063
 -1      4133    6    0    1
 -2      1510      2887      1417      1594      7289      7291      2090      2091      7049      2092
 -1      4134    6    0    1
 -2      6889      5114      5084      6912      7175      5434      7028      7030      7292      7029
 -1      4135    6    0    1
 -2      1631      2842      2753      1460      7140      3848      7139      2557      7293      7294
 -1      4136    6    0    1
 -2      2722      1429      2925      1550      7295      7067      3556      7196      2269      7068
 -1      4137    6    0    1
 -2      2932      2848      2719      1426      3519      3520      3514      7065      7202      7290
 -1      4138    6    0    1
 -2      2952      2981      1469      1688      3752      7296      7297      7035      7032      2624
 -1      4139    6    0    1
 -2      1544      2888      1595      1426      7260      7298      2223      2224      7261      2222
 -1      4140    6    0    1
 -2      2745      2848      2932      1555      3788      3519      3789      7299      7201      7064
 -1      4141    6    0    1
 -2      2745      2838      2848      1555      3787      3672      3788      7299      7300      7201
 -1      4142    6    0    1
 -2      1637      1551      2721      1428      2254      7206      7077      2249      2255      7301
 -1      4143    6    0    1
 -2      2760      1467      2876      6931      7240      7279      3905      7303      7302      7304
 -1      4144    6    0    1
 -2      1681      1448      1688      2981      2458      2459      2461      7305      7033      7032
 -1      4145    6    0    1
 -2      2847      2931      1427      2720      3533      7074      7203      3534      3528      7306
 -1      4146    6    0    1
 -2      2740      2843      1548      2841      3743      7276      7277      3742      3639      7307
 -1      4147    6    0    1
 -2      5615      5639      5570      6926      5980      5978      5979      7057      7043      7308
 -1      4148    6    0    1
 -2      2743      1551      2840      2844      7310      7309      3771      3772      7207      3650
 -1      4149    6    0    1
 -2      2915      1429      2840      1547      7106      7311      3560      7108      2266      7312
 -1      4150    6    0    1
 -2      2842      2880      2753      1460      3764      3849      3848      7293      7313      7294
 -1      4151    6    0    1
 -2      6375      5108      6371      6928      7098      7314      6408      7103      7101      7315
 -1      4152    6    0    1
 -2      1451      2839      2847      1554      7215      3661      7316      2487      7317      7204
 -1      4153    6    0    1
 -2      5181      4026      5159      6910      7319      7318      5285      7080      7320      7082
 -1      4154    6    0    1
 -2      5637      4026      5659      6910      7322      7321      5763      7085      7320      7084
 -1      4155    6    0    1
 -2      1507      1688      1469      2981      2625      2624      2110      7323      7032      7296
 -1      4156    6    0    1
 -2      6365      5636       835      6368      7324      7123      6396      6400      7325      6386
 -1      4157    6    0    1
 -2      2829      1536      1562      1445      7327      2434      7326      7328      2433      2435
 -1      4158    6    0    1
 -2      2816      1466      1649      2759      7221      2607      7329      3899      7171      7172
 -1      4159    6    0    1
 -2      1549      2842      1631      1460      7330      7140      2303      2555      7293      2557
 -1      4160    6    0    1
 -2      2740      2925      1550      2843      3744      7068      7182      3743      3561      7197
 -1      4161    6    0    1
 -2      1033       451      1506       316      6958      6956      6950      7332      7331      1921
 -1      4162    6    0    1
 -2      5650      6888      6898      6945      7131      7333      7334      7133      7134      7335
 -1      4163    6    0    1
 -2      5656      5578      6898      6938      6019      7336      7337      7339      7338      7340
 -1      4164    6    0    1
 -2      2759      2927      1466      2877      3898      7222      7171      3902      3903      7341
 -1      4165    6    0    1
 -2      1621      2785      2906      1492      7343      3994      7342      2697      7344      7345
 -1      4166    6    0    1
 -2      2915      2840      1429      2722      3560      7311      7106      3553      3559      7295
 -1      4167    6    0    1
 -2      2721      2839      1623      1546      3545      7117      7114      7347      7346      2253
 -1      4168    6    0    1
 -2      2784      2925      1429      1491      3555      7067      7348      7349      7091      2261
 -1      4169    6    0    1
 -2      2722      2925      1429      2784      3556      7067      7295      3554      3555      7348
 -1      4170    6    0    1
 -2      5102      5181      6910      6924      5549      7080      7081      7351      7350      7352
 -1      4171    6    0    1
 -2      2784      1429      2915      1491      7348      7106      3552      7349      2261      7109
 -1      4172    6    0    1
 -2      2722      1429      2915      2784      7295      7106      3553      3554      7348      3552
 -1      4173    6    0    1
 -2      5125      5121      5085      6898      5264      5449      5440      7354      7353      7355
 -1      4174    6    0    1
 -2      5599      5603      5563      6898      5742      5919      5927      7180      7356      7179
 -1      4175    6    0    1
 -2      1510      2939      2754      1461      7357      3859      7288      2564      7358      7036
 -1      4176    6    0    1
 -2      1637      1490      2721      2783      2248      7113      7077      7097      7359      3540
 -1      4177    6    0    1
 -2      1637      2721      1490      1428      7077      7113      2248      2249      7301      2247
 -1      4178    6    0    1
 -2      6890      5152      6909      6914      7361      7360      7154      7363      7362      7364
 -1      4179    6    0    1
 -2      1623      1490      2721      1428      2246      7113      7114      2245      2247      7301
 -1      4180    6    0    1
 -2      2916      2721      1490      2783      3539      7113      7116      3538      3540      7359
 -1      4181    6    0    1
 -2       301      5124       300      6900      7365      7209       309      6989      7210      6988
 -1      4182    6    0    1
 -2      5602       436       435      6900      7366       444      7233      7232      6987      6990
 -1      4183    6    0    1
 -2      2932      2719      2781      1426      3514      3512      3513      7065      7290      7367
 -1      4184    6    0    1
 -2      1426      2781      2932      1488      7367      3513      7065      2219      7368      7090
 -1      4185    6    0    1
 -2      1426      2719      2781      1625      7290      3512      7367      2217      7063      7105
 -1      4186    6    0    1
 -2      1625      2781      1426      1488      7105      7367      2217      2218      7368      2219
 -1      4187    6    0    1
 -2      1460      2880      1549      2842      7313      7369      2555      7293      3764      7330
 -1      4188    6    0    1
 -2      2782      2931      1427      1489      3527      7074      7370      7371      7104      2233
 -1      4189    6    0    1
 -2      2720      2931      1427      2782      3528      7074      7306      3526      3527      7370
 -1      4190    6    0    1
 -2      6900      6889      6912      6943      7027      7030      7031      7373      7372      7374
 -1      4191    6    0    1
 -2      2858      2929      2737      1636      3413      3716      3719      7376      7375      7377
 -1      4192    6    0    1
 -2      1546      1623      2721      1428      2253      7114      7347      2252      2245      7301
 -1      4193    6    0    1
 -2      2917      2782      1427      1489      3524      7370      7118      7120      7371      2233
 -1      4194    6    0    1
 -2      2782      1427      2720      2917      7370      7306      3526      3524      7118      3525
 -1      4195    6    0    1
 -2      1606      2899      1649      1466      7378      7169      2611      2608      7170      2607
 -1      4196    6    0    1
 -2      2747      1543      2919      2836      7270      7272      3802      3803      7379      3504
 -1      4197    6    0    1
 -2      1451      2847      2931      1554      7316      3533      7194      2487      7204      7076
 -1      4198    6    0    1
 -2      6368      6365      5636      5660      6400      7324      7325      7381      7380      5672
 -1      4199    6    0    1
 -2      2844      2743      1551      1637      3772      7310      7207      7078      7195      2254
 -1      4200    6    0    1
 -2      1544      2850      2837      1453      7382      3679      7191      2502      7383      7071
 -1      4201    6    0    1
 -2      2838      2917      1427      1545      3532      7118      7384      7385      7129      2238
 -1      4202    6    0    1
 -2      5130      6896      6899      6944      7388      7386      7387      7389      7243      7390
 -1      4203    6    0    1
 -2      2917      1427      2720      2838      7118      7306      3525      3532      7384      3531
 -1      4204    6    0    1
 -2      5183      5131      6891      6936      5417      7391      7162      7165      7392      7166
 -1      4205    6    0    1
 -2      1453      2823      2918      1625      7393      3793      7070      2501      7394      7061
 -1      4206    6    0    1
 -2      1550      2740      1548      1447      7182      7277      2347      2450      7395      2449
 -1      4207    6    0    1
 -2      2740      1548      2914      2841      7277      7396      3741      3742      7307      3581
 -1      4208    6    0    1
 -2      6909      5630      6890      6914      7398      7397      7154      7364      7399      7363
 -1      4209    6    0    1
 -2      1555      2932      2745      1452      7064      3789      7299      2495      7149      7400
 -1      4210    6    0    1
 -2      2885      1086      2991      1698      7402      7401      3035      7127      7403      7128
 -1      4211    6    0    1
 -2      2743      1547      1551      1450      7404      2358      7310      7405      2478      2479
 -1      4212    6    0    1
 -2      1555      2745      2838      1452      7299      3787      7300      2495      7400      7406
 -1      4213    6    0    1
 -2       893      6382      5610      6915      6446      7407      5809      7409      7408      7410
 -1      4214    6    0    1
 -2      1357       432       433       297      7412       441      7411      7413      7060      7059
 -1      4215    6    0    1
 -2      1557      1425      2934      1641      2213      7414      7415      2212      2207      7416
 -1      4216    6    0    1
 -2      1460      1549      2880      1587      2555      7369      7313      2556      2472      7417
 -1      4217    6    0    1
 -2      2829      1562      2738      1445      7326      7418      3727      7328      2435      7419
 -1      4218    6    0    1
 -2      6889      5633      6908      6940      6975      6977      6978      7421      7420      7422
 -1      4219    6    0    1
 -2      6892      5164      6906      6923      7425      7423      7424      7427      7426      7428
 -1      4220    6    0    1
 -2      6909      5131      6891      6939      7429      7391      6962      7431      7430      7432
 -1      4221    6    0    1
 -2      2758      2902      1465      2900      3894      7275      7225      3893      3359      7237
 -1      4222    6    0    1
 -2      2744      2839      2847      1451      3779      3661      3780      7433      7215      7316
 -1      4223    6    0    1
 -2      2837      2719      2888      1426      3517      3516      3515      7192      7290      7261
 -1      4224    6    0    1
 -2      2952      1602      4753      2895      7176      7434      7435      3232      6954      7436
 -1      4225    6    0    1
 -2      2836      2747      1543      2851      3803      7270      7379      3688      3804      7437
 -1      4226    6    0    1
 -2      1648      1634      2941      1432      2306      7198      7200      2301      2307      7257
 -1      4227    6    0    1
 -2      5094      5130      6896      6899      5506      7388      7438      7439      7387      7386
 -1      4228    6    0    1
 -2      5608      5572      6896      6899      5984      7440      7441      7443      7442      7386
 -1      4229    6    0    1
 -2      1626      2718      2919      1543      7444      3497      7271      2211      7445      7272
 -1      4230    6    0    1
 -2      2969      1676      1427      1554      7447      2243      7446      7448      2242      2241
 -1      4231    6    0    1
 -2      2970      1551      1677      1428      7450      2256      7449      7451      2255      2257
 -1      4232    6    0    1
 -2      5609      6891      6909      6936      7453      6962      7452      7454      7166      7455
 -1      4233    6    0    1
 -2      6887      2834      1541      6893      7458      7456      7457      7460      7459      7461
 -1      4234    6    0    1
 -2      2924      2753      2846      1631      3850      3852      3853      7141      7139      7462
 -1      4235    6    0    1
 -2      6896      5608      6899      6945      7441      7443      7386      7464      7463      7465
 -1      4236    6    0    1
 -2      2829      2738      1562      2855      3727      7418      7326      3726      3728      7466
 -1      4237    6    0    1
 -2      6910      5638      5559      6917      7467      5873      7052      7056      7468      7055
 -1      4238    6    0    1
 -2      5145      5176      5097      6891      5530      5526      5527      7470      7469      7471
 -1      4239    6    0    1
 -2      5574      5605      5660      6909      5997      5819      5998      7472      7155      7473
 -1      4240    6    0    1
 -2      1537      1622      2915      1450      2476      7107      7474      2475      2477      7208
 -1      4241    6    0    1
 -2      2759      1466      2899      2877      7171      7170      3901      3902      7341      3350
 -1      4242    6    0    1
 -2      1495      2846      1631      2924      7475      7462      2298      7250      3853      7141
 -1      4243    6    0    1
 -2      1451      2916      1623      1535      7214      7115      2485      2483      7476      2484
 -1      4244    6    0    1
 -2      2743      2840      1551      1547      3771      7309      7310      7404      7312      2358
 -1      4245    6    0    1
 -2      2914      2724      2841      1431      3582      3580      3581      7478      7477      7479
 -1      4246    6    0    1
 -2      1548      2914      2841      1431      7396      3581      7307      2287      7478      7479
 -1      4247    6    0    1
 -2      1425      1487      2934      1641      2205      7480      7414      2207      2206      7416
 -1      4248    6    0    1
 -2      1543      2747      1626      1454      7270      7269      2211      2510      7481      2509
 -1      4249    6    0    1
 -2      1624      1452      2917      1533      2493      7235      7119      2492      2491      7482
 -1      4250    6    0    1
 -2      2942      1649      2899      2759      7483      7169      3904      3900      7172      3901
 -1      4251    6    0    1
 -2      2744      2847      2931      1451      3780      3533      3781      7433      7316      7194
 -1      4252    6    0    1
 -2      5146      4035      6926      6933      7485      7484      7228      7231      7486      7045
 -1      4253    6    0    1
 -2      5181      4026      6910      6924      7319      7320      7080      7350      7487      7352
 -1      4254    6    0    1
 -2      1637      2743      1551      1450      7195      7310      2254      2480      7405      2479
 -1      4255    6    0    1
 -2      5555      5626      6905      6912      5834      6968      7488      7489      7004      7005
 -1      4256    6    0    1
 -2      5148      5077      6905      6912      5355      7490      6973      7007      7491      7005
 -1      4257    6    0    1
 -2      5659      5580      6910      6924      6027      7083      7084      7493      7492      7352
 -1      4258    6    0    1
 -2      1445      2910      1536      1617      7495      7494      2433      2430      7496      2151
 -1      4259    6    0    1
 -2      1451      1546      2839      1554      2486      7346      7215      2487      2369      7317
 -1      4260    6    0    1
 -2      1545      1555      2838      1452      2380      7300      7385      2494      2495      7406
 -1      4261    6    0    1
 -2      1548      2740      1621      1447      7277      7497      2288      2449      7395      2448
 -1      4262    6    0    1
 -2      5556      6907      6908      6914      7499      7498      6976      7501      7500      7502
 -1      4263    6    0    1
 -2      2847      2969      1427      1554      3535      7446      7203      7204      7448      2241
 -1      4264    6    0    1
 -2      1688      1448      1659      2952      2459      2456      2460      7035      7034      7503
 -1      4265    6    0    1
 -2      2836      2886      1441      1543      3501      7504      7505      7379      7506      2397
 -1      4266    6    0    1
 -2      1544      2733      2888      2837      7507      3678      7260      7191      3681      3515
 -1      4267    6    0    1
 -2      2970      1551      2721      2844      7450      7206      3550      3549      7207      3548
 -1      4268    6    0    1
 -2      1547      2743      2915      1450      7404      3770      7108      2478      7405      7208
 -1      4269    6    0    1
 -2      2752      1635      1522      2928      7509      1950      7508      3839      7510      7511
 -1      4270    6    0    1
 -2      2850      2746      2837      1453      3796      3795      3679      7383      7251      7071
 -1      4271    6    0    1
 -2      2722      2843      1679      1550      3562      7512      7513      7196      7197      2270
 -1      4272    6    0    1
 -2      1632      2740      1550      1447      7183      7182      2268      2451      7395      2450
 -1      4273    6    0    1
 -2      6896      5572      5613      6917      7440      5987      7514      7516      7515      7517
 -1      4274    6    0    1
 -2      1452      2932      2857      1639      7149      3790      7518      2496      7066      7519
 -1      4275    6    0    1
 -2      2967      2848      1674      1426      3521      7520      7521      7522      7202      2229
 -1      4276    6    0    1
 -2      6888      5118      6898      6944      7524      7523      7333      7274      7525      7526
 -1      4277    6    0    1
 -2      6892       835      6918      6936      7121      7527      7528      7126      7124      7529
 -1      4278    6    0    1
 -2      1556      1637      2743      2930      2481      7195      7530      7531      7079      3773
 -1      4279    6    0    1
 -2      2910      1536      2829      1445      7494      7327      3444      7495      2433      7328
 -1      4280    6    0    1
 -2      2744      2916      2839      1451      3778      3546      3779      7433      7214      7215
 -1      4281    6    0    1
 -2      1555      1674      2848      1426      2228      7520      7201      2227      2229      7202
 -1      4282    6    0    1
 -2      1451      2931      2852      1638      7194      3782      7532      2488      7075      7533
 -1      4283    6    0    1
 -2      2843      1679      2972      2722      7512      7534      3563      3562      7513      3564
 -1      4284    6    0    1
 -2      5626      5573      6894      6897      5995      7021      6967      6965      7023      6966
 -1      4285    6    0    1
 -2      5095      5148      6894      6897      5516      6972      7016      7018      6971      6966
 -1      4286    6    0    1
 -2      6896      5094      6899      6917      7438      7439      7386      7516      7535      7054
 -1      4287    6    0    1
 -2      1681      1688      1507      2981      2461      2625      2335      7305      7032      7323
 -1      4288    6    0    1
 -2      2851      2747      1543      1454      3804      7270      7437      7536      7481      2510
 -1      4289    6    0    1
 -2      2925      2845      2740      1632      3745      3738      3744      7069      7537      7183
 -1      4290    6    0    1
 -2      1574      1467      2760      6931      2615      7240      7241      7538      7302      7303
 -1      4291    6    0    1
 -2      1448      1517      1602      2741      2454      1728      2453      7539      7138      7137
 -1      4292    6    0    1
 -2      2810      1517      2741      2895      7086      7138      3747      3021      6953      3746
 -1      4293    6    0    1
 -2      2745      2917      2838      1452      3786      3532      3787      7400      7235      7406
 -1      4294    6    0    1
 -2      2829      1614      1421      2907      7541      2141      7540      3442      7542      7543
 -1      4295    6    0    1
 -2      1458      1562      2829      1536      2542      7326      7544      2543      2434      7327
 -1      4296    6    0    1
 -2      1685      2905      2978      1495      7546      3049      7545      2708      7547      7548
 -1      4297    6    0    1
 -2      2952      2981      1448      2741      3752      7033      7034      3749      3753      7539
 -1      4298    6    0    1
 -2      2718      2919      1487      1626      3497      7549      7550      7444      7271      2204
 -1      4299    6    0    1
 -2      2840      2743      2915      1547      3771      3770      3560      7312      7404      7108
 -1      4300    6    0    1
 -2      2906      2724      2914      1431      3584      3582      3589      7551      7477      7478
 -1      4301    6    0    1
 -2      2884      2991      1086      1698      3032      7401      7552      7213      7128      7403
 -1      4302    6    0    1
 -2      6892      5642      6921      6923      7555      7553      7554      7427      7556      7557
 -1      4303    6    0    1
 -2      1594      2887      1630      6934      7049      7558      2096      7038      7050      7559
 -1      4304    6    0    1
 -2      1641      2934      1557      1453      7416      7415      2212      2504      7560      2503
 -1      4305    6    0    1
 -2      1544      2733      1595      2888      7507      7561      2223      7260      3678      7298
 -1      4306    6    0    1
 -2      6902      5558      5653      6909      7562      5870      6960      6964      7563      6963
 -1      4307    6    0    1
 -2      1659      1448      1602      2952      2456      2453      1939      7503      7034      7176
 -1      4308    6    0    1
 -2      1549      1631      2842      1432      2303      7140      7330      2302      2297      7249
 -1      4309    6    0    1
 -2      1475      2885      1698      1592      7111      7127      2646      2648      7564      1742
 -1      4310    6    0    1
 -2      6715       317       452      6927      7566      7144      7565      7568      7567      7569
 -1      4311    6    0    1
 -2      6897      5579      5655      6916      7570      6022      7253      6983      7571      7254
 -1      4312    6    0    1
 -2      2836      2919      2718      1543      3504      3497      3503      7379      7272      7445
 -1      4313    6    0    1
 -2      2961      2886      1472      2765      3509      7572      7573      3929      3927      7574
 -1      4314    6    0    1
 -2      1563      2714      2938      1645      7576      3440      7575      2152      7577      7578
 -1      4315    6    0    1
 -2      6918      5131      5183      6936      7580      5417      7579      7529      7392      7165
 -1      4316    6    0    1
 -2      1546      2839      1623      1451      7346      7117      2253      2486      7215      2485
 -1      4317    6    0    1
 -2      2910      1421      1536      1617      7581      2150      7494      7496      2145      2151
 -1      4318    6    0    1
 -2      5578      5650      6898      6904      5921      7334      7336      7583      7582      7584
 -1      4319    6    0    1
 -2      2910      2829      2738      1445      3444      3727      3723      7495      7328      7419
 -1      4320    6    0    1
 -2      2858      2712      2929      1636      3414      3411      3413      7376      7585      7375
 -1      4321    6    0    1
 -2      5564      6889      6915      6940      7588      7586      7587      7589      7421      7590
 -1      4322    6    0    1
 -2      2887      2761      2923      6934      3910      3914      3389      7050      7591      7592
 -1      4323    6    0    1
 -2      1594      1630      1468      6934      2096      2621      2617      7038      7559      7593
 -1      4324    6    0    1
 -2      1548      1621      2740      2914      2288      7497      7277      7396      7594      3741
 -1      4325    6    0    1
 -2      1639      2932      2857      1488      7066      3790      7519      2220      7090      7595
 -1      4326    6    0    1
 -2      5613      6370      6360      6917      7597      6434      7596      7517      7598      7599
 -1      4327    6    0    1
 -2      2781      2823      1625      2918      3978      7394      7105      3510      3793      7061
 -1      4328    6    0    1
 -2      1636      2858      1565      1444      7376      7600      2120      2422      7601      2426
 -1      4329    6    0    1
 -2      1454      2851      1558      1543      7536      7602      2511      2510      7437      2396
 -1      4330    6    0    1
 -2      4026      5659      6910      6924      7321      7084      7320      7487      7493      7352
 -1      4331    6    0    1
 -2      6888      5596      5650      6898      7130      5851      7131      7333      7603      7334
 -1      4332    6    0    1
 -2      1491      1632      2845      2925      2262      7537      7604      7091      7069      3745
 -1      4333    6    0    1
 -2       433      5655       434      6916      7252      7605       442      6982      7254      7096
 -1      4334    6    0    1
 -2      1614      2774      1421      2907      7607      7606      2141      7542      3432      7543
 -1      4335    6    0    1
 -2      2941      2756      1523      1463      3875      7608      7199      7212      7609      2583
 -1      4336    6    0    1
 -2      1545      2838      2917      1452      7385      3532      7129      2494      7406      7235
 -1      4337    6    0    1
 -2      1456      1561      1541      6893      2527      2414      2526      7611      7610      7461
 -1      4338    6    0    1
 -2      2854      2749      2834      6893      3820      3819      3706      7613      7612      7459
 -1      4339    6    0    1
 -2      1544      1557      2850      1453      2387      7614      7382      2502      2503      7383
 -1      4340    6    0    1
 -2      2952      1602      2741      1448      7176      7137      3749      7034      2453      7539
 -1      4341    6    0    1
 -2      6715      6700       318      6927      7617      7615      7616      7568      7618      7619
 -1      4342    6    0    1
 -2      1637      2783      2930      1556      7097      3541      7079      2481      7620      7531
 -1      4343    6    0    1
 -2      1638      2931      2852      1489      7075      3782      7533      2234      7104      7621
 -1      4344    6    0    1
 -2      2829      2751      1614      2907      3836      7622      7541      3442      3834      7542
 -1      4345    6    0    1
 -2      1426      2967      1595      1674      7522      7623      2222      2229      7521      2230
 -1      4346    6    0    1
 -2       453      6700      6715      6927      7625      7617      7624      7626      7618      7568
 -1      4347    6    0    1
 -2      2829      1421      1536      2910      7540      2150      7327      3444      7581      7494
 -1      4348    6    0    1
 -2      1565      2858      1538      1444      7600      7627      2425      2426      7601      2424
 -1      4349    6    0    1
 -2      1614      1421      1536      2829      2141      2150      2149      7541      7540      7327
 -1      4350    6    0    1
 -2      2887      2803      1417      2710      3383      7628      7291      3385      3384      7629
 -1      4351    6    0    1
 -2      1636      2737      2858      1444      7377      3719      7376      2422      7630      7601
 -1      4352    6    0    1
 -2      6895      5638      6910      6917      7632      7467      7631      7633      7468      7056
 -1      4353    6    0    1
 -2      1636      2712      2929      1479      7585      3411      7375      2117      7634      7635
 -1      4354    6    0    1
 -2      6899      6896      6904      6944      7386      7636      7637      7390      7243      7638
 -1      4355    6    0    1
 -2      1537      2915      1622      1491      7474      7107      2476      2694      7109      2260
 -1      4356    6    0    1
 -2      2714      1656      2856      2949      7640      7639      3446      3436      7641      3447
 -1      4357    6    0    1
 -2      2725      2924      2788      1432      3591      3590      3592      7642      7248      7643
 -1      4358    6    0    1
 -2      5559      5638      5652      6917      5873      5881      5880      7055      7468      7220
 -1      4359    6    0    1
 -2      6915      6382      5610      6940      7408      7407      7410      7590      7644      7645
 -1      4360    6    0    1
 -2      5572      5608      6896      6945      5984      7441      7440      7646      7463      7464
 -1      4361    6    0    1
 -2      2916      1490      1623      1535      7116      2246      7115      7476      2691      2484
 -1      4362    6    0    1
 -2      2939      2884      2754      1461      3863      3860      3859      7358      7647      7036
 -1      4363    6    0    1
 -2      6376      5643      6896      6928      7650      7648      7649      7652      7651      7102
 -1      4364    6    0    1
 -2      5585      5636       835      6892      5668      7123      7653      7654      7122      7121
 -1      4365    6    0    1
 -2      2768      1640      2939      2933      7167      7655      3938      3940      7656      3401
 -1      4366    6    0    1
 -2      2886      1593      1441      1543      7657      2393      7504      7506      2209      2397
 -1      4367    6    0    1
 -2      1489      2917      1533      1624      7120      7482      2688      2232      7119      2492
 -1      4368    6    0    1
 -2      1583      1608      1467      2876      2095      2616      2612      7659      7658      7279
 -1      4369    6    0    1
 -2      1458      2829      1562      2855      7544      7326      2542      7660      3726      7466
 -1      4370    6    0    1
 -2      2842      2924      2725      1432      3595      3591      3596      7249      7248      7642
 -1      4371    6    0    1
 -2      2735      2890      1597      2835      3696      7661      7662      3699      3490      7663
 -1      4372    6    0    1
 -2      2858      2737      1538      1444      3719      7664      7627      7601      7630      2424
 -1      4373    6    0    1
 -2      1548      1621      2914      1431      2288      7594      7396      2287      2289      7478
 -1      4374    6    0    1
 -2      1539      3002      2785      1492      7666      3992      7665      2698      7667      7344
 -1      4375    6    0    1
 -2      5618      5567      6914      6919      5958      7668      7669      7671      7670      7672
 -1      4376    6    0    1
 -2      2736      2893      1600      1541      3705      7673      7674      7676      7675      2181
 -1      4377    6    0    1
 -2      6902      5618      6914      6919      7678      7669      7677      7679      7671      7672
 -1      4378    6    0    1
 -2       438       437       303      2889       446      7680      7282      3195      3196      7681
 -1      4379    6    0    1
 -2      2938      2714      2775      1645      3440      3438      3441      7578      7577      7682
 -1      4380    6    0    1
 -2      2941      2725      2788      1432      3594      3592      3593      7257      7642      7643
 -1      4381    6    0    1
 -2      2970      2721      1551      1428      3550      7206      7450      7451      7301      2255
 -1      4382    6    0    1
 -2      1459      2858      1538      1565      7683      7627      2554      2553      7600      2425
 -1      4383    6    0    1
 -2      2847      1427      2969      2720      7203      7446      3535      3534      7306      3536
 -1      4384    6    0    1
 -2      1709      3002      1539      1492      7684      7666      1768      2699      7667      2698
 -1      4385    6    0    1
 -2      2950      1465      1657      2900      7236      2599      7685      3895      7237      7686
 -1      4386    6    0    1
 -2      2837      1544      2733      2850      7191      7507      3681      3679      7382      3680
 -1      4387    6    0    1
 -2      2835      1560      2748      1455      7688      7687      3811      7689      2519      7690
 -1      4388    6    0    1
 -2      2950      2817      1465      2758      3398      7223      7236      3892      3891      7225
 -1      4389    6    0    1
 -2      1468      1630      1581      6934      2621      2324      2620      7593      7559      7691
 -1      4390    6    0    1
 -2      2923      2761      2874      6934      3914      3913      3617      7592      7591      7692
 -1      4391    6    0    1
 -2      2941      2788      2756      1463      3593      3873      3875      7212      7693      7609
 -1      4392    6    0    1
 -2      5607      4667       439      6919      7696      7694      7695      7698      7697      7699
 -1      4393    6    0    1
 -2      1455      2835      1560      1542      7689      7688      2519      2518      7700      2405
 -1      4394    6    0    1
 -2      1426      1595      2967      2888      2222      7623      7522      7261      7298      3523
 -1      4395    6    0    1
 -2      6898      5118      5172      6944      7523      5373      7701      7526      7525      7702
 -1      4396    6    0    1
 -2      6888      5108      6928      6929      7273      7101      6995      6998      7703      7000
 -1      4397    6    0    1
 -2      2722      1679      1429      1550      7513      2271      7295      7196      2270      2269
 -1      4398    6    0    1
 -2      2829      1458      2751      2855      7544      7704      3836      3726      7660      3835
 -1      4399    6    0    1
 -2      6891      5131      6909      6936      7391      7429      6962      7166      7392      7455
 -1      4400    6    0    1
 -2      2719      2848      2967      1426      3520      3521      3522      7290      7202      7522
 -1      4401    6    0    1
 -2      2929      2824      2737      1636      3715      3711      3716      7375      7705      7377
 -1      4402    6    0    1
 -2      2933      2768      1640      2885      3940      7167      7656      3888      3941      7193
 -1      4403    6    0    1
 -2      1592      1475      2885      1640      2648      7111      7564      2595      2647      7193
 -1      4404    6    0    1
 -2      1424      2835      1597      2890      7706      7663      2188      7707      3490      7661
 -1      4405    6    0    1
 -2      2836      2718      2886      1543      3503      3502      3501      7379      7445      7506
 -1      4406    6    0    1
 -2      2747      2821      2919      1626      3800      3801      3802      7269      7708      7271
 -1      4407    6    0    1
 -2      1561      2854      6887      6893      7711      7709      7710      7610      7613      7460
 -1      4408    6    0    1
 -2      1563      1457      2856      1540      2535      7712      7713      2441      2534      7714
 -1      4409    6    0    1
 -2      2768      2939      1640      1646      3938      7655      7167      7168      7715      2108
 -1      4410    6    0    1
 -2      1516      1357       298       297      7717      7716      1889      1871      7413       306
 -1      4411    6    0    1
 -2       432       433      2809      1357       441      3182      3164      7412      7411      7718
 -1      4412    6    0    1
 -2      2856      2714      2938      1563      3446      3440      3445      7713      7576      7575
 -1      4413    6    0    1
 -2      1614      1536      1458      2829      2149      2543      2540      7541      7327      7544
 -1      4414    6    0    1
 -2      6896      5613      6360      6917      7514      7596      7719      7516      7517      7599
 -1      4415    6    0    1
 -2      1613      1621      2906      1492      2296      7342      7720      2701      2697      7345
 -1      4416    6    0    1
 -2      2906      2914      2785      1621      3589      3990      3994      7342      7594      7343
 -1      4417    6    0    1
 -2      2774      1656      2714      2949      7721      7640      3433      3435      7641      3436
 -1      4418    6    0    1
 -2      2851      2836      1441      1543      3688      7505      7722      7437      7379      2397
 -1      4419    6    0    1
 -2      1617      2910      1421      1482      7496      7581      2145      2146      7723      2144
 -1      4420    6    0    1
 -2      1493      2899      1649      1606      7724      7169      2702      2060      7378      2611
 -1      4421    6    0    1
 -2      6888      5596      6898      6937      7130      7603      7333      7726      7725      7727
 -1      4422    6    0    1
 -2      1495      2978      1685      1553      7548      7545      2708      2707      7728      1759
 -1      4423    6    0    1
 -2       303       437       438      6922      7680       446      7282      7285      7729      7287
 -1      4424    6    0    1
 -2      1563      2938      1457      1645      7575      7730      2535      2152      7578      2536
 -1      4425    6    0    1
 -2      2909      1616      1522      2752      7732      2551      7731      3844      7733      7508
 -1      4426    6    0    1
 -2      1467      1583      2876      6931      2612      7659      7279      7302      7734      7304
 -1      4427    6    0    1
 -2      1541      2893      1600      1423      7675      7673      2181      2182      7735      2172
 -1      4428    6    0    1
 -2      2714      2856      1656      1563      3446      7639      7640      7576      7713      2154
 -1      4429    6    0    1
 -2      2833      2739      1604      2897      3735      7736      7737      3458      3732      7738
 -1      4430    6    0    1
 -2      1431      2906      1621      2914      7551      7342      2289      7478      3589      7594
 -1      4431    6    0    1
 -2      1431      1621      2906      1613      2289      7342      7551      2290      2296      7720
 -1      4432    6    0    1
 -2      2853      1560      2748      2835      7739      7687      3812      3697      7688      3811
 -1      4433    6    0    1
 -2      1631      2753      1553      1460      7139      7740      2560      2557      7294      2559
 -1      4434    6    0    1
 -2      5091      5151      6911      6925      5492      7741      7742      7744      7743      7745
 -1      4435    6    0    1
 -2      2816      1523      2927      2941      7747      7746      3897      3876      7199      3599
 -1      4436    6    0    1
 -2      2927      1523      1634      2941      7746      2605      7748      3599      7199      7198
 -1      4437    6    0    1
 -2      2887      2803      2754      1510      3383      3857      3856      7289      7749      7288
 -1      4438    6    0    1
 -2      2816      1649      2942      2759      7329      7483      3571      3899      7172      3900
 -1      4439    6    0    1
 -2      2750      1457      2833      2856      7751      7750      3827      3828      7712      3733
 -1      4440    6    0    1
 -2      6899      5092      6904      6926      7753      7752      7637      7042      7229      7754
 -1      4441    6    0    1
 -2      2746      2823      2918      1453      3792      3793      3794      7251      7393      7070
 -1      4442    6    0    1
 -2      2887      1417      2803      1510      7291      7628      3383      7289      2090      7749
 -1      4443    6    0    1
 -2      2890      1473      1597      1424      7755      2187      7661      7707      2189      2188
 -1      4444    6    0    1
 -2      6900      6912      6916      6943      7031      7190      6994      7373      7374      7756
 -1      4445    6    0    1
 -2      2856      1457      2833      1540      7712      7750      3733      7714      2534      7757
 -1      4446    6    0    1
 -2      1467      2901      1608      1574      7238      7758      2616      2615      7239      2577
 -1      4447    6    0    1
 -2      2760      2901      1574      2867      3909      7239      7241      3908      3870      7759
 -1      4448    6    0    1
 -2      2785      3002      2869      1492      3992      3058      3993      7344      7667      7760
 -1      4449    6    0    1
 -2      1465      2902      1650      1609      7275      7761      2596      2601      7762      2603
 -1      4450    6    0    1
 -2      1634      1466      1523      2927      2604      2606      2605      7748      7222      7746
 -1      4451    6    0    1
 -2      2927      2816      1466      1523      3897      7221      7222      7746      7747      2606
 -1      4452    6    0    1
 -2      6898      5578      6904      6938      7336      7583      7584      7340      7338      7763
 -1      4453    6    0    1
 -2      4028      5145      6891      6921      7765      7470      7764      7767      7766      7768
 -1      4454    6    0    1
 -2      1425      2934      2850      1557      7414      3505      7769      2213      7415      7614
 -1      4455    6    0    1
 -2      1453      1641      2934      1566      2504      7416      7560      2498      2505      7770
 -1      4456    6    0    1
 -2      1466      1606      2899      1584      2608      7378      7170      2609      2057      7771
 -1      4457    6    0    1
 -2      5634      5650      5578      6904      5858      5921      6018      7772      7582      7583
 -1      4458    6    0    1
 -2      2880      2724      2906      1431      3585      3584      3583      7773      7477      7551
 -1      4459    6    0    1
 -2      6892      5164      5107      6906      7425      5409      7774      7424      7423      7775
 -1      4460    6    0    1
 -2      2737      1538      2831      2858      7664      7776      3718      3719      7627      3717
 -1      4461    6    0    1
 -2      5610      5564      6915      6940      5929      7587      7410      7645      7589      7590
 -1      4462    6    0    1
 -2      1709      2869      3002      1492      7777      3058      7684      2699      7760      7667
 -1      4463    6    0    1
 -2      2838      2732      2848      1555      3674      3673      3672      7300      7778      7201
 -1      4464    6    0    1
 -2      2839      1438      2847      1554      7780      7779      3661      7317      2368      7204
 -1      4465    6    0    1
 -2      2840      1551      1437      2844      7309      2357      7781      3650      7207      7782
 -1      4466    6    0    1
 -2      2906      2869      1492      2785      3854      7760      7345      3994      3993      7344
 -1      4467    6    0    1
 -2      1491      1537      3001      1708      2694      7783      7784      2695      1777      7785
 -1      4468    6    0    1
 -2      6889      5621      5564      6915      7786      5935      7588      7586      7787      7587
 -1      4469    6    0    1
 -2      1535      3000      1490      1707      7789      7788      2691      1786      7790      2692
 -1      4470    6    0    1
 -2      5082      5183      6891      6892      5411      7162      7791      7792      7164      7163
 -1      4471    6    0    1
 -2      2782      1705      2826      2998      7794      7793      3981      3982      7795      3088
 -1      4472    6    0    1
 -2      1488      1530      2997      1704      2685      7796      7797      2686      1804      7798
 -1      4473    6    0    1
 -2      1092      2905      2978      1685      7800      3049      7799      7801      7546      7545
 -1      4474    6    0    1
 -2      6899      5092      6926      6933      7753      7229      7042      7046      7230      7045
 -1      4475    6    0    1
 -2      1476      1600      2893      1423      2171      7673      7802      2173      2172      7735
 -1      4476    6    0    1
 -2      2756      1523      2816      2941      7608      7747      3877      3875      7199      3876
 -1      4477    6    0    1
 -2      1491      3001      1552      1708      7784      7803      2696      2695      7785      1774
 -1      4478    6    0    1
 -2      2751      2813      1614      2907      3831      7804      7622      3834      3833      7542
 -1      4479    6    0    1
 -2       299      1502      2944      1651      1895      7805      7806      1890      1877      7807
 -1      4480    6    0    1
 -2      2915      2743      2830      1450      3770      3768      3769      7208      7405      7808
 -1      4481    6    0    1
 -2      5633      5556      5594      6889      5838      5837      5836      6975      6974      7809
 -1      4482    6    0    1
 -2      2890      1597      2808      2735      7661      7810      3695      3696      7662      3693
 -1      4483    6    0    1
 -2      1548      1436      2843      1550      2348      7811      7276      2347      2346      7197
 -1      4484    6    0    1
 -2      1627      2835      2920      1455      7813      3492      7812      2517      7689      7814
 -1      4485    6    0    1
 -2      5130      5180      5094      6896      5378      5508      5506      7388      7815      7438
 -1      4486    6    0    1
 -2      1451      2744      2916      1535      7433      3778      7214      2483      7816      7476
 -1      4487    6    0    1
 -2      1556      1490      3000      1707      2693      7788      7817      1783      2692      7790
 -1      4488    6    0    1
 -2      2796      1635      2752      2928      7818      7509      3840      3238      7510      3839
 -1      4489    6    0    1
 -2      1452      2745      2917      1533      7400      3786      7235      2491      7819      7482
 -1      4490    6    0    1
 -2      2782      2852      1705      2998      3983      7820      7794      3982      3085      7795
 -1      4491    6    0    1
 -2       301      5124      6900      6922      7365      7210      6989      7003      7821      7002
 -1      4492    6    0    1
 -2      6889      5086      5143      6915      7823      5457      7822      7586      7824      7825
 -1      4493    6    0    1
 -2      6909      5131      6918      6936      7429      7580      7187      7455      7392      7529
 -1      4494    6    0    1
 -2      1488      2997      1564      1704      7797      7826      2687      2686      7798      1801
 -1      4495    6    0    1
 -2      5602       436      6900      6922      7366      6987      7232      7827      7001      7002
 -1      4496    6    0    1
 -2      2811      2893      1600      2736      3704      7673      7828      3702      3705      7674
 -1      4497    6    0    1
 -2      1467      1608      2901      2876      2616      7758      7238      7279      7658      3388
 -1      4498    6    0    1
 -2      5146      5092      5137      6933      5496      5501      5276      7231      7230      7829
 -1      4499    6    0    1
 -2      2719      2967      2888      1426      3522      3523      3516      7290      7522      7261
 -1      4500    6    0    1
 -2      1459      1538      2858      2831      2554      7627      7683      7830      7776      3717
 -1      4501    6    0    1
 -2      2886      1593      2961      1472      7657      7831      3509      7572      2634      7573
 -1      4502    6    0    1
 -2      2715      1604      2897      2833      7832      7738      3448      3459      7737      3458
 -1      4503    6    0    1
 -2      1548      2841      2904      1431      7307      3578      7833      2287      7479      7834
 -1      4504    6    0    1
 -2      2904      2841      2724      1431      3578      3580      3579      7834      7479      7477
 -1      4505    6    0    1
 -2        13      4667      5607      6919      4677      7696      7835      7836      7697      7698
 -1      4506    6    0    1
 -2      2934      2746      2850      1453      3797      3796      3505      7560      7251      7383
 -1      4507    6    0    1
 -2      2899      2942      1493      1649      3904      7837      7724      7169      7483      2702
 -1      4508    6    0    1
 -2      1636      1565      2858      1419      2120      7600      7376      2118      2121      7838
 -1      4509    6    0    1
 -2      2880      2906      2753      1460      3583      3855      3849      7313      7839      7294
 -1      4510    6    0    1
 -2      2835      2748      2920      1455      3811      3810      3492      7689      7690      7814
 -1      4511    6    0    1
 -2      1563      2856      1446      1540      7713      7840      2440      2441      7714      2442
 -1      4512    6    0    1
 -2      1433      1504      1661      2954      2315      2078      2311      7842      7841      7843
 -1      4513    6    0    1
 -2      2939      2754      2803      1510      3859      3857      3858      7357      7288      7749
 -1      4514    6    0    1
 -2      1510      1646      2939      1461      2565      7715      7357      2564      2566      7358
 -1      4515    6    0    1
 -2      5130      6899      6904      6944      7387      7637      7844      7389      7390      7638
 -1      4516    6    0    1
 -2      2880      2983      2724      1431      3586      3587      3585      7773      7845      7477
 -1      4517    6    0    1
 -2      6899      5081      6910      6917      7847      7846      7051      7054      7848      7056
 -1      4518    6    0    1
 -2       302      1499      2865      1572      1904      7849      7850      1899      1905      7851
 -1      4519    6    0    1
 -2      2961      2718      1593      2886      3508      7852      7831      3509      3502      7657
 -1      4520    6    0    1
 -2      1519      1604      2739      2897      2439      7736      7853      7854      7738      3732
 -1      4521    6    0    1
 -2      1455      1627      2835      1542      2517      7813      7689      2518      2199      7700
 -1      4522    6    0    1
 -2      2886      1441      2734      2836      7504      7855      3687      3501      7505      3690
 -1      4523    6    0    1
 -2       298      1357       433       297      7716      7411      6979       306      7413      7059
 -1      4524    6    0    1
 -2      1606      2899      4718      4745      7378      7856      7857      7859      7858      4884
 -1      4525    6    0    1
 -2      6891      5653      6902      6941      6961      6960      6959      7861      7860      7862
 -1      4526    6    0    1
 -2      2856      1656      2739      2949      7639      7863      3734      3447      7641      3736
 -1      4527    6    0    1
 -2      2718      1593      2886      1543      7852      7657      3502      7445      2209      7506
 -1      4528    6    0    1
 -2      2752      1522      2815      2928      7508      7864      3845      3839      7511      3243
 -1      4529    6    0    1
 -2      1522      1459      1635      2752      2552      2546      1950      7508      7865      7509
 -1      4530    6    0    1
 -2      6896      5130      5180      6944      7388      5378      7815      7243      7389      7866
 -1      4531    6    0    1
 -2      5077      6905      6912      6915      7490      7005      7491      7868      7867      7869
 -1      4532    6    0    1
 -2      2897      2771      1604      2715      3449      7870      7738      3448      3450      7832
 -1      4533    6    0    1
 -2      1431      1613      2880      1587      2290      7871      7773      2292      2291      7417
 -1      4534    6    0    1
 -2      1612      2905      1685      1495      7872      7546      1756      2580      7547      2708
 -1      4535    6    0    1
 -2      1572      2865       301      1501      7851      7873      1900      1901      7874      1896
 -1      4536    6    0    1
 -2      1501      2865      1433      1572      7874      7875      2314      1901      7851      2309
 -1      4537    6    0    1
 -2      1479      1636      2824      2929      2117      7705      7876      7635      7375      3715
 -1      4538    6    0    1
 -2      2888      2733      1595      2802      3678      7561      7298      3677      3675      7877
 -1      4539    6    0    1
 -2      1472      1512      1689      2982      2633      1998      2635      7879      7878      7880
 -1      4540    6    0    1
 -2      2856      2938      1457      1563      3445      7730      7712      7713      7575      2535
 -1      4541    6    0    1
 -2      6361      6376      6896      6928      6440      7649      7881      7882      7652      7102
 -1      4542    6    0    1
 -2      2843      2841      2729      1548      3639      3641      3640      7276      7307      7883
 -1      4543    6    0    1
 -2      1556      2743      1637      1450      7530      7195      2481      2474      7405      2480
 -1      4544    6    0    1
 -2      5633      5625      5556      6908      5847      5845      5838      6977      7884      6976
 -1      4545    6    0    1
 -2      2745      2932      2857      1452      3789      3790      3783      7400      7149      7518
 -1      4546    6    0    1
 -2      1539      1115      3002      1709      7886      7885      7666      1768      7887      7684
 -1      4547    6    0    1
 -2      2941      2927      2725      1432      3599      3600      3594      7257      7888      7642
 -1      4548    6    0    1
 -2      1614      1458      2751      2829      2540      7704      7622      7541      7544      3836
 -1      4549    6    0    1
 -2      1630      1417      2887      1594      2088      7291      7558      2096      2092      7049
 -1      4550    6    0    1
 -2      2765      1512      1472      2982      7889      2633      7574      3928      7878      7879
 -1      4551    6    0    1
 -2      2852      2744      2931      1451      3775      3781      3782      7532      7433      7194
 -1      4552    6    0    1
 -2      2856      2833      1446      1540      3733      7890      7840      7714      7757      2442
 -1      4553    6    0    1
 -2      2756      2788      2905      1463      3873      3872      3874      7609      7693      7891
 -1      4554    6    0    1
 -2      2777      2815      1702      2995      3966      7892      7893      3967      3246      7894
 -1      4555    6    0    1
 -2      2830      2743      1556      1450      3768      7530      7895      7808      7405      2474
 -1      4556    6    0    1
 -2      6914      5567      6901      6919      7668      7896      7897      7672      7670      7898
 -1      4557    6    0    1
 -2      1621      1539      2785      1492      2447      7665      7343      2697      2698      7344
 -1      4558    6    0    1
 -2      2851      1441      1558      1543      7722      2395      7602      7437      2397      2396
 -1      4559    6    0    1
 -2      1607      1657      1465      2900      2602      2599      2600      7899      7686      7237
 -1      4560    6    0    1
 -2      1451      2852      2744      1535      7532      3775      7433      2483      7900      7816
 -1      4561    6    0    1
 -2      1453      2746      2823      1566      7251      3792      7393      2498      7901      7902
 -1      4562    6    0    1
 -2      6906      5164      5087      6923      7423      5461      7903      7428      7426      7904
 -1      4563    6    0    1
 -2      1621      2740      2832      1447      7497      3739      7905      2448      7395      7906
 -1      4564    6    0    1
 -2      2748      1560      2936      1643      7687      7907      3813      7908      2184      7909
 -1      4565    6    0    1
 -2      2956      1662      2756      1463      7911      7910      3879      7912      2585      7609
 -1      4566    6    0    1
 -2      2753      1576      1553      1460      7913      1762      7740      7294      2558      2559
 -1      4567    6    0    1
 -2      1454      2851      2935      1642      7536      3493      7914      2512      7915      7916
 -1      4568    6    0    1
 -2      1452      2857      2745      1533      7518      3783      7400      2491      7917      7819
 -1      4569    6    0    1
 -2      5578      5634      6904      6938      6018      7772      7583      7338      7918      7763
 -1      4570    6    0    1
 -2      2735      1560      2835      1542      7919      7688      3699      7920      2405      7700
 -1      4571    6    0    1
 -2      1629      2922      1457      1540      7922      7921      2533      2167      7923      2534
 -1      4572    6    0    1
 -2      5618      5607      5567      6919      5959      5960      5958      7671      7698      7670
 -1      4573    6    0    1
 -2      2858      1459      1666      1565      7683      2549      7924      7600      2553      2122
 -1      4574    6    0    1
 -2      1630      2923      2874      6934      7926      3617      7925      7559      7592      7692
 -1      4575    6    0    1
 -2      1581      1630      2874      6934      2324      7925      7927      7691      7559      7692
 -1      4576    6    0    1
 -2      6891      6902      6909      6939      6959      6964      6962      7432      7928      7431
 -1      4577    6    0    1
 -2      1445      2827      2738      1532      7929      3720      7419      2428      7930      7931
 -1      4578    6    0    1
 -2      5114      5086      5143      6889      5456      5457      5347      7175      7823      7822
 -1      4579    6    0    1
 -2      5621      5564      5592      6889      5935      5934      5825      7786      7588      7932
 -1      4580    6    0    1
 -2      2969      1438      1676      1554      7933      2364      7447      7448      2368      2242
 -1      4581    6    0    1
 -2      2939      2768      2884      1646      3938      3937      3863      7715      7168      7278
 -1      4582    6    0    1
 -2      1557      2850      1440      1544      7614      7934      2386      2387      7382      2388
 -1      4583    6    0    1
 -2      2738      1562      2926      1633      7418      7935      3725      7936      2136      7937
 -1      4584    6    0    1
 -2      1677      1437      1551      2970      2353      2357      2256      7449      7938      7450
 -1      4585    6    0    1
 -2      2880      1690      2983      1431      7940      7939      3586      7773      2294      7845
 -1      4586    6    0    1
 -2      2834      2893      2736      1541      3474      3705      3708      7456      7675      7676
 -1      4587    6    0    1
 -2      1544      1595      2733      1440      2223      7561      7507      2388      2384      7941
 -1      4588    6    0    1
 -2       835       834      6892      6918       837      7942      7121      7527      7943      7528
 -1      4589    6    0    1
 -2      1495      1612      2905      1463      2580      7872      7547      2579      2581      7891
 -1      4590    6    0    1
 -2      5080      6902      6909      6914      7945      6964      7944      7946      7677      7364
 -1      4591    6    0    1
 -2      1465      1524      1650      2943      2598      2597      2596      7224      7947      7948
 -1      4592    6    0    1
 -2      2817      1524      1465      2943      7949      2598      7223      3889      7947      7224
 -1      4593    6    0    1
 -2      6892      5105      5164      6923      7950      5405      7425      7427      7951      7426
 -1      4594    6    0    1
 -2      6890      5605      5630      6909      7151      5966      7397      7154      7155      7398
 -1      4595    6    0    1
 -2      5152      5127      6890      6909      5488      7184      7361      7360      7185      7154
 -1      4596    6    0    1
 -2      1587      1613      2880      1460      2291      7871      7417      2556      2561      7313
 -1      4597    6    0    1
 -2      2938      1457      2750      2856      7730      7751      3829      3445      7712      3828
 -1      4598    6    0    1
 -2      5626      5573      5640      6894      5995      5992      5833      6967      7021      7145
 -1      4599    6    0    1
 -2      5095      5148      5162      6894      5516      5356      5514      7016      6972      7147
 -1      4600    6    0    1
 -2      1431      2880      1690      1587      7773      7940      2294      2292      7417      2293
 -1      4601    6    0    1
 -2      2835      1597      2735      1542      7663      7662      3699      7700      2197      7920
 -1      4602    6    0    1
 -2      1571      2989      1696      1482      7953      7952      1846      2669      7954      2668
 -1      4603    6    0    1
 -2      2840      1437      1551      1547      7781      2357      7309      7312      2359      2358
 -1      4604    6    0    1
 -2      6902        13      5607      6919      7956      7835      7955      7679      7836      7698
 -1      4605    6    0    1
 -2      1617      1445      2910      1532      2430      7495      7496      2429      2428      7957
 -1      4606    6    0    1
 -2      1472      1593      2961      1668      2634      7831      7573      2636      2216      7958
 -1      4607    6    0    1
 -2      2737      1531      1529      1444      7960      1861      7959      7630      2418      2419
 -1      4608    6    0    1
 -2      1445      1562      2738      1633      2435      7418      7419      2431      2136      7936
 -1      4609    6    0    1
 -2      1626      2747      2821      1454      7269      3800      7708      2509      7481      7961
 -1      4610    6    0    1
 -2      2747      2860      2821      1454      3799      3109      3800      7481      7962      7961
 -1      4611    6    0    1
 -2      4753      1659      1602      2952      7963      1939      7434      7435      7503      7176
 -1      4612    6    0    1
 -2      6913      5565      6906      6923      7966      7964      7965      7968      7967      7428
 -1      4613    6    0    1
 -2      1568      2820      2748      1455      7970      3808      7969      2514      7971      7690
 -1      4614    6    0    1
 -2      2948      2751      1655      2855      3837      7972      7973      3431      3835      7974
 -1      4615    6    0    1
 -2      2959      1459      1666      2858      7976      2549      7975      3415      7683      7924
 -1      4616    6    0    1
 -2      1632      2845      2740      1447      7537      3738      7183      2451      7977      7395
 -1      4617    6    0    1
 -2      2909      2831      1616      2752      3426      7978      7732      3844      3847      7733
 -1      4618    6    0    1
 -2      2752      2831      1459      2858      3847      7830      7865      3846      3717      7683
 -1      4619    6    0    1
 -2      5564      5581      5633      6889      5930      5931      5932      7588      7979      6975
 -1      4620    6    0    1
 -2      2732      2848      1674      2967      3673      7520      7980      3668      3521      7521
 -1      4621    6    0    1
 -2      1546      1438      2839      1554      2370      7780      7346      2369      2368      7317
 -1      4622    6    0    1
 -2      1557      2934      2850      1453      7415      3505      7614      2503      7560      7383
 -1      4623    6    0    1
 -2      1593      1425      2961      1668      2208      7981      7831      2216      2215      7958
 -1      4624    6    0    1
 -2      1634      1584      1466      2877      2610      2609      2604      7983      7982      7341
 -1      4625    6    0    1
 -2      2927      1634      1466      2877      7748      2604      7222      3903      7983      7341
 -1      4626    6    0    1
 -2      1479      2986      2824      1693      7984      3157      7876      2659      7985      7986
 -1      4627    6    0    1
 -2      2832      2740      2845      1447      3739      3738      3064      7906      7395      7977
 -1      4628    6    0    1
 -2      5108      5157      6888      6944      5470      7987      7273      7242      7988      7274
 -1      4629    6    0    1
 -2      1466      1649      1523      2816      2607      2279      2606      7221      7329      7747
 -1      4630    6    0    1
 -2      6902      5558      6909      6914      7562      7563      6964      7677      7989      7364
 -1      4631    6    0    1
 -2      1528      1101      2996      1703      7992      7990      7991      1813      7993      7994
 -1      4632    6    0    1
 -2      1555      2732      1545      2838      7778      7995      2380      7300      3674      7385
 -1      4633    6    0    1
 -2      4711      2962      1669      2952      7998      7996      7997      7999      3235      8000
 -1      4634    6    0    1
 -2      1696      2989      2825      1482      7952      3142      8001      2668      7954      8002
 -1      4635    6    0    1
 -2      2735      2835      1560      2853      3699      7688      7919      3698      3697      7739
 -1      4636    6    0    1
 -2      1110      1109      2824      1531      1259      8003      8004      8006      8005      8007
 -1      4637    6    0    1
 -2      1108      2987      1529      1694      8010      8008      8009      8012      8011      1858
 -1      4638    6    0    1
 -2      1527      1103      2994      1701      8015      8013      8014      1822      8016      8017
 -1      4639    6    0    1
 -2      1674      2732      1555      2848      7980      7778      2228      7520      3673      7201
 -1      4640    6    0    1
 -2      2847      1438      2969      1554      7779      7933      3535      7204      2368      7448
 -1      4641    6    0    1
 -2      1700      2993      1079      1526      8020      8018      8019      1831      8021      8022
 -1      4642    6    0    1
 -2      2712      2872      2772      1579      3408      3407      3409      8024      8023      8025
 -1      4643    6    0    1
 -2      1697      2990      1119      1525      8028      8026      8027      1840      8029      8030
 -1      4644    6    0    1
 -2      2840      1429      1603      1547      7311      2264      8031      7312      2266      2265
 -1      4645    6    0    1
 -2      1589      1502      2882       299      1894      8032      8033      1893      1895      8034
 -1      4646    6    0    1
 -2      1609      1465      2902      1607      2601      7275      7762      2066      2600      8035
 -1      4647    6    0    1
 -2      1444      1636      2737      1531      2422      7377      7630      2418      2423      7960
 -1      4648    6    0    1
 -2      2856      1446      1656      1563      7840      2443      7639      7713      2440      2154
 -1      4649    6    0    1
 -2      1432      2924      2788      1495      7248      3590      7643      2299      7250      8036
 -1      4650    6    0    1
 -2      6374      6362      6365      6918      6471      6398      6462      8037      7218      8038
 -1      4651    6    0    1
 -2      2970      1437      1551      2844      7938      2357      7450      3549      7782      7207
 -1      4652    6    0    1
 -2      1424      1597      2835      1542      2188      7663      7706      2198      2197      7700
 -1      4653    6    0    1
 -2      2864      2750      1457      2818      3823      7751      8039      3136      3824      8040
 -1      4654    6    0    1
 -2      6896      6899      6904      6945      7386      7637      7636      7464      7465      8041
 -1      4655    6    0    1
 -2      1121      2827      1534      1107      8044      8042      8043      1250      8045      8046
 -1      4656    6    0    1
 -2      1425      2850      2961      1557      7769      3507      7981      2213      7614      8047
 -1      4657    6    0    1
 -2      6905      5555      6912      6915      7488      7489      7005      7867      8048      7869
 -1      4658    6    0    1
 -2      5157      5088      5108      6888      5469      5467      5470      7987      8049      7273
 -1      4659    6    0    1
 -2      2738      2926      1562      2855      3725      7935      7418      3728      3429      7466
 -1      4660    6    0    1
 -2      1613      2880      2906      1431      7871      3583      7720      2290      7773      7551
 -1      4661    6    0    1
 -2      1571      1457      2938      1645      2530      7730      8050      2537      2536      7578
 -1      4662    6    0    1
 -2       299       434       300      6916      7095      8051       308      7073      7096      6993
 -1      4663    6    0    1
 -2      1094      2832      1082      1539      8053      8052      1169      8055      8054      8056
 -1      4664    6    0    1
 -2      4048      5599      4053      6894      8058      8057      4095      8059      7178      8060
 -1      4665    6    0    1
 -2      4048      4054      5121      6894      4097      8061      8062      8059      8063      8064
 -1      4666    6    0    1
 -2      2833      1446      2739      2856      7890      8065      3735      3733      7840      3734
 -1      4667    6    0    1
 -2      6918      5183      6892      6936      7579      7164      7528      7529      7165      7126
 -1      4668    6    0    1
 -2      2843      1436      1679      1550      7811      2342      7512      7197      2346      2270
 -1      4669    6    0    1
 -2      2756      2905      2956      1463      3874      3046      3879      7609      7891      7912
 -1      4670    6    0    1
 -2      5642      6892      6906      6923      7555      7424      8066      7556      7427      7428
 -1      4671    6    0    1
 -2      6898      5596      5563      6937      7603      5924      7179      7727      7725      8067
 -1      4672    6    0    1
 -2      1084      1083      2830      1537      1178      8068      8069      8071      8070      8072
 -1      4673    6    0    1
 -2      2851      2717      2935      1642      3494      3489      3493      7915      8073      7916
 -1      4674    6    0    1
 -2      1493      1650      1649      2942      2703      2284      2702      7837      8074      7483
 -1      4675    6    0    1
 -2      2710      1608      1583      2876      8076      2095      8075      3380      7658      7659
 -1      4676    6    0    1
 -2       715        13      4051      6902       717      4081      4082      8077      7956      8078
 -1      4677    6    0    1
 -2      1560      1643      2748      1455      2184      7908      7687      2519      2520      7690
 -1      4678    6    0    1
 -2      2833      1604      1446      1540      7737      2438      7890      7757      2165      2442
 -1      4679    6    0    1
 -2      2750      2833      1457      2922      3827      7750      7751      3826      3460      7921
 -1      4680    6    0    1
 -2      2834      2716      2893      1541      3475      3464      3474      7456      8079      7675
 -1      4681    6    0    1
 -2      2840      1603      1429      2722      8031      2264      7311      3559      8080      7295
 -1      4682    6    0    1
 -2      6899      5639      5588      6933      7041      5875      8081      7046      7044      8082
 -1      4683    6    0    1
 -2      1495      2788      2941      1463      8036      3593      7258      2579      7693      7212
 -1      4684    6    0    1
 -2      6910      4027      5159      6933      8084      8083      7082      8086      8085      8087
 -1      4685    6    0    1
 -2      1432      2788      2941      1495      7643      3593      7257      2299      8036      7258
 -1      4686    6    0    1
 -2      1095      1085      2828      1535      1187      8088      8089      8091      8090      8092
 -1      4687    6    0    1
 -2      1530      1098      2997      1704      8094      8093      7796      1804      8095      7798
 -1      4688    6    0    1
 -2      1115      2869      3002      1709      8096      3058      7885      7887      7777      7684
 -1      4689    6    0    1
 -2      5617      6901      6907      6914      8099      8097      8098      8100      7897      7500
 -1      4690    6    0    1
 -2      1688      1659      1469      2952      2460      2626      2624      7035      7503      7297
 -1      4691    6    0    1
 -2      1537      1081      3001      1708      8102      8101      7783      1777      8103      7785
 -1      4692    6    0    1
 -2      1087      3000      1535      1707      8105      7789      8104      8106      7790      1786
 -1      4693    6    0    1
 -2      2922      2833      1457      1540      3460      7750      7921      7923      7757      2534
 -1      4694    6    0    1
 -2      2998      1705      2826      1096      7795      7793      3088      8108      8107      8109
 -1      4695    6    0    1
 -2      6908      6890      6914      6935      8110      7363      7502      8112      8111      8113
 -1      4696    6    0    1
 -2      1470      2732      1674      2967      8114      7980      2374      8115      3668      7521
 -1      4697    6    0    1
 -2      5656      5590      5578      6938      5748      6017      6019      7339      8116      7338
 -1      4698    6    0    1
 -2       715        13      6902      6919       717      7956      8077      8117      7836      7679
 -1      4699    6    0    1
 -2      2815      2909      1522      2752      3843      7731      7864      3845      3844      7508
 -1      4700    6    0    1
 -2      1616      1459      1522      2752      2550      2552      2551      7733      7865      7508
 -1      4701    6    0    1
 -2      2843      1436      2972      1679      7811      8118      3563      7512      2342      7534
 -1      4702    6    0    1
 -2      2902      2943      1465      1650      3896      7224      7275      7761      7948      2596
 -1      4703    6    0    1
 -2      6928      5632      6929      6942      7280      7281      7000      8120      8119      7247
 -1      4704    6    0    1
 -2      1583      2726      2876      6931      8121      3610      7659      7734      8122      7304
 -1      4705    6    0    1
 -2      1116      2826      1097      1533      8124      8123      1196      8126      8125      8127
 -1      4706    6    0    1
 -2      2851      2935      2747      1454      3493      3805      3804      7536      7914      7481
 -1      4707    6    0    1
 -2      2937      2854      2715      1644      3461      3462      3457      8129      8128      8130
 -1      4708    6    0    1
 -2      6889      5086      6915      6940      7823      7824      7586      7421      8131      7590
 -1      4709    6    0    1
 -2      1101      2859      2996      1703      8132      3103      7990      7993      8133      7994
 -1      4710    6    0    1
 -2      1696      1106      2989      1571      8135      8134      7952      1846      8136      7953
 -1      4711    6    0    1
 -2      1099      2823      1100      1530      8138      8137      1205      8140      8139      8141
 -1      4712    6    0    1
 -2      2886      1512      1472      2765      8142      2633      7572      3927      7889      7574
 -1      4713    6    0    1
 -2      1423      2936      1560      1643      8143      7907      2185      2180      7909      2184
 -1      4714    6    0    1
 -2      2899      1493      2942      2786      7724      7837      3904      3353      8144      3995
 -1      4715    6    0    1
 -2      1105      2818      1120      1525      8146      8145      1241      8148      8147      8149
 -1      4716    6    0    1
 -2      2832      2914      2740      1621      3740      3741      3739      7905      7594      7497
 -1      4717    6    0    1
 -2      1663      2905      1612      1463      8150      7872      1753      2586      7891      2581
 -1      4718    6    0    1
 -2      1106      2989      2825      1696      8134      3142      8151      8135      7952      8001
 -1      4719    6    0    1
 -2      6901      5139      6907      6914      8153      8152      8097      7897      8154      7500
 -1      4720    6    0    1
 -2      5159      5110      6910      6933      5282      8155      7082      8087      8156      8086
 -1      4721    6    0    1
 -2      1458      2751      1578      1520      7704      8157      2539      2538      8158      1959
 -1      4722    6    0    1
 -2      2871      1702      4713      2995      8161      8159      8160      3249      7894      8162
 -1      4723    6    0    1
 -2      6906      5087      6913      6923      7903      8163      7965      7428      7904      7968
 -1      4724    6    0    1
 -2      1475      1698      2884      1591      2646      7213      7205      2644      1739      8164
 -1      4725    6    0    1
 -2      6908      5598      5556      6914      8165      5842      6976      7502      8166      7501
 -1      4726    6    0    1
 -2      1102      1117      2821      1528      1214      8167      8168      8170      8169      8171
 -1      4727    6    0    1
 -2      1103      2860      2994      1701      8172      3112      8013      8016      8173      8017
 -1      4728    6    0    1
 -2      2762      2959      1666      1419      3405      7975      8174      8176      8175      2112
 -1      4729    6    0    1
 -2      1552      3001      1081      1708      7803      8101      8177      1774      7785      8103
 -1      4730    6    0    1
 -2      2875      1472      1689      2982      8179      2635      8178      3294      7879      7880
 -1      4731    6    0    1
 -2      1104      1118      2820      1527      1223      8180      8181      8183      8182      8184
 -1      4732    6    0    1
 -2      1079      2861      2993      1700      8185      3121      8018      8019      8186      8020
 -1      4733    6    0    1
 -2      6899      5608      6904      6945      7443      8187      7637      7465      7463      8041
 -1      4734    6    0    1
 -2      1435      2872      1579      1508      8188      8023      2333      2336      8189      2337
 -1      4735    6    0    1
 -2      1698      2885      1086      1592      7127      7402      7403      1742      7564      8190
 -1      4736    6    0    1
 -2      6891      5176      5082      6921      7469      5414      7791      7768      8191      8192
 -1      4737    6    0    1
 -2      2998      2852      1705      1096      3085      7820      7795      8108      8193      8107
 -1      4738    6    0    1
 -2      2944      2795      1502       299      3170      8194      7805      7806      8195      1895
 -1      4739    6    0    1
 -2       434      2795      2944       299      3188      3170      3183      7095      8195      7806
 -1      4740    6    0    1
 -2        13      5582      4051      6902      8197      8196      4081      7956      8198      8078
 -1      4741    6    0    1
 -2      1613      2906      2880      1460      7720      3583      7871      2561      7839      7313
 -1      4742    6    0    1
 -2      2929      2712      2772      1479      3411      3409      3410      7635      7634      8199
 -1      4743    6    0    1
 -2      2717      1486      2935      1642      8201      8200      3489      8073      2195      7916
 -1      4744    6    0    1
 -2      1453      2934      2746      1566      7560      3797      7251      2498      7770      7901
 -1      4745    6    0    1
 -2       835      5585      6892      6906      7653      7654      7121      8203      8202      7424
 -1      4746    6    0    1
 -2      1564      2997      1098      1704      7826      8093      8204      1801      7798      8095
 -1      4747    6    0    1
 -2      6902      5607      5618      6919      7955      5959      7678      7679      7698      7671
 -1      4748    6    0    1
 -2      2813      1699      2774      2992      8206      8205      3957      3255      8207      3958
 -1      4749    6    0    1
 -2      2875      2765      1472      2982      3930      7574      8179      3294      3928      7879
 -1      4750    6    0    1
 -2      6901      5607      5619      6919      8209      5715      8208      7898      7698      8210
 -1      4751    6    0    1
 -2       451      2799       452      1034      3215      3214       458      6957      7174      7142
 -1      4752    6    0    1
 -2      1033      1506       317       316      6950      1922      6949      7332      1921       323
 -1      4753    6    0    1
 -2      5107       834      6892      6906      8211      7942      7774      7775      8212      7424
 -1      4754    6    0    1
 -2      2882      2795       434       299      3187      3188      3186      8034      8195      7095
 -1      4755    6    0    1
 -2      2882      1502      2795       299      8032      8194      3187      8034      1895      8195
 -1      4756    6    0    1
 -2      4024      5603      4048      6898      8214      8213      4176      8215      7356      8216
 -1      4757    6    0    1
 -2      4024      4048      5125      6898      4176      8217      8218      8215      8216      7354
 -1      4758    6    0    1
 -2      1425      2961      1668      1557      7981      7958      2215      2213      8047      2214
 -1      4759    6    0    1
 -2      1583      1417      1608      2710      2087      2093      2095      8075      7629      8076
 -1      4760    6    0    1
 -2      1474      2970      1437      1677      8219      7938      2351      2352      7449      2353
 -1      4761    6    0    1
 -2      1445      2738      2910      1532      7419      3723      7495      2428      7931      7957
 -1      4762    6    0    1
 -2      4745      2899      1493      1606      7858      7724      8220      7859      7378      2060
 -1      4763    6    0    1
 -2      2764      1438      1676      2969      8222      2364      8221      3656      7933      7447
 -1      4764    6    0    1
 -2        13      5607      5582      6902      7835      5712      8197      7956      7955      8198
 -1      4765    6    0    1
 -2      1655      1458      1562      2855      2544      2542      2138      7974      7660      7466
 -1      4766    6    0    1
 -2      2781      1625      1530      1488      7105      2500      8223      7368      2218      2685
 -1      4767    6    0    1
 -2      1520      2751      1614      1458      8158      7622      2541      2538      7704      2540
 -1      4768    6    0    1
 -2      2748      2936      1560      2853      3813      7907      7687      3812      3477      7739
 -1      4769    6    0    1
 -2      2904      2729      2841      1548      3638      3641      3578      7833      7883      7307
 -1      4770    6    0    1
 -2      1493      1650      2902      1609      2703      7761      8224      2063      2603      7762
 -1      4771    6    0    1
 -2      5572      5658      5608      6945      5986      5856      5984      7646      8225      7463
 -1      4772    6    0    1
 -2      5132      6381      6915      6940      8228      8226      8227      8230      8229      7590
 -1      4773    6    0    1
 -2      1540      2833      1604      1422      7757      7737      2165      2166      8231      2156
 -1      4774    6    0    1
 -2      1114      2846      1093      1553      8233      8232      1160      8235      8234      8236
 -1      4775    6    0    1
 -2      1423      1485      2936      1643      2178      8237      8143      2180      2179      7909
 -1      4776    6    0    1
 -2      2818      2922      1457      1629      3825      7921      8040      8238      7922      2533
 -1      4777    6    0    1
 -2      2854      1644      2937      6893      8128      8129      3461      7613      8239      8240
 -1      4778    6    0    1
 -2      2736      1600      1443      1541      7674      2411      8241      7676      2181      2415
 -1      4779    6    0    1
 -2      5151      4016      6911      6925      8243      8242      7741      7743      8244      7745
 -1      4780    6    0    1
 -2      2715      1483      2937      1644      8246      8245      3457      8130      2163      8129
 -1      4781    6    0    1
 -2      2932      2781      2857      1488      3513      3980      3790      7090      7368      7595
 -1      4782    6    0    1
 -2      4728      1522      1635      2928      8248      1950      8247      8249      7511      7510
 -1      4783    6    0    1
 -2      2784      2845      2925      1491      3989      3745      3555      7349      7604      7091
 -1      4784    6    0    1
 -2      1699      2866      2774      2992      8250      3959      8205      8207      3258      3958
 -1      4785    6    0    1
 -2      6375      6361      6896      6928      6475      7881      7099      7103      7882      7102
 -1      4786    6    0    1
 -2      6885      6889      6908      6935      8252      6978      8251      8254      8253      8112
 -1      4787    6    0    1
 -2      1540      1629      2922      1422      2167      7922      7923      2166      2160      8255
 -1      4788    6    0    1
 -2      1425      2718      1626      1543      8256      7444      2203      2210      7445      2211
 -1      4789    6    0    1
 -2      2784      2915      2830      1491      3552      3769      3987      7349      7109      8257
 -1      4790    6    0    1
 -2      2735      1442      1560      1542      8258      2404      7919      7920      2406      2405
 -1      4791    6    0    1
 -2      2828      2916      1490      2783      3777      7116      8259      3984      3538      7359
 -1      4792    6    0    1
 -2      1637      1490      2783      1556      2248      7359      7097      2481      2693      7620
 -1      4793    6    0    1
 -2      2842      2742      2880      1549      3766      3765      3764      7330      8260      7369
 -1      4794    6    0    1
 -2      2833      1604      2739      1446      7737      7736      3735      7890      2438      8065
 -1      4795    6    0    1
 -2      1441      2886      1512      1593      7504      8142      2391      2393      7657      2394
 -1      4796    6    0    1
 -2      2934      2850      2718      1425      3505      3506      3500      7414      7769      8256
 -1      4797    6    0    1
 -2      2782      2852      2931      1489      3983      3782      3527      7371      7621      7104
 -1      4798    6    0    1
 -2      1628      2921      1541      1423      8262      8261      2183      2176      8263      2182
 -1      4799    6    0    1
 -2      2917      2826      2782      1489      3785      3981      3524      7120      8264      7371
 -1      4800    6    0    1
 -2      2839      2721      2894      1546      3545      3544      3543      7346      7347      8265
 -1      4801    6    0    1
 -2      1508      2986      1479      1693      8266      7984      2658      1867      7985      2659
 -1      4802    6    0    1
 -2      1579      2800      2872      1435      8267      3412      8023      2333      8268      8188
 -1      4803    6    0    1
 -2      1584      2899      1466      2877      7771      7170      2609      7982      3350      7341
 -1      4804    6    0    1
 -2      2981      2974      1448      2741      3754      8269      7033      3753      3751      7539
 -1      4805    6    0    1
 -2      2804      1686      1471      2979      8271      2632      8270      3309      8272      8273
 -1      4806    6    0    1
 -2      1454      1558      2851      1642      2511      7602      7536      2512      2200      7915
 -1      4807    6    0    1
 -2      2836      1441      2734      2851      7505      7855      3690      3688      7722      3689
 -1      4808    6    0    1
 -2      2835      2920      2717      1627      3492      3486      3491      7813      7812      8274
 -1      4809    6    0    1
 -2      1463      1663      2956      1662      2586      8275      7912      2585      2587      7911
 -1      4810    6    0    1
 -2      2955      1662      2756      2956      8276      7910      3878      3880      7911      3879
 -1      4811    6    0    1
 -2      5613      5572      5652      6917      5987      5985      5989      7517      7515      7220
 -1      4812    6    0    1
 -2      1455      1527      2920      1627      2515      8277      7814      2517      2516      7812
 -1      4813    6    0    1
 -2      5137      4035      5146      6933      8278      7485      5276      7829      7486      7231
 -1      4814    6    0    1
 -2      1459      1503      2959      1666      2547      8279      7976      2549      2548      7975
 -1      4815    6    0    1
 -2      5100      5178      6898      6938      5541      8280      8281      8283      8282      7340
 -1      4816    6    0    1
 -2      1646      1475      2884      1591      2645      7205      7278      2570      2644      8164
 -1      4817    6    0    1
 -2      1616      1459      2831      1538      2550      7830      7978      2133      2554      7776
 -1      4818    6    0    1
 -2      2714      1421      2829      2910      8284      7540      3443      3437      7581      3444
 -1      4819    6    0    1
 -2      1546      2721      2894      1428      7347      3544      8265      2252      7301      8285
 -1      4820    6    0    1
 -2      2907      1421      2829      2714      7543      7540      3442      3434      8284      3443
 -1      4821    6    0    1
 -2      1655      2751      1458      2855      7972      7704      2544      7974      3835      7660
 -1      4822    6    0    1
 -2      1578      2751      1655      2948      8157      7972      2545      8286      3837      7973
 -1      4823    6    0    1
 -2      6913      5098      5168      6946      8288      5531      8287      8290      8289      8291
 -1      4824    6    0    1
 -2      2735      1597      1442      1542      7662      2402      8258      7920      2197      2406
 -1      4825    6    0    1
 -2      1034       317      6715      1033      6947      7566      6731      1036      6949      6730
 -1      4826    6    0    1
 -2      2838      1427      2892      1545      7384      8292      3529      7385      2238      8293
 -1      4827    6    0    1
 -2      4711      1669      1659      2952      7997      1942      8294      7999      8000      7503
 -1      4828    6    0    1
 -2      2720      1427      2892      2838      7306      8292      3530      3531      7384      3529
 -1      4829    6    0    1
 -2      2941      1634      2927      1432      7198      7748      3599      7257      2307      7888
 -1      4830    6    0    1
 -2      6912      5143      5077      6915      8295      5343      7491      7869      7825      7868
 -1      4831    6    0    1
 -2      1460      2906      2753      1576      7839      3855      7294      2558      8296      7913
 -1      4832    6    0    1
 -2      2813      4721      1699      2992      8298      8297      8206      3255      8299      8207
 -1      4833    6    0    1
 -2      1563      1421      2714      1645      2153      8284      7576      2152      2147      7577
 -1      4834    6    0    1
 -2      2850      1544      2733      1440      7382      7507      3680      7934      2388      7941
 -1      4835    6    0    1
 -2      2981      1448      2974      1681      7033      8269      3754      7305      2458      8300
 -1      4836    6    0    1
 -2      1676      1427      2892      2969      2243      8292      8301      7447      7446      3537
 -1      4837    6    0    1
 -2      6889      5556      5594      6943      6974      5837      7809      7372      8302      8303
 -1      4838    6    0    1
 -2      2820      2920      2748      1455      3809      3810      3808      7971      7814      7690
 -1      4839    6    0    1
 -2      2856      2739      1656      1446      3734      7863      7639      7840      8065      2443
 -1      4840    6    0    1
 -2      1685      2978      1092      1553      7545      7799      7801      1759      7728      8304
 -1      4841    6    0    1
 -2      1629      1483      2922      1422      2161      8305      7922      2160      2162      8255
 -1      4842    6    0    1
 -2      5556      6885      6889      6908      8306      8252      6974      6976      8251      6978
 -1      4843    6    0    1
 -2      5164      5082      5105      6892      5404      5406      5405      7425      7792      7950
 -1      4844    6    0    1
 -2      2970      1677      2894      1428      7449      8307      3551      7451      2257      8285
 -1      4845    6    0    1
 -2      2934      2718      1487      1425      3500      7550      7480      7414      8256      2205
 -1      4846    6    0    1
 -2      2934      1487      2718      2780      7480      7550      3500      3499      8308      3498
 -1      4847    6    0    1
 -2      2871      2777      1702      2995      3968      7893      8161      3249      3967      7894
 -1      4848    6    0    1
 -2       298       299      2944      1651       307      7806      8309      1891      1890      7807
 -1      4849    6    0    1
 -2      5616      5579      5655      6897      6023      6022      5733      7048      7570      7253
 -1      4850    6    0    1
 -2      5138      5177      5101      6897      5255      5544      5545      7047      7092      7255
 -1      4851    6    0    1
 -2      1627      1424      2835      1542      2192      7706      7813      2199      2198      7700
 -1      4852    6    0    1
 -2      1421      1481      2774      1614      2139      8310      7606      2141      2140      7607
 -1      4853    6    0    1
 -2      2834      2921      2716      1541      3476      3470      3475      7456      8261      8079
 -1      4854    6    0    1
 -2      1549      1449      2880      1587      2473      8311      7369      2472      2471      7417
 -1      4855    6    0    1
 -2      1436      1679      1477      2972      2342      2341      2340      8118      7534      8312
 -1      4856    6    0    1
 -2      1642      1567      2935      1454      2513      8313      7916      2512      2506      7914
 -1      4857    6    0    1
 -2      1569      1461      2884      1591      2568      7647      8314      1736      2567      8164
 -1      4858    6    0    1
 -2      1644      2854      1422      1561      8128      8315      2164      2168      7711      2169
 -1      4859    6    0    1
 -2      1646      2884      2939      1461      7278      3863      7715      2566      7647      7358
 -1      4860    6    0    1
 -2      2867      1574      2760      6931      7759      7241      3908      8316      7538      7303
 -1      4861    6    0    1
 -2      2972      1679      1603      2722      7534      2272      8317      3564      7513      8080
 -1      4862    6    0    1
 -2      2739      1656      2866      2949      7863      8318      3730      3736      7641      3737
 -1      4863    6    0    1
 -2      2714      1656      1421      1563      7640      2142      8284      7576      2154      2153
 -1      4864    6    0    1
 -2      1512      4737      1689      2982      8320      8319      1998      7878      8321      7880
 -1      4865    6    0    1
 -2      6898      5563      6894      6937      7179      7177      7181      7727      8067      8322
 -1      4866    6    0    1
 -2      6926      5634      5578      6938      8324      6018      8323      8325      7918      7338
 -1      4867    6    0    1
 -2      2978      2905      2788      1495      3049      3872      4001      7548      7547      8036
 -1      4868    6    0    1
 -2      4751      1687      1509      2980      8327      2007      8326      8329      8328      8330
 -1      4869    6    0    1
 -2      3001      2784      2830      1491      3988      3987      3070      7784      7349      8257
 -1      4870    6    0    1
 -2      4729      1520      4730      2813      8332      8331      4785      8334      8333      8335
 -1      4871    6    0    1
 -2      2783      1490      2828      3000      7359      8259      3984      3985      7788      3079
 -1      4872    6    0    1
 -2      1423      2921      1485      1628      8263      8336      2178      2176      8262      2177
 -1      4873    6    0    1
 -2      1607      1465      2902      2900      2600      7275      8035      7899      7237      3359
 -1      4874    6    0    1
 -2      2818      1457      2922      2750      8040      7921      3825      3824      7751      3826
 -1      4875    6    0    1
 -2      2782      2826      1705      1489      3981      7793      7794      7371      8264      2689
 -1      4876    6    0    1
 -2      1530      2997      2781      1488      7796      3979      8223      2685      7797      7368
 -1      4877    6    0    1
 -2      3001      2845      2784      1491      3067      3989      3988      7784      7604      7349
 -1      4878    6    0    1
 -2      1443      2854      1660      2953      8338      8337      2416      8339      3463      8340
 -1      4879    6    0    1
 -2      2926      2827      2738      1633      3724      3720      3725      7937      8341      7936
 -1      4880    6    0    1
 -2      2717      2920      1486      1627      3486      8342      8201      8274      7812      2193
 -1      4881    6    0    1
 -2      1503      2959      1666      2762      8279      7975      2548      8343      3405      8174
 -1      4882    6    0    1
 -2      1685      1092      2905      1612      7801      7800      7546      1756      8344      7872
 -1      4883    6    0    1
 -2      2710      2901      1608      2876      3387      7758      8076      3380      3388      7658
 -1      4884    6    0    1
 -2      1503      1635      1459      2796      1946      2546      2547      8345      7818      8346
 -1      4885    6    0    1
 -2      1556      3000      1490      2783      7817      7788      2693      7620      3985      7359
 -1      4886    6    0    1
 -2      2861      2748      2936      1643      3807      3813      3814      8347      7908      7909
 -1      4887    6    0    1
 -2      6921      5623      5654      6941      8349      6008      8348      8351      8350      8352
 -1      4888    6    0    1
 -2      2936      1560      2853      1423      7907      7739      3477      8143      2185      8353
 -1      4889    6    0    1
 -2      5650      6898      6904      6945      7334      7584      7582      7133      7335      8041
 -1      4890    6    0    1
 -2      2851      1558      2717      1642      7602      8354      3494      7915      2200      8073
 -1      4891    6    0    1
 -2      2742      2787      1605      2898      3757      8355      8356      3756      3755      8357
 -1      4892    6    0    1
 -2      2907      2774      1421      2714      3432      7606      7543      3434      3433      8284
 -1      4893    6    0    1
 -2      1573      1446      2739      1519      2437      8065      8358      1968      2436      7853
 -1      4894    6    0    1
 -2      1540      2922      2833      1422      7923      3460      7757      2166      8255      8231
 -1      4895    6    0    1
 -2      5609      5575      5653      6891      6003      6002      5869      7453      8359      6961
 -1      4896    6    0    1
 -2      2782      1705      2852      1489      7794      7820      3983      7371      2689      7621
 -1      4897    6    0    1
 -2      2780      2919      1487      2718      3496      7549      8308      3498      3497      7550
 -1      4898    6    0    1
 -2      1626      1487      2718      1425      2204      7550      7444      2203      2205      8256
 -1      4899    6    0    1
 -2      2938      2750      1457      2864      3829      7751      7730      3830      3823      8039
 -1      4900    6    0    1
 -2      6899      5094      5174      6917      7439      5507      8360      7054      7535      8361
 -1      4901    6    0    1
 -2      2942      1493      1650      2786      7837      2703      8074      3995      8144      8362
 -1      4902    6    0    1
 -2      6732       451       316      6930      8364      7331      8363      8366      8365      8367
 -1      4903    6    0    1
 -2      2767      2977      1513      1684      3936      8368      8369      8371      8370      2025
 -1      4904    6    0    1
 -2      1445      2738      2827      1633      7419      3720      7929      2431      7936      8341
 -1      4905    6    0    1
 -2      2857      2781      2997      1488      3980      3979      3094      7595      7368      7797
 -1      4906    6    0    1
 -2      1663      2956      2905      1463      8275      3046      8150      2586      7912      7891
 -1      4907    6    0    1
 -2      1692      1518      4714      2985      1980      8372      8373      8375      8374      8376
 -1      4908    6    0    1
 -2      2980      4751      1687      2878      8329      8327      8328      3303      8377      8378
 -1      4909    6    0    1
 -2      1446      1604      2739      1519      2438      7736      8065      2436      2439      7853
 -1      4910    6    0    1
 -2      1492      2906      1613      1576      7345      7720      2701      2700      8296      2562
 -1      4911    6    0    1
 -2      4732      1519      2988      1695      8381      8379      8380      8382      1971      8383
 -1      4912    6    0    1
 -2      2840      1603      1437      1547      8031      2355      7781      7312      2265      2359
 -1      4913    6    0    1
 -2      1443      1660      2854      1561      2416      8337      8338      2413      2170      7711
 -1      4914    6    0    1
 -2      1565      1666      2858      1419      2122      7924      7600      2121      2112      7838
 -1      4915    6    0    1
 -2      2961      1593      2718      1425      7831      7852      3508      7981      2208      8256
 -1      4916    6    0    1
 -2      5023       834      5022      6906      5042      5031      5043      8384      8212      8385
 -1      4917    6    0    1
 -2      1572      1499      2865      1433      1905      7849      7851      2309      2310      7875
 -1      4918    6    0    1
 -2      5170      5132      6377      6915      5332      8386      7158      7156      8227      7157
 -1      4919    6    0    1
 -2      1111      2824      2986      1693      8388      3157      8387      8389      7986      7985
 -1      4920    6    0    1
 -2      2732      2892      1545      2838      3671      8293      7995      3674      3529      7385
 -1      4921    6    0    1
 -2      1656      2774      1421      1481      7721      7606      2142      2143      8310      2139
 -1      4922    6    0    1
 -2      1579      2772      2712      1479      8025      3409      8024      2115      8199      7634
 -1      4923    6    0    1
 -2      1630      2887      2923      6934      7558      3389      7926      7559      7050      7592
 -1      4924    6    0    1
 -2      1493      2902      1650      2786      8224      7761      2703      8144      3356      8362
 -1      4925    6    0    1
 -2      6904      5634      6926      6938      7772      8324      7754      7763      7918      8325
 -1      4926    6    0    1
 -2      2911      2737      2822      1618      3714      3712      3713      8391      8390      8392
 -1      4927    6    0    1
 -2      1541      2921      1628      6893      8261      8262      2183      7461      8393      8394
 -1      4928    6    0    1
 -2      2714      1421      2775      1645      8284      8395      3438      7577      2147      7682
 -1      4929    6    0    1
 -2      1482      2775      1421      1645      8396      8395      2144      2148      7682      2147
 -1      4930    6    0    1
 -2      2924      2846      2788      1495      3853      4000      3590      7250      7475      8036
 -1      4931    6    0    1
 -2      1495      2905      2788      1463      7547      3872      8036      2579      7891      7693
 -1      4932    6    0    1
 -2      2752      1459      1635      2796      7865      2546      7509      3840      8346      7818
 -1      4933    6    0    1
 -2      4710      4733      1518      2811      4803      8397      8398      8400      8399      8401
 -1      4934    6    0    1
 -2      2752      1459      2959      2858      7865      7976      3842      3846      7683      3415
 -1      4935    6    0    1
 -2      2715      2953      1660      2854      3452      8340      8402      3462      3463      8337
 -1      4936    6    0    1
 -2      2894      1438      2839      1546      8403      7780      3543      8265      2370      7346
 -1      4937    6    0    1
 -2      6909      5152      5080      6914      7360      5385      7944      7364      7362      7946
 -1      4938    6    0    1
 -2      2798      2710      1583      2876      3379      8075      8404      3378      3380      7659
 -1      4939    6    0    1
 -2      4664      2797      2954      6931      8406      3371      8405      8408      8407      8409
 -1      4940    6    0    1
 -2      1487      1566      2934      1641      2684      7770      7480      2206      2505      7416
 -1      4941    6    0    1
 -2      1644      2854      1561      6893      8128      7711      2168      8239      7613      7610
 -1      4942    6    0    1
 -2      1465      1657      1524      2950      2599      2105      2598      7236      7685      8410
 -1      4943    6    0    1
 -2      1425      1593      2718      1543      2208      7852      8256      2210      2209      7445
 -1      4944    6    0    1
 -2      6889      5114      6912      6915      7175      7292      7030      7586      8411      7869
 -1      4945    6    0    1
 -2      2813      2774      1614      2907      3957      7607      7804      3833      3432      7542
 -1      4946    6    0    1
 -2      1618      2737      1529      1444      8390      7959      2420      2421      7630      2419
 -1      4947    6    0    1
 -2      5643      5572      5613      6896      5988      5987      5799      7648      7440      7514
 -1      4948    6    0    1
 -2      2858      1666      2959      1419      7924      7975      3415      7838      2112      8175
 -1      4949    6    0    1
 -2      6715       318       317      6927      7616       324      7566      7568      7619      7567
 -1      4950    6    0    1
 -2      5614      5565      6913      6923      5937      7966      8412      8413      7967      7968
 -1      4951    6    0    1
 -2      5084      5124      6900      6916      5431      7210      7026      7189      7211      6994
 -1      4952    6    0    1
 -2      1518      1600      1443      2736      2412      2411      2409      8414      7674      8241
 -1      4953    6    0    1
 -2       297      1357       432      1359      7413      7412      7060      7014      1372      7008
 -1      4954    6    0    1
 -2      5577      5602      6900      6922      5907      7232      8415      8416      7827      7002
 -1      4955    6    0    1
 -2       453      6715       452      6927      7624      7565       459      7626      7568      7569
 -1      4956    6    0    1
 -2      1656      1421      2774      2714      2142      7606      7721      7640      8284      3433
 -1      4957    6    0    1
 -2       302      2865      1499      2792      7850      7849      1904      8417      3197      8418
 -1      4958    6    0    1
 -2      5654      6891      6921      6941      8419      7768      8348      8352      7861      8351
 -1      4959    6    0    1
 -2      1422      2854      1660      1561      8315      8337      2159      2169      7711      2170
 -1      4960    6    0    1
 -2      2762      1669      2962      2952      8420      7996      3916      3919      8000      3235
 -1      4961    6    0    1
 -2      2726      2798      1583      2876      3606      8404      8121      3610      3378      7659
 -1      4962    6    0    1
 -2      1616      2831      1459      2752      7978      7830      2550      7733      3847      7865
 -1      4963    6    0    1
 -2      2714      2775      1421      2910      3438      8395      8284      3437      3439      7581
 -1      4964    6    0    1
 -2      2910      2775      1421      1482      3439      8395      7581      7723      8396      2144
 -1      4965    6    0    1
 -2      1444      2737      1538      6903      7630      7664      2424      8422      8421      8423
 -1      4966    6    0    1
 -2      6899      5588      6910      6933      8081      8424      7051      7046      8082      8086
 -1      4967    6    0    1
 -2      4722      4731      1519      2812      4794      8425      8426      8428      8427      8429
 -1      4968    6    0    1
 -2      2733      1440      1595      2802      7941      2384      7561      3675      8430      7877
 -1      4969    6    0    1
 -2      4725      1686      2804      2979      8432      8271      8431      8433      8272      3309
 -1      4970    6    0    1
 -2      5178      4045      6898      6938      8435      8434      8280      8282      8436      7340
 -1      4971    6    0    1
 -2      5559      5639      5588      6899      5876      5875      5872      7053      7041      8081
 -1      4972    6    0    1
 -2      2747      2935      2860      1454      3805      3806      3799      7481      7914      7962
 -1      4973    6    0    1
 -2      5567      5607      5619      6901      5960      5715      5956      7896      8209      8208
 -1      4974    6    0    1
 -2      2808      1597      1442      2735      7810      2402      8437      3693      7662      8258
 -1      4975    6    0    1
 -2      2921      1541      2834      6893      8261      7456      3476      8393      7461      7459
 -1      4976    6    0    1
 -2       906      6370      5613      6917      6394      7597      8438      8439      7598      7517
 -1      4977    6    0    1
 -2      2710      1417      1608      2803      7629      2093      8076      3384      7628      8440
 -1      4978    6    0    1
 -2      2981      1507      2800      2762      7323      8441      3917      3918      8442      3402
 -1      4979    6    0    1
 -2      1487      1528      2996      1703      2682      7991      8443      2683      1813      7994
 -1      4980    6    0    1
 -2      1455      2748      1568      1643      7690      7969      2514      2520      7908      2521
 -1      4981    6    0    1
 -2      4734      1515      4735      2808      8445      8444      4812      8447      8446      8448
 -1      4982    6    0    1
 -2      6895      5584      5638      6917      8449      5903      7632      7633      8450      7468
 -1      4983    6    0    1
 -2      1433      1661      1499      2954      2311      2082      2310      7842      7843      8451
 -1      4984    6    0    1
 -2      2868      1518      1443      2736      8453      2409      8452      3703      8414      8241
 -1      4985    6    0    1
 -2      2923      1417      2710      2887      8454      7629      3382      3389      7291      3385
 -1      4986    6    0    1
 -2      1423      1560      2957      1664      2185      8455      8456      2175      2186      8457
 -1      4987    6    0    1
 -2       302      2865       301      1572      7850      7873       310      1899      7851      1900
 -1      4988    6    0    1
 -2      2765      1472      2961      2875      7574      7573      3929      3930      8179      3683
 -1      4989    6    0    1
 -2      2971      2842      1432      1549      3597      7249      8458      8459      7330      2302
 -1      4990    6    0    1
 -2      1578      1655      2751      1458      2545      7972      8157      2539      2544      7704
 -1      4991    6    0    1
 -2      1583      2798      1417      2710      8404      8460      2087      8075      3379      7629
 -1      4992    6    0    1
 -2      1508      1579      2772      2872      2337      8025      8461      8189      8023      3407
 -1      4993    6    0    1
 -2      1508      1111      2986      1693      8462      8387      8266      1867      8389      7985
 -1      4994    6    0    1
 -2      1560      1442      2957      1664      2404      8463      8455      2186      2407      8457
 -1      4995    6    0    1
 -2      2853      1560      2957      1423      7739      8455      3479      8353      2185      8456
 -1      4996    6    0    1
 -2      1593      1512      1472      2886      2394      2633      2634      7657      8142      7572
 -1      4997    6    0    1
 -2      2821      1487      2919      1626      8464      7549      3801      7708      2204      7271
 -1      4998    6    0    1
 -2      5599      4053      5603      4048      8057      8465      5742      8058      4095      8213
 -1      4999    6    0    1
 -2      4048      5121      4054      5125      8062      8061      4097      8217      5264      8466
 -1      5000    6    0    1
 -2      5558      5630      6909      6914      5864      7398      7563      7989      7399      7364
 -1      5001    6    0    1
 -2      2943      2942      1650      2786      3577      8074      7948      3996      3995      8362
 -1      5002    6    0    1
 -2      6902      5080      6909      6939      7945      7944      6964      7928      8467      7431
 -1      5003    6    0    1
 -2      1560      2957      2735      2853      8455      3700      7919      7739      3479      3698
 -1      5004    6    0    1
 -2      4725      1586      1686      2979      8468      2019      8432      8433      8469      8272
 -1      5005    6    0    1
 -2      4016      5629      6911      6925      8471      8470      8242      8244      8472      7745
 -1      5006    6    0    1
 -2      2850      2961      2718      1425      3507      3508      3506      7769      7981      8256
 -1      5007    6    0    1
 -2      2898      2787      1605      2973      3755      8355      8357      3339      3999      8473
 -1      5008    6    0    1
 -2      2937      1644      1570      6893      8129      2529      8474      8240      8239      8475
 -1      5009    6    0    1
 -2      2960      1558      1667      1424      8477      2202      8476      8478      2201      2191
 -1      5010    6    0    1
 -2      2886      2734      1441      2805      3687      7855      7504      3686      3684      8479
 -1      5011    6    0    1
 -2      2948      1484      2777      6903      8481      8480      3424      8483      8482      8484
 -1      5012    6    0    1
 -2      5555      5621      6912      6915      5820      8485      7489      8048      7787      7869
 -1      5013    6    0    1
 -2      2960      1558      2717      2851      8477      8354      3484      3495      7602      3494
 -1      5014    6    0    1
 -2      2929      2772      2824      1479      3410      3953      3715      7635      8199      7876
 -1      5015    6    0    1
 -2      2948      1655      1420      2855      7973      2132      8486      3431      7974      8487
 -1      5016    6    0    1
 -2       300       434       435      6916      8051       443      6991      6993      7096      6992
 -1      5017    6    0    1
 -2      4724      4736      1512      2805      4821      8488      8489      8491      8490      8492
 -1      5018    6    0    1
 -2      2921      1526      1628      6893      8493      2524      8262      8393      8494      8394
 -1      5019    6    0    1
 -2      1571      2938      2775      1645      8050      3441      8495      2537      7578      7682
 -1      5020    6    0    1
 -2      1658      1517      2810      6927      1931      7086      8496      8498      8497      8499
 -1      5021    6    0    1
 -2      6915      5086      5132      6940      7824      5451      8227      7590      8131      8230
 -1      5022    6    0    1
 -2      2859      1487      2996      1703      8500      8443      3103      8133      2683      7994
 -1      5023    6    0    1
 -2      2785      2914      2832      1621      3990      3740      3991      7343      7594      7905
 -1      5024    6    0    1
 -2      2943      1650      2902      2786      7948      7761      3896      3996      8362      3356
 -1      5025    6    0    1
 -2      1503      1669      2962      2762      1947      7996      8501      8343      8420      3916
 -1      5026    6    0    1
 -2      2953      1660      2771      2715      8340      8502      3451      3452      8402      3450
 -1      5027    6    0    1
 -2      2842      2971      2742      1549      3597      3763      3766      7330      8459      8260
 -1      5028    6    0    1
 -2      2736      1443      2953      2854      8241      8339      3709      3707      8338      3463
 -1      5029    6    0    1
 -2      5566      5595      6888      6905      5949      8503      6997      8505      8504      8506
 -1      5030    6    0    1
 -2      5108      6371      6928      6929      7314      7315      7101      7703      8507      7000
 -1      5031    6    0    1
 -2      1434      2965      1502      1672      8509      8508      2321      2322      8510      1879
 -1      5032    6    0    1
 -2      4738      4715      1509      2802      4830      8511      8512      8514      8513      8515
 -1      5033    6    0    1
 -2      4749      1684      1513      2977      8517      2025      8516      8518      8370      8368
 -1      5034    6    0    1
 -2      5575      5653      6891      6941      6002      6961      8359      8519      7860      7861
 -1      5035    6    0    1
 -2      2808      1442      2870      2735      8437      8520      3279      3693      8258      3694
 -1      5036    6    0    1
 -2      6888      5595      5596      6937      8503      5923      7130      7726      8521      7725
 -1      5037    6    0    1
 -2      2792      1499       302      2889      8418      1904      8417      3199      8522      8523
 -1      5038    6    0    1
 -2      6905      5571      6915      6942      8525      8524      7867      8527      8526      7161
 -1      5039    6    0    1
 -2      6898      5172      6904      6944      7701      8528      7584      7526      7702      7638
 -1      5040    6    0    1
 -2      2816      2942      1649      1430      3571      7483      7329      8530      8529      2278
 -1      5041    6    0    1
 -2      1459      2959      1503      2796      7976      8279      2547      8346      3841      8345
 -1      5042    6    0    1
 -2      1662      1523      2756      1463      2281      7608      7910      2585      2583      7609
 -1      5043    6    0    1
 -2      5592      6889      6912      6915      7932      7030      8531      8532      7586      7869
 -1      5044    6    0    1
 -2      6921      5642      5583      6923      7553      5882      8533      7557      7556      8534
 -1      5045    6    0    1
 -2       302       303       437      2889       311      7680      8535      8523      7681      3196
 -1      5046    6    0    1
 -2       302      1596       303      2889      1903      1902       311      8523      8536      7681
 -1      5047    6    0    1
 -2      1461      1646      2884      1591      2566      7278      7647      2567      2570      8164
 -1      5048    6    0    1
 -2      2944       433       299       298      3184      7072      7806      8309      6979       307
 -1      5049    6    0    1
 -2      6891      5097      5145      6939      7471      5527      7470      7432      8537      8538
 -1      5050    6    0    1
 -2      1460      1613      2906      1576      2561      7720      7839      2558      2562      8296
 -1      5051    6    0    1
 -2      2824      2772      2986      1479      3953      3952      3157      7876      8199      7984
 -1      5052    6    0    1
 -2      2741      1658      1517      2810      8539      1931      7138      3747      8496      7086
 -1      5053    6    0    1
 -2      1658      1517      1448      2741      1931      2454      2455      8539      7138      7539
 -1      5054    6    0    1
 -2      6901      5617      6907      6922      8099      8098      8097      8541      8540      8542
 -1      5055    6    0    1
 -2      2873      1691      4723      2984      8545      8543      8544      3285      8546      8547
 -1      5056    6    0    1
 -2      2712      2800      2872      1579      3404      3412      3408      8024      8267      8023
 -1      5057    6    0    1
 -2      5638      5584      5652      6917      5903      6031      5881      7468      8450      7220
 -1      5058    6    0    1
 -2      1679      1429      1603      2722      2271      2264      2272      7513      7295      8080
 -1      5059    6    0    1
 -2      6892      5661      5636      6936      8548      6001      7122      7126      8549      7125
 -1      5060    6    0    1
 -2      1517       831      2810      6927      6951      7087      7086      8497      8550      8499
 -1      5061    6    0    1
 -2      2846      2978      2788      1495      3052      4001      4000      7475      7548      8036
 -1      5062    6    0    1
 -2      4732      1575      1695      2988      8551      1974      8382      8380      8552      8383
 -1      5063    6    0    1
 -2      5643      5613      6360      6896      5799      7596      8553      7648      7514      7719
 -1      5064    6    0    1
 -2      2983      1449      1690      2880      8554      2466      7939      3586      8311      7940
 -1      5065    6    0    1
 -2      2949      2774      1656      2866      3435      7721      7641      3737      3959      8318
 -1      5066    6    0    1
 -2      5143      5114      6889      6915      5347      7175      7822      7825      8411      7586
 -1      5067    6    0    1
 -2      6750      6732       315      6930      8557      8555      8556      8558      8366      8559
 -1      5068    6    0    1
 -2      6750       450      6732      6930      8561      8560      8557      8558      8562      8366
 -1      5069    6    0    1
 -2      6732       451      1034      1033      8364      6957      6743      6744      6958      1036
 -1      5070    6    0    1
 -2       301      2865       436      2794      7873      3193      6985      8563      3194      3189
 -1      5071    6    0    1
 -2      2974      1681      2800      2981      8300      8564      3628      3754      7305      3917
 -1      5072    6    0    1
 -2      5629      5569      6911      6925      5970      8565      8470      8472      8566      7745
 -1      5073    6    0    1
 -2      5561      6895      6911      6932      8569      8567      8568      8571      8570      8572
 -1      5074    6    0    1
 -2      2880      1449      1690      1587      8311      2466      7940      7417      2471      2293
 -1      5075    6    0    1
 -2      4749      1588      1684      2977      8573      2028      8517      8518      8574      8370
 -1      5076    6    0    1
 -2      2752      2959      1459      2796      3842      7976      7865      3840      3841      8346
 -1      5077    6    0    1
 -2      2850      1440      2961      1557      7934      8575      3507      7614      2386      8047
 -1      5078    6    0    1
 -2      2971      1432      2842      2725      8458      7249      3597      3598      7642      3596
 -1      5079    6    0    1
 -2      2957      1664      1476      1423      8457      2174      8576      8456      2175      2173
 -1      5080    6    0    1
 -2      5153      4042      5111      6925      8578      8577      5300      8580      8579      8581
 -1      5081    6    0    1
 -2      4745      1493      2899      2786      8220      7724      7858      8582      8144      3353
 -1      5082    6    0    1
 -2      2968      2742      1605      2898      3761      8356      8583      3342      3756      8357
 -1      5083    6    0    1
 -2      2969      1427      2892      2720      7446      8292      3537      3536      7306      3530
 -1      5084    6    0    1
 -2      2710      1608      2901      2803      8076      7758      3387      3384      8440      3386
 -1      5085    6    0    1
 -2      6921      5105      6892      6923      8584      7950      7554      7557      7951      7427
 -1      5086    6    0    1
 -2      2737      2831      1538      6903      3718      7776      7664      8421      8585      8423
 -1      5087    6    0    1
 -2      2970      2894      2721      1428      3551      3544      3550      7451      8285      7301
 -1      5088    6    0    1
 -2      6912      5114      5143      6915      7292      5347      8295      7869      8411      7825
 -1      5089    6    0    1
 -2      2898      1605      4720      2973      8357      8586      8587      3339      8473      8588
 -1      5090    6    0    1
 -2       317      2951      1506       452      8590      8589      1922      7144      3218      7143
 -1      5091    6    0    1
 -2      5170      5093      6915      6942      5504      8591      7156      7159      8592      7161
 -1      5092    6    0    1
 -2       438      6901      6920      6922      8594      8593      7283      7287      8541      7286
 -1      5093    6    0    1
 -2      1659      1669      1469      2952      1942      2623      2626      7503      8000      7297
 -1      5094    6    0    1
 -2      1548      2904      1611      1431      7833      8595      2286      2287      7834      2285
 -1      5095    6    0    1
 -2      5610      6382      5581      6940      7407      8596      5813      7645      7644      8597
 -1      5096    6    0    1
 -2      5646      5576      6913      6946      6009      8598      8599      8601      8600      8290
 -1      5097    6    0    1
 -2      2762      1503      2959      2796      8343      8279      3405      3915      8345      3841
 -1      5098    6    0    1
 -2      1605      1494      1680      2973      2463      2706      2046      8473      8602      8603
 -1      5099    6    0    1
 -2      4740      1683      1514      2976      8605      2034      8604      8607      8606      8608
 -1      5100    6    0    1
 -2      5594      5556      5645      6943      5837      5840      5839      8303      8302      8609
 -1      5101    6    0    1
 -2       434       433       299      2944       442      7072      7095      3183      3184      7806
 -1      5102    6    0    1
 -2      1473      1597      2808      2890      2187      7810      8610      7755      7661      3695
 -1      5103    6    0    1
 -2      1677      1474      2970      2894      2352      8219      7449      8307      8611      3551
 -1      5104    6    0    1
 -2      4013      5614      6913      6923      8613      8412      8612      8614      8413      7968
 -1      5105    6    0    1
 -2      6912      5166      5084      6916      8615      5437      7029      7190      8616      7189
 -1      5106    6    0    1
 -2      5619      5607       439      6919      5715      7695      8617      8210      7698      7699
 -1      5107    6    0    1
 -2      2898      1605      2968      4742      8357      8583      3342      8619      8618      8620
 -1      5108    6    0    1
 -2      6901      5089      5139      6914      8621      5477      8153      7897      8622      8154
 -1      5109    6    0    1
 -2      1424      2960      1473      1667      8478      8623      2189      2191      8476      2190
 -1      5110    6    0    1
 -2      2803      1417      1608      1510      7628      2093      8440      7749      2090      2094
 -1      5111    6    0    1
 -2      1625      1453      2823      1530      2501      7393      7394      2500      2499      8139
 -1      5112    6    0    1
 -2      5100      5178      5125      6898      5541      5267      5441      8281      8280      7354
 -1      5113    6    0    1
 -2      5578      5603      5656      6898      5918      5745      6019      7336      7356      7337
 -1      5114    6    0    1
 -2      2974      1658      1448      2741      8624      2455      8269      3751      8539      7539
 -1      5115    6    0    1
 -2       302       437      2865      2792      8535      3192      7850      8417      3198      3197
 -1      5116    6    0    1
 -2      1482      2910      1532      1617      7723      7957      2667      2146      7496      2429
 -1      5117    6    0    1
 -2      1549      2971      1678      1432      8459      8625      2305      2302      8458      2304
 -1      5118    6    0    1
 -2      5080      5131      6909      6939      5384      7429      7944      8467      7430      7431
 -1      5119    6    0    1
 -2      1029      6700      6715       453      6713      7617      6726      8626      7625      7624
 -1      5120    6    0    1
 -2      6700       318      1028      6715      7615      8627      6714      7617      7616      6727
 -1      5121    6    0    1
 -2      5652      5572      5608      6899      5985      5984      5879      7219      7442      7443
 -1      5122    6    0    1
 -2      5174      5130      5094      6899      5402      5506      5507      8360      7387      7439
 -1      5123    6    0    1
 -2      1674      1595      1470      2967      2230      2628      2374      7521      7623      8115
 -1      5124    6    0    1
 -2      1446      2739      1656      1573      8065      7863      2443      2437      8358      2444
 -1      5125    6    0    1
 -2      1420      1655      1562      2855      2132      2138      2137      8487      7974      7466
 -1      5126    6    0    1
 -2      2811      2893      1476      1600      3704      7802      8628      7828      7673      2171
 -1      5127    6    0    1
 -2      1560      2957      1442      2735      8455      8463      2404      7919      3700      8258
 -1      5128    6    0    1
 -2      2909      1484      1616      6903      8629      2128      7732      8630      8482      8631
 -1      5129    6    0    1
 -2      2764      1676      2892      2969      8221      8301      3924      3656      7447      3537
 -1      5130    6    0    1
 -2      5610      5581      5564      6940      5813      5930      5929      7645      8597      7589
 -1      5131    6    0    1
 -2      1519      2771      1604      2897      8632      7870      2439      7854      3449      7738
 -1      5132    6    0    1
 -2      6377      5134      5170      6929      8633      5329      7158      7245      8634      7246
 -1      5133    6    0    1
 -2      5567      5607      6901      6919      5960      8209      7896      7670      7698      7898
 -1      5134    6    0    1
 -2      1441      1558      1667      2960      2395      2202      2398      8635      8477      8476
 -1      5135    6    0    1
 -2       437       303       302      6922      7680       311      8535      7729      7285      8636
 -1      5136    6    0    1
 -2      5149      5119      6039      6925      5317      8637      8638      8640      8639      8641
 -1      5137    6    0    1
 -2      2960      1441      1558      2851      8635      2395      8477      3495      7722      7602
 -1      5138    6    0    1
 -2      1681      1658      1448      2974      2457      2455      2458      8300      8624      8269
 -1      5139    6    0    1
 -2      1616      1522      1484      2909      2551      2673      2128      7732      7731      8629
 -1      5140    6    0    1
 -2      2971      1678      1449      1549      8625      2469      8642      8459      2305      2473
 -1      5141    6    0    1
 -2      2977      1588      1684      2767      8574      2028      8370      3936      8643      8371
 -1      5142    6    0    1
 -2       452      2951      1506      2799      3218      8589      7143      3214      3219      7173
 -1      5143    6    0    1
 -2      2961      1440      1668      1557      8575      2389      7958      8047      2386      2214
 -1      5144    6    0    1
 -2      4028      5115      5145      6921      8644      5225      7765      7767      8645      7766
 -1      5145    6    0    1
 -2      1461      1594      1569      6934      2563      2569      2568      7040      7038      8646
 -1      5146    6    0    1
 -2      2887      2754      2862      6934      3856      3861      3862      7050      7039      8647
 -1      5147    6    0    1
 -2      1636      2858      2712      1419      7376      3414      7585      2118      7838      8648
 -1      5148    6    0    1
 -2      2737      1618      2911      6903      8390      8391      3714      8421      8649      8650
 -1      5149    6    0    1
 -2      2840      2896      1603      2722      3557      8651      8031      3559      3558      8080
 -1      5150    6    0    1
 -2      1698      1086      2884      1591      7403      7552      7213      1739      8652      8164
 -1      5151    6    0    1
 -2      1692      2870      1476      2985      8654      8653      2650      8375      3276      8655
 -1      5152    6    0    1
 -2      1692      1476      1518      2985      2650      2649      1980      8375      8655      8374
 -1      5153    6    0    1
 -2      1471      1686      1586      2979      2632      2019      2361      8273      8272      8469
 -1      5154    6    0    1
 -2      1695      1478      1519      2988      2656      2655      1971      8383      8656      8379
 -1      5155    6    0    1
 -2      1537      2915      2830      1450      7474      3769      8072      2475      7208      7808
 -1      5156    6    0    1
 -2      2828      2916      2744      1535      3777      3778      3776      8092      7476      7816
 -1      5157    6    0    1
 -2      2745      2826      2917      1533      3784      3785      3786      7819      8125      7482
 -1      5158    6    0    1
 -2      5588      5639      5615      6933      5875      5980      5757      8082      7044      7058
 -1      5159    6    0    1
 -2      6894      5640      6905      6937      7145      7146      6969      8322      8657      8658
 -1      5160    6    0    1
 -2      2942      1650      1649      1430      8074      2284      7483      8529      2283      2278
 -1      5161    6    0    1
 -2      2979      1471      2804      2764      8273      8270      3309      3925      8659      3923
 -1      5162    6    0    1
 -2      1598      1089      2891      1592      8662      8660      8661      1745      8663      8664
 -1      5163    6    0    1
 -2      6913      5168      5015      6946      8287      8665      8666      8290      8291      8667
 -1      5164    6    0    1
 -2      5120      6907      6914      6935      8669      7500      8668      8671      8670      8113
 -1      5165    6    0    1
 -2      1618      2737      1444      6903      8390      7630      2421      8649      8421      8422
 -1      5166    6    0    1
 -2      1495      1631      2846      1553      2298      7462      7475      2707      2560      8234
 -1      5167    6    0    1
 -2      1474      2730      2970      2767      8672      3646      8219      8673      3644      3645
 -1      5168    6    0    1
 -2      1508      1479      2986      2772      2658      7984      8266      8461      8199      3952
 -1      5169    6    0    1
 -2      2762      1507      2800      2712      8442      8441      3402      3403      8674      3404
 -1      5170    6    0    1
 -2      1579      1507      2800      1435      2119      8441      8267      2333      2334      8268
 -1      5171    6    0    1
 -2      5617      5567      6901      6914      5955      7896      8099      8100      7668      7897
 -1      5172    6    0    1
 -2      1605      1680      4720      2973      2046      8675      8586      8473      8603      8588
 -1      5173    6    0    1
 -2      1681      1506      1658      2974      2332      1926      2457      8300      8676      8624
 -1      5174    6    0    1
 -2      6888      5635      5566      6928      8677      5948      6997      6995      8678      6996
 -1      5175    6    0    1
 -2      4661      1499      4665      2792      8680      8679      4690      8681      8418      8682
 -1      5176    6    0    1
 -2      1515      1691      1473      2984      1989      2639      2638      8683      8546      8684
 -1      5177    6    0    1
 -2      2734      1580      1441      2805      8685      2392      7855      3684      8686      8479
 -1      5178    6    0    1
 -2      1419      2712      1636      1479      8648      7585      2118      2116      7634      2117
 -1      5179    6    0    1
 -2      5093      6905      6915      6929      8687      7867      8591      8689      8688      8690
 -1      5180    6    0    1
 -2      5107      5164      5087      6906      5409      5461      5462      7775      7423      7903
 -1      5181    6    0    1
 -2      2888      1595      2967      2763      7298      7623      3523      3921      8691      3667
 -1      5182    6    0    1
 -2      2792       302       437      2889      8417      8535      3198      3199      8523      3196
 -1      5183    6    0    1
 -2       302      1499      1596      2889      1904      1906      1903      8523      8522      8536
 -1      5184    6    0    1
 -2      5082      5183      5131      6891      5411      5417      5416      7791      7162      7391
 -1      5185    6    0    1
 -2      1676      1471      1438      2764      2363      2362      2364      8221      8659      8222
 -1      5186    6    0    1
 -2      5077      5093      6905      6915      5344      8687      7490      7868      8591      7867
 -1      5187    6    0    1
 -2      6905      6915      6929      6942      7867      8690      8688      8527      7161      7247
 -1      5188    6    0    1
 -2      2846      2753      1553      1631      3852      7740      8234      7462      7139      2560
 -1      5189    6    0    1
 -2      1513      1684      1474      2767      2025      2643      2641      8369      8371      8673
 -1      5190    6    0    1
 -2      6928      6888      5635      6945      6995      8677      8678      8692      7134      8693
 -1      5191    6    0    1
 -2      1575      1443      1660      2953      2410      2416      2417      8694      8339      8340
 -1      5192    6    0    1
 -2      5555      5626      5640      6905      5834      5833      5832      7488      6968      7146
 -1      5193    6    0    1
 -2      5148      5077      5162      6905      5355      5353      5356      6973      7490      7148
 -1      5194    6    0    1
 -2      2815      1522      4728      2928      7864      8248      8695      3243      7511      8249
 -1      5195    6    0    1
 -2      6899      5588      5559      6910      8081      5872      7053      7051      8424      7052
 -1      5196    6    0    1
 -2      2927      1432      2971      2725      7888      8458      3601      3600      7642      3598
 -1      5197    6    0    1
 -2      2799      2951      1506      2974      3219      8589      7173      3624      3750      8676
 -1      5198    6    0    1
 -2      1501      1433      2865      2726      2314      7875      7874      8697      8696      3602
 -1      5199    6    0    1
 -2      2726      1583      1433      6931      8121      2317      8696      8122      7734      8698
 -1      5200    6    0    1
 -2      5087      5126      6913      6923      5466      8699      8163      7904      8700      7968
 -1      5201    6    0    1
 -2      4718      1584      2899      1606      8701      7771      7856      7857      2057      7378
 -1      5202    6    0    1
 -2      1473      1691      2873      2984      2639      8545      8702      8684      8546      3285
 -1      5203    6    0    1
 -2      2777      1702      2815      1522      7893      7892      3966      8703      1953      7864
 -1      5204    6    0    1
 -2      1690      1494      1449      2983      2465      2464      2466      7939      8704      8554
 -1      5205    6    0    1
 -2      5092      5130      6899      6904      5499      7387      7753      7752      7844      7637
 -1      5206    6    0    1
 -2      2802      2733      1440      2875      3675      7941      8430      3297      3676      8705
 -1      5207    6    0    1
 -2      6929      5632      6905      6942      7281      8706      8688      7247      8119      8527
 -1      5208    6    0    1
 -2      1508      2772      1579      1479      8461      8025      2337      2658      8199      2115
 -1      5209    6    0    1
 -2      2904      2724      2983      1431      3579      3587      3588      7834      7477      7845
 -1      5210    6    0    1
 -2      2794       436       301       300      3189      6985      8563      8707      6986       309
 -1      5211    6    0    1
 -2      1616      2831      2909      6903      7978      3426      7732      8631      8585      8630
 -1      5212    6    0    1
 -2      2800      1681      1507      2981      8564      2335      8441      3917      7305      7323
 -1      5213    6    0    1
 -2      1621      2832      1539      1447      7905      8054      2447      2448      7906      2446
 -1      5214    6    0    1
 -2      1678      1449      1497      2971      2469      2467      2470      8625      8642      8708
 -1      5215    6    0    1
 -2      5592      5621      6889      6915      5825      7786      7932      8532      7787      7586
 -1      5216    6    0    1
 -2      2746      2859      2823      1566      3791      3100      3792      7901      8709      7902
 -1      5217    6    0    1
 -2      1530      1453      2823      1566      2499      7393      8139      1807      2498      7902
 -1      5218    6    0    1
 -2      1445      1534      2827      1532      2427      8042      7929      2428      1852      7930
 -1      5219    6    0    1
 -2      2827      2825      2738      1532      3145      3721      3720      7930      8710      7931
 -1      5220    6    0    1
 -2      2965      1502      2795      1434      8508      8194      3172      8509      2321      8711
 -1      5221    6    0    1
 -2      1450      1556      2830      1537      2474      7895      7808      2475      1780      8072
 -1      5222    6    0    1
 -2      2849      2743      1556      2830      3767      7530      8712      3073      3768      7895
 -1      5223    6    0    1
 -2      1589      2882      1501       300      8033      8713      1898      1892      8714      1897
 -1      5224    6    0    1
 -2      2817      1465      1524      2950      7223      2598      7949      3398      7236      8410
 -1      5225    6    0    1
 -2      2852      2828      2744      1535      3082      3776      3775      7900      8092      7816
 -1      5226    6    0    1
 -2      1559      2852      1451      1535      8715      7532      2482      1789      7900      2483
 -1      5227    6    0    1
 -2      1662      2756      2816      2955      7910      3877      8716      8276      3878      3574
 -1      5228    6    0    1
 -2      5633      5581      6908      6940      5931      8717      6977      7420      8597      7422
 -1      5229    6    0    1
 -2      4043      5590      5656      6938      8719      5748      8718      8720      8116      7339
 -1      5230    6    0    1
 -2      1533      1452      2857      1564      2491      7518      7917      1798      2490      8721
 -1      5231    6    0    1
 -2      2745      2857      2826      1533      3783      3091      3784      7819      7917      8125
 -1      5232    6    0    1
 -2      1662      2756      1523      2816      7910      7608      2281      8716      3877      7747
 -1      5233    6    0    1
 -2      1356      2944      1502      1651      8723      7805      8722      8724      7807      1877
 -1      5234    6    0    1
 -2      2816      1649      1523      1430      7329      2279      7747      8530      2278      2280
 -1      5235    6    0    1
 -2      1521      4720      1680      2973      8725      8675      2043      8726      8588      8603
 -1      5236    6    0    1
 -2      2952      1469      2981      2762      7297      7296      3752      3919      8727      3918
 -1      5237    6    0    1
 -2      1630      2874      2923      1434      7925      3617      7926      2323      8728      8729
 -1      5238    6    0    1
 -2      1581      2874      1630      1434      7927      7925      2324      2325      8728      2323
 -1      5239    6    0    1
 -2      1454      2860      2821      1567      7962      3109      7961      2506      8730      8731
 -1      5240    6    0    1
 -2      1567      2821      1454      1528      8731      7961      2506      1816      8171      2507
 -1      5241    6    0    1
 -2      2887      2923      1417      1630      3389      8454      7291      7558      7926      2088
 -1      5242    6    0    1
 -2      2818      1457      2864      1525      8040      8039      3136      8147      2531      8732
 -1      5243    6    0    1
 -2      1571      2864      1457      1525      8733      8039      2530      1843      8732      2531
 -1      5244    6    0    1
 -2      2820      2748      2861      1568      3808      3807      3118      7970      7969      8734
 -1      5245    6    0    1
 -2      1568      1527      2820      1455      1825      8184      7970      2514      2515      7971
 -1      5246    6    0    1
 -2      5112      5092      5146      6926      5495      5496      5273      8735      7229      7228
 -1      5247    6    0    1
 -2      2927      2971      1432      1678      3601      8458      7888      8736      8625      2304
 -1      5248    6    0    1
 -2      1520      2751      1578      2871      8158      8157      1959      8737      3832      8738
 -1      5249    6    0    1
 -2      2813      2751      1520      2871      3831      8158      8333      3252      3832      8737
 -1      5250    6    0    1
 -2      1695      1575      1478      2988      1974      2657      2656      8383      8552      8656
 -1      5251    6    0    1
 -2      2737      2824      1529      1531      3711      8739      7959      7960      8007      1861
 -1      5252    6    0    1
 -2      2737      1529      2824      2822      7959      8739      3711      3712      8740      3154
 -1      5253    6    0    1
 -2      5125      5178      4045      6898      5267      8435      8741      7354      8280      8434
 -1      5254    6    0    1
 -2      5603      4045      5656      6898      8743      8742      5745      7356      8434      7337
 -1      5255    6    0    1
 -2      1639      2857      1452      1564      7519      7518      2496      2497      8721      2490
 -1      5256    6    0    1
 -2      1447      1539      2845      2832      2446      8744      7977      7906      8054      3064
 -1      5257    6    0    1
 -2      1447      2845      1539      1552      7977      8744      2446      2445      8745      1771
 -1      5258    6    0    1
 -2      2743      1556      2930      2849      7530      7531      3773      3767      8712      3774
 -1      5259    6    0    1
 -2      1655      1484      1578      2948      2131      2675      2545      7973      8481      8286
 -1      5260    6    0    1
 -2      2981      1469      1507      2762      7296      2110      7323      3918      8727      8442
 -1      5261    6    0    1
 -2      1089      2885      2891      1592      8746      3038      8660      8663      7564      8664
 -1      5262    6    0    1
 -2      4056      5017      5012      6946      8748      5064      8747      8750      8749      8751
 -1      5263    6    0    1
 -2      6901       303      6920      6922      8752      7284      8593      8541      7285      7286
 -1      5264    6    0    1
 -2      6929      5093      5170      6942      8689      5504      7246      7247      8592      7159
 -1      5265    6    0    1
 -2      4664      4665      1661      2954      4687      8753      8754      8405      8755      7843
 -1      5266    6    0    1
 -2      1638      2852      1451      1559      7533      7532      2488      2489      8715      2482
 -1      5267    6    0    1
 -2      4042      6038      6034      6925      8757      6092      8756      8579      8758      8759
 -1      5268    6    0    1
 -2      5563      5640      6894      6937      5926      7145      7177      8067      8657      8322
 -1      5269    6    0    1
 -2      6898      6888      6904      6945      7333      8760      7584      7335      7134      8041
 -1      5270    6    0    1
 -2      1454      2821      1626      1528      7961      7708      2509      2507      8171      2508
 -1      5271    6    0    1
 -2      5119      5091      6911      6925      5493      7742      8761      8639      7744      7745
 -1      5272    6    0    1
 -2      5566      5632      5595      6905      5951      5829      5949      8505      8706      8504
 -1      5273    6    0    1
 -2      2785      2832      3002      1539      3991      3061      3992      7665      8054      7666
 -1      5274    6    0    1
 -2      5660      5636      5574      6936      5672      6000      5998      8762      7125      8763
 -1      5275    6    0    1
 -2      2733      1440      2961      2850      7941      8575      3682      3680      7934      3507
 -1      5276    6    0    1
 -2      5633      5581      5625      6908      5931      6028      5847      6977      8717      7884
 -1      5277    6    0    1
 -2      2726      2865      1501      2794      3602      7874      8697      3607      3194      8764
 -1      5278    6    0    1
 -2      2796      4712      1635      2928      8766      8765      7818      3238      8767      7510
 -1      5279    6    0    1
 -2      1632      1552      2845      1447      2452      8745      7537      2451      2445      7977
 -1      5280    6    0    1
 -2      2889       303       438      6920      7681      7282      3195      8768      7284      7283
 -1      5281    6    0    1
 -2      5654      5560      6891      6936      5892      8769      8419      8771      8770      7166
 -1      5282    6    0    1
 -2      5155      5086      6889      6940      5454      7823      8772      8773      8131      7421
 -1      5283    6    0    1
 -2      1527      2994      2779      1701      8014      3973      8774      1822      8017      8775
 -1      5284    6    0    1
 -2      1501      2865       301      2794      7874      7873      1896      8764      3194      8563
 -1      5285    6    0    1
 -2      1646      2939      1620      1510      7715      8776      2107      2565      7357      2576
 -1      5286    6    0    1
 -2      2939      2803      1620      1510      3858      8777      8776      7357      7749      2576
 -1      5287    6    0    1
 -2      4752      1511      4748      2804      8779      8778      4839      8781      8780      8782
 -1      5288    6    0    1
 -2      6891      5082      6892      6921      7791      7792      7163      7768      8192      7554
 -1      5289    6    0    1
 -2       299      2882      1589       300      8034      8033      1893       308      8714      1892
 -1      5290    6    0    1
 -2      6363      6382       893      6915      6450      6446      6448      8783      7408      7409
 -1      5291    6    0    1
 -2      1485      2993      1700      1526      8784      8020      2677      2676      8021      1831
 -1      5292    6    0    1
 -2       317      2951       452      6927      8590      3218      7144      7567      8785      7569
 -1      5293    6    0    1
 -2      5152      5090      5120      6890      5485      5483      5390      7361      8786      8787
 -1      5294    6    0    1
 -2      5598      5568      5630      6890      5961      5963      5868      8789      8788      7397
 -1      5295    6    0    1
 -2      2727      2794      2798      1434      3611      3605      3612      8791      8790      8792
 -1      5296    6    0    1
 -2      2794      1505      2798      1434      8794      8793      3605      8790      2319      8792
 -1      5297    6    0    1
 -2      2762      1666      1469      1419      8174      2113      8727      8176      2112      2109
 -1      5298    6    0    1
 -2      2712      2959      2762      1419      3406      3405      3403      8648      8175      8176
 -1      5299    6    0    1
 -2      1483      2990      1697      1525      8795      8028      2671      2670      8029      1840
 -1      5300    6    0    1
 -2      1433      1499      2865      2792      2310      7849      7875      8796      8418      3197
 -1      5301    6    0    1
 -2      2974      2800      1681      1435      3628      8564      8300      8797      8268      2331
 -1      5302    6    0    1
 -2      4662      1706      1596      6920      8799      1909      8798      8801      8800      8802
 -1      5303    6    0    1
 -2      2999      4662      2889      6920      8804      8803      3202      8805      8801      8768
 -1      5304    6    0    1
 -2      4753      1602       831      2895      7434      6952      4757      7436      6954      6955
 -1      5305    6    0    1
 -2      1431      2983      1611      1690      7845      8806      2285      2294      7939      2295
 -1      5306    6    0    1
 -2      5596      5595      5563      6937      5923      5925      5924      7725      8521      8067
 -1      5307    6    0    1
 -2      2766      1473      2890      1424      8807      7755      3481      8808      2189      7707
 -1      5308    6    0    1
 -2      2904      1611      2729      1548      8595      8809      3638      7833      2286      7883
 -1      5309    6    0    1
 -2      2762      2962      1503      2796      3916      8501      8343      3915      3240      8345
 -1      5310    6    0    1
 -2      1495      2846      2978      1553      7475      3052      7548      2707      8234      7728
 -1      5311    6    0    1
 -2      1442      1664      2870      2957      2407      8810      8520      8463      8457      3701
 -1      5312    6    0    1
 -2      2751      1614      2813      1520      7622      7804      3831      8158      2541      8333
 -1      5313    6    0    1
 -2      1636      2824      2737      1531      7705      3711      7377      2423      8007      7960
 -1      5314    6    0    1
 -2      5111      6038      5153      6925      8812      8811      5300      8581      8758      8580
 -1      5315    6    0    1
 -2      2753      1553      2869      2846      7740      8813      3851      3852      8234      3055
 -1      5316    6    0    1
 -2      2753      2869      1553      1576      3851      8813      7740      7913      8814      1762
 -1      5317    6    0    1
 -2      2923      2874      2727      1434      3617      3618      3616      8729      8728      8791
 -1      5318    6    0    1
 -2      2950      1496      1657      1418      8815      2100      7685      8816      2099      2101
 -1      5319    6    0    1
 -2      5107       834      5158      6918      8211      8817      5191      8818      7943      8819
 -1      5320    6    0    1
 -2      2954      1499      1433      2792      8451      2310      7842      3375      8418      8796
 -1      5321    6    0    1
 -2      5571      5555      6905      6915      5822      7488      8525      8524      8048      7867
 -1      5322    6    0    1
 -2      2951      1658      2810      6927      8820      8496      3224      8785      8498      8499
 -1      5323    6    0    1
 -2      2769      1476      2893      1423      8821      7802      3465      8822      2173      7735
 -1      5324    6    0    1
 -2      1583      1417      2798      1505      2087      8460      8404      2086      2085      8793
 -1      5325    6    0    1
 -2      1630      2923      1505      1434      7926      8823      2089      2323      8729      2319
 -1      5326    6    0    1
 -2      6912      5621      5592      6915      8485      5825      8531      7869      7787      8532
 -1      5327    6    0    1
 -2      2781      1625      2823      1530      7105      7394      3978      8223      2500      8139
 -1      5328    6    0    1
 -2      2860      2779      2994      1701      3974      3973      3112      8173      8775      8017
 -1      5329    6    0    1
 -2      2960      2734      1441      2851      3691      7855      8635      3495      3689      7722
 -1      5330    6    0    1
 -2      1434      1581      2965      1672      2325      8824      8509      2322      1880      8510
 -1      5331    6    0    1
 -2      1505      2798      1583      2726      8793      8404      2086      8825      3606      8121
 -1      5332    6    0    1
 -2      1419      1579      2712      1479      2114      8024      8648      2116      2115      7634
 -1      5333    6    0    1
 -2      1605      1449      1494      2787      2462      2464      2463      8355      8826      8827
 -1      5334    6    0    1
 -2      2953      2868      1443      2736      3710      8452      8339      3709      3703      8241
 -1      5335    6    0    1
 -2      5143      5093      5077      6915      5342      5344      5343      7825      8591      7868
 -1      5336    6    0    1
 -2      1439      2732      1545      1555      8828      7995      2381      2379      7778      2380
 -1      5337    6    0    1
 -2      6892       834      5107      6918      7942      8211      7774      7528      7943      8818
 -1      5338    6    0    1
 -2       715      4667        13      6919      4678      4677       717      8117      7697      7836
 -1      5339    6    0    1
 -2      5583      5657      6921      6923      5697      8829      8533      8534      8830      7557
 -1      5340    6    0    1
 -2      1700      2861      2993      1485      8186      3121      8020      2677      8831      8784
 -1      5341    6    0    1
 -2      1697      1570      2990      1483      1837      8832      8028      2671      2672      8795
 -1      5342    6    0    1
 -2      6910      5081      5160      6917      7846      5394      8833      7056      7848      8834
 -1      5343    6    0    1
 -2      1612      1091      2905      1663      8836      8835      7872      1753      8837      8150
 -1      5344    6    0    1
 -2      2741      2951      1658      2810      3748      8820      8539      3747      3224      8496
 -1      5345    6    0    1
 -2      1564      1639      2857      1488      2497      7519      8721      2687      2220      7595
 -1      5346    6    0    1
 -2      2961      1472      1668      2875      7573      2636      7958      3683      8179      8838
 -1      5347    6    0    1
 -2      1546      2894      1601      1428      8265      8839      2251      2252      8285      2250
 -1      5348    6    0    1
 -2      1605      1449      2968      1675      2462      8840      8583      2049      2468      8841
 -1      5349    6    0    1
 -2      2771      1478      1604      1422      8842      2155      7870      8843      2157      2156
 -1      5350    6    0    1
 -2      1599      2892      1427      1545      8844      8292      2236      2237      8293      2238
 -1      5351    6    0    1
 -2      2896      1603      1437      2840      8651      2355      8845      3557      8031      7781
 -1      5352    6    0    1
 -2      1589      1501      2882      1434      1898      8713      8033      2320      2318      8846
 -1      5353    6    0    1
 -2      2726      1505      2798      2794      8825      8793      3606      3607      8794      3605
 -1      5354    6    0    1
 -2      1595      1440      1509      2802      2384      2382      2385      7877      8430      8515
 -1      5355    6    0    1
 -2      1571      1120      2864      1525      8848      8847      8733      1843      8149      8732
 -1      5356    6    0    1
 -2      2818      2864      1120      1525      3136      8847      8145      8147      8732      8149
 -1      5357    6    0    1
 -2      2974      1681      1506      1435      8300      2332      8676      8797      2331      2330
 -1      5358    6    0    1
 -2      5598      5568      6890      6908      5961      8788      8789      8165      8849      8110
 -1      5359    6    0    1
 -2      1491      2845      1632      1552      7604      7537      2262      2696      8745      2452
 -1      5360    6    0    1
 -2      1537      2830      2915      1491      8072      3769      7474      2694      8257      7109
 -1      5361    6    0    1
 -2       299       434      2882       300      7095      3186      8034       308      8051      8714
 -1      5362    6    0    1
 -2      2828      1490      2916      1535      8259      7116      3777      8092      2691      7476
 -1      5363    6    0    1
 -2      1530      2823      1100      1566      8139      8137      8141      1807      7902      8850
 -1      5364    6    0    1
 -2      1100      2823      2859      1566      8137      3100      8851      8850      7902      8709
 -1      5365    6    0    1
 -2      1498      1598      2891      1464      1748      8661      8852      2588      2589      8853
 -1      5366    6    0    1
 -2      1489      1533      2917      2826      2688      7482      7120      8264      8125      3785
 -1      5367    6    0    1
 -2      6376      5586      5643      6928      8854      5804      7650      7652      8855      7651
 -1      5368    6    0    1
 -2      1559      1638      2852      1489      2489      7533      8715      2690      2234      7621
 -1      5369    6    0    1
 -2      2783      2849      2930      1556      3986      3774      3541      7620      8712      7531
 -1      5370    6    0    1
 -2      5578      5590      6926      6938      6017      8856      8323      7338      8116      8325
 -1      5371    6    0    1
 -2      5638      6895      6910      6924      7632      7631      7467      8858      8857      7352
 -1      5372    6    0    1
 -2      1527      2820      1104      1568      8184      8181      8183      1825      7970      8859
 -1      5373    6    0    1
 -2      1104      2820      2861      1568      8181      3118      8860      8859      7970      8734
 -1      5374    6    0    1
 -2      1102      1567      2821      2860      8861      8731      8168      8862      8730      3109
 -1      5375    6    0    1
 -2      1102      2821      1567      1528      8168      8731      8861      8170      8171      1816
 -1      5376    6    0    1
 -2      1533      2857      1097      1564      7917      8863      8127      1798      8721      8864
 -1      5377    6    0    1
 -2      1097      2826      2857      1533      8123      3091      8863      8127      8125      7917
 -1      5378    6    0    1
 -2      5149      5091      5119      6925      5491      5493      5317      8640      7744      8639
 -1      5379    6    0    1
 -2      1095      1535      2852      1559      8091      7900      8865      8866      1789      8715
 -1      5380    6    0    1
 -2      1095      2852      1535      2828      8865      7900      8091      8089      3082      8092
 -1      5381    6    0    1
 -2      1556      1084      2830      1537      8867      8069      7895      1780      8071      8072
 -1      5382    6    0    1
 -2      1084      2830      2849      1556      8069      3073      8868      8867      7895      8712
 -1      5383    6    0    1
 -2      1107      2825      2827      1532      8869      3145      8045      8870      8710      7930
 -1      5384    6    0    1
 -2      1107      2827      1534      1532      8045      8042      8046      8870      7930      1852
 -1      5385    6    0    1
 -2      6895      5083      6910      6924      8872      8871      7631      8857      8873      7352
 -1      5386    6    0    1
 -2       906      5613      5584      6917      8438      5677      8874      8439      7517      8450
 -1      5387    6    0    1
 -2      2831      1616      1538      6903      7978      2133      7776      8585      8631      8423
 -1      5388    6    0    1
 -2      6890      6379      5150      6940      8877      8875      8876      8879      8878      8880
 -1      5389    6    0    1
 -2      1122      2884      1088      1591      8882      8881      1136      8883      8164      8884
 -1      5390    6    0    1
 -2      2840      1437      2730      2844      7781      8885      3652      3650      7782      3651
 -1      5391    6    0    1
 -2      2974      1506      2799      1435      8676      7173      3624      8797      2330      8886
 -1      5392    6    0    1
 -2      1539      2845      1082      1552      8744      8887      8056      1771      8745      8888
 -1      5393    6    0    1
 -2      2832      2845      1082      1539      3064      8887      8052      8054      8744      8056
 -1      5394    6    0    1
 -2      2847      2731      1438      2839      3662      8889      7779      3661      3663      7780
 -1      5395    6    0    1
 -2      1609      2902      1493      4745      7762      8224      2063      8891      8890      8220
 -1      5396    6    0    1
 -2      1519      2739      1573      2812      7853      8358      1968      8429      3729      8892
 -1      5397    6    0    1
 -2      1573      2739      2866      2812      8358      3730      8893      8892      3729      3261
 -1      5398    6    0    1
 -2       828      1574      2867      6931      8895      7759      8894      8896      7538      8316
 -1      5399    6    0    1
 -2      6913      5171      5098      6946      8897      5533      8288      8290      8898      8289
 -1      5400    6    0    1
 -2      6036      4042      6034      6925      8899      8756      6090      8900      8579      8759
 -1      5401    6    0    1
 -2      2822      1529      2824      1109      8740      8739      3154      8902      8901      8003
 -1      5402    6    0    1
 -2      1109      1529      2824      1531      8901      8739      8003      8005      1861      8007
 -1      5403    6    0    1
 -2      2813      2774      1699      1481      3957      8205      8206      8903      8310      2665
 -1      5404    6    0    1
 -2      2934      2859      2746      1566      3798      3791      3797      7770      8709      7901
 -1      5405    6    0    1
 -2      5588      4027      5637      6910      8905      8904      5760      8424      8084      7085
 -1      5406    6    0    1
 -2      1571      2775      2989      1482      8495      3961      7953      2669      8396      7954
 -1      5407    6    0    1
 -2      2910      2738      2825      1532      3723      3721      3722      7957      7931      8710
 -1      5408    6    0    1
 -2      1658      2951      1506       317      8820      8589      1926      1924      8590      1922
 -1      5409    6    0    1
 -2      4742      1605      2968      1675      8618      8583      8620      8906      2049      8841
 -1      5410    6    0    1
 -2      5120      5152      6890      6914      5390      7361      8787      8668      7362      7363
 -1      5411    6    0    1
 -2      2727      2965      2795      1434      3615      3172      3614      8791      8509      8711
 -1      5412    6    0    1
 -2      1578      4730      1520      2871      8907      8331      1959      8738      8908      8737
 -1      5413    6    0    1
 -2      2813      1520      4730      2871      8333      8331      8335      3252      8737      8908
 -1      5414    6    0    1
 -2      1583      1433      1505      2726      2317      2312      2086      8121      8696      8825
 -1      5415    6    0    1
 -2      2980      1687      1470      2878      8328      2629      8909      3303      8378      8910
 -1      5416    6    0    1
 -2      5588      4027      6910      6933      8905      8084      8424      8082      8085      8086
 -1      5417    6    0    1
 -2      1424      2835      2890      2717      7706      3490      7707      8911      3491      3480
 -1      5418    6    0    1
 -2      1545      2732      1599      2892      7995      8912      2237      8293      3671      8844
 -1      5419    6    0    1
 -2      2923      2798      1505      1434      3381      8793      8823      8729      8792      2319
 -1      5420    6    0    1
 -2      2923      2727      2798      1434      3616      3612      3381      8729      8791      8792
 -1      5421    6    0    1
 -2      5118      6888      6898      6937      7524      7333      7523      8913      7726      7727
 -1      5422    6    0    1
 -2      5022       834      5107      6906      5031      8211      8914      8385      8212      7775
 -1      5423    6    0    1
 -2      1355      2795      1502      1356      8916      8194      8915      1378      8917      8722
 -1      5424    6    0    1
 -2      6919      4663      4667      6920      8918      4707      7697      8920      8919      8921
 -1      5425    6    0    1
 -2      2802      1595      2888      2763      7877      7298      3677      3920      8691      3921
 -1      5426    6    0    1
 -2      2974      2951      1658      2741      3750      8820      8624      3751      3748      8539
 -1      5427    6    0    1
 -2      6889      5581      5633      6940      7979      5931      6975      7421      8597      7420
 -1      5428    6    0    1
 -2      1492      1709      2869      1576      2699      7777      7760      2700      1765      8814
 -1      5429    6    0    1
 -2      2906      1492      2869      1576      7345      7760      3854      8296      2700      8814
 -1      5430    6    0    1
 -2      1501      1505      1433      2726      2313      2312      2314      8697      8825      8696
 -1      5431    6    0    1
 -2      1093      2846      2869      1553      8232      3055      8922      8236      8234      8813
 -1      5432    6    0    1
 -2      1553      2869      1093      1576      8813      8922      8236      1762      8814      8923
 -1      5433    6    0    1
 -2      2794       301      1501       300      8563      1896      8764      8707       309      1897
 -1      5434    6    0    1
 -2       435       436      2794       300       444      3189      3190      6991      6986      8707
 -1      5435    6    0    1
 -2      2794      1501      1505      1434      8764      2313      8794      8790      2318      2319
 -1      5436    6    0    1
 -2      2712      1507      2800      1579      8674      8441      3404      8024      2119      8267
 -1      5437    6    0    1
 -2      2774      1481      2866      1699      8310      8924      3959      8205      2665      8250
 -1      5438    6    0    1
 -2      6906      5565      5642      6923      7964      5939      8066      7428      7967      7556
 -1      5439    6    0    1
 -2      2777      2909      1522      2815      3422      7731      8703      3966      3843      7864
 -1      5440    6    0    1
 -2      2823      2997      2781      1530      3097      3979      3978      8139      7796      8223
 -1      5441    6    0    1
 -2      2812      1519      2739      2897      8429      7853      3729      3731      7854      3732
 -1      5442    6    0    1
 -2      2927      1634      1678      1432      7748      2308      8736      7888      2307      2304
 -1      5443    6    0    1
 -2      2989      2775      2825      1482      3961      3960      3142      7954      8396      8002
 -1      5444    6    0    1
 -2      2800      1507      1681      1435      8441      2335      8564      8268      2334      2331
 -1      5445    6    0    1
 -2      1533      1705      2826      1489      1795      7793      8125      2688      2689      8264
 -1      5446    6    0    1
 -2      3000      1490      2828      1535      7788      8259      3079      7789      2691      8092
 -1      5447    6    0    1
 -2      2717      2766      2890      1424      3482      3481      3480      8911      8808      7707
 -1      5448    6    0    1
 -2      1537      3001      2830      1491      7783      3070      8072      2694      7784      8257
 -1      5449    6    0    1
 -2      1541      2716      2893      1423      8079      3464      7675      2182      8925      7735
 -1      5450    6    0    1
 -2      1509      1687      1470      2980      2007      2629      2627      8330      8328      8909
 -1      5451    6    0    1
 -2      2762      1469      1507      1419      8727      2110      8442      8176      2109      2111
 -1      5452    6    0    1
 -2      2712      2762      1507      1419      3403      8442      8674      8648      8176      2111
 -1      5453    6    0    1
 -2      1503      1666      1469      2762      2548      2113      2622      8343      8174      8727
 -1      5454    6    0    1
 -2      5022      5123      5013      6906      8927      8926      5072      8385      8928      8929
 -1      5455    6    0    1
 -2      2957      2870      1442      2735      3701      8520      8463      3700      3694      8258
 -1      5456    6    0    1
 -2      5124      5099      6900      6922      5430      8930      7210      7821      8931      7002
 -1      5457    6    0    1
 -2      5162      6894      6905      6937      7147      6969      7148      8932      8322      8658
 -1      5458    6    0    1
 -2      1601      1438      2894      1546      2366      8403      8839      2251      2370      8265
 -1      5459    6    0    1
 -2      5139      6901      6907      6922      8153      8097      8152      8933      8541      8542
 -1      5460    6    0    1
 -2      1525      2818      1457      1629      8147      8040      2531      2532      8238      2533
 -1      5461    6    0    1
 -2      1556      3000      2783      2849      7817      3985      7620      8712      3076      3986
 -1      5462    6    0    1
 -2      1552      2845      3001      1491      8745      3067      7803      2696      7604      7784
 -1      5463    6    0    1
 -2      1455      2920      1527      2820      7814      8277      2515      7971      3809      8184
 -1      5464    6    0    1
 -2      1559      2852      1705      1489      8715      7820      1792      2690      7621      2689
 -1      5465    6    0    1
 -2      4739      4726      1513      2806      4848      8934      8935      8937      8936      8938
 -1      5466    6    0    1
 -2      6907      5139      5120      6914      8152      5364      8669      7500      8154      8668
 -1      5467    6    0    1
 -2      1488      1564      2997      2857      2687      7826      7797      7595      8721      3094
 -1      5468    6    0    1
 -2      1462      1608      2901      1574      2575      7758      8939      2578      2577      7239
 -1      5469    6    0    1
 -2      1574      2901      2755      2867      7239      3868      8940      7759      3870      3871
 -1      5470    6    0    1
 -2      2943      1650      2942      1430      7948      8074      3577      8941      2283      8529
 -1      5471    6    0    1
 -2      1441      1512      2886      2805      2391      8142      7504      8479      8492      3686
 -1      5472    6    0    1
 -2      1588      1474      1684      2767      2350      2643      2028      8643      8673      8371
 -1      5473    6    0    1
 -2      1658      1506      2951      2974      1926      8589      8820      8624      8676      3750
 -1      5474    6    0    1
 -2      1591      2884      1569      1122      8164      8314      1736      8883      8882      8942
 -1      5475    6    0    1
 -2      1122      2884      1569      2862      8882      8314      8942      8943      3029      8944
 -1      5476    6    0    1
 -2      2943      2817      1524      2940      3889      7949      7947      3575      3886      8945
 -1      5477    6    0    1
 -2      2943      1524      1650      1647      7947      2597      7948      8946      2593      2282
 -1      5478    6    0    1
 -2      2716      2769      2893      1423      3466      3465      3464      8925      8822      7735
 -1      5479    6    0    1
 -2       301       302       436      2865       310      8947      6985      7873      7850      3193
 -1      5480    6    0    1
 -2      6900      5602      5562      6916      7232      5909      8948      6994      7234      8949
 -1      5481    6    0    1
 -2      2864      1457      2938      1571      8039      7730      3830      8733      2530      8050
 -1      5482    6    0    1
 -2      4722      1573      2866      2812      8951      8893      8950      8428      8892      3261
 -1      5483    6    0    1
 -2      4722      1519      1573      2812      8426      1968      8951      8428      8429      8892
 -1      5484    6    0    1
 -2      6890      5120      6914      6935      8787      8668      7363      8111      8671      8113
 -1      5485    6    0    1
 -2      1589      2882      1502      1434      8033      8032      1894      2320      8846      2321
 -1      5486    6    0    1
 -2      1580      2960      1441      1667      8952      8635      2392      2399      8476      2398
 -1      5487    6    0    1
 -2      5646      5576      5601      6913      6009      6013      5785      8599      8598      8953
 -1      5488    6    0    1
 -2      5123      5098      5168      6913      5535      5531      5307      8954      8288      8287
 -1      5489    6    0    1
 -2      6890      5630      5598      6914      7397      5868      8789      7363      7399      8166
 -1      5490    6    0    1
 -2      1522      1702      1484      2777      1953      2674      2673      8703      7893      8480
 -1      5491    6    0    1
 -2      2883      1683      4740      2976      8956      8605      8955      3330      8606      8607
 -1      5492    6    0    1
 -2      1675      1497      1449      2968      2054      2467      2468      8841      8957      8840
 -1      5493    6    0    1
 -2      2811      1600      1518      2736      7828      2412      8401      3702      7674      8414
 -1      5494    6    0    1
 -2      2881      4750      1588      2807      8960      8958      8959      3324      8961      8962
 -1      5495    6    0    1
 -2      2961      1668      1440      2875      7958      2389      8575      3683      8838      8705
 -1      5496    6    0    1
 -2      2868      2811      1518      2736      3270      8401      8453      3703      3702      8414
 -1      5497    6    0    1
 -2      1518      1443      1575      2868      2409      2410      1977      8453      8452      8963
 -1      5498    6    0    1
 -2      2813      1614      2774      1481      7804      7607      3957      8903      2140      8310
 -1      5499    6    0    1
 -2      2787      1494      1605      2973      8827      2463      8355      3999      8602      8473
 -1      5500    6    0    1
 -2      1548      2843      1436      2729      7276      7811      2348      7883      3640      8964
 -1      5501    6    0    1
 -2      2732      2967      1470      2763      3668      8115      8114      3666      3667      8965
 -1      5502    6    0    1
 -2      2833      2715      1604      1422      3459      7832      7737      8231      8966      2156
 -1      5503    6    0    1
 -2      5150      5127      6373      6890      5340      7226      8967      8876      7184      7227
 -1      5504    6    0    1
 -2      1515      1597      1442      2808      2403      2402      2400      8446      7810      8437
 -1      5505    6    0    1
 -2      5181      4006      4026      6924      8968      4211      7319      7350      8969      7487
 -1      5506    6    0    1
 -2      5133      5101      5177      6916      5543      5544      5252      8970      7256      7094
 -1      5507    6    0    1
 -2      6897      5101      5166      6916      7255      5542      8971      6983      7256      8616
 -1      5508    6    0    1
 -2      2939      1620      2803      2913      8776      8777      3858      3399      8972      3869
 -1      5509    6    0    1
 -2      2726      1501      1505      2794      8697      2313      8825      3607      8764      8794
 -1      5510    6    0    1
 -2      6901      5587      5617      6922      8973      5953      8099      8541      8974      8540
 -1      5511    6    0    1
 -2      1464      1598      2891      1592      2589      8661      8853      2594      1745      8664
 -1      5512    6    0    1
 -2      2944      1502      2795      1356      7805      8194      3170      8723      8722      8917
 -1      5513    6    0    1
 -2      1115      3002      2832      1539      7885      3061      8975      7886      7666      8054
 -1      5514    6    0    1
 -2      1479      2824      1636      1531      7876      7705      2117      2660      8007      2423
 -1      5515    6    0    1
 -2      4748      2804      1585      2878      8782      8976      8977      8978      3306      8979
 -1      5516    6    0    1
 -2      2715      2771      1604      1422      3450      7870      7832      8966      8843      2156
 -1      5517    6    0    1
 -2      4665      1499      1661      2954      8679      2082      8753      8755      8451      7843
 -1      5518    6    0    1
 -2      2896      2972      1603      2722      3565      8317      8651      3558      3564      8080
 -1      5519    6    0    1
 -2      5160      6895      6910      6917      8980      7631      8833      8834      7633      7056
 -1      5520    6    0    1
 -2      5616      5655       433      6897      5733      7252      8981      7048      7253      6981
 -1      5521    6    0    1
 -2       298      5177      5138      6897      7093      5255      8982      6980      7092      7047
 -1      5522    6    0    1
 -2      2858      2959      2712      1419      3415      3406      3414      7838      8175      8648
 -1      5523    6    0    1
 -2      1621      2785      1539      2832      7343      7665      2447      7905      3991      8054
 -1      5524    6    0    1
 -2      1503      2962      1669      4727      8501      7996      1947      8984      8983      8985
 -1      5525    6    0    1
 -2      1091      2956      2905      1663      8986      3046      8835      8837      8275      8150
 -1      5526    6    0    1
 -2      2894      1474      2970      2767      8611      8219      3551      3935      8673      3645
 -1      5527    6    0    1
 -2      4739      1513      1586      2879      8935      2022      8987      8989      8988      8990
 -1      5528    6    0    1
 -2      2751      2948      1578      2871      3837      8286      8157      3832      3838      8738
 -1      5529    6    0    1
 -2      1515      1442      2870      2808      2400      8520      8991      8446      8437      3279
 -1      5530    6    0    1
 -2      1515      2870      1442      1577      8991      8520      2400      1986      8992      2401
 -1      5531    6    0    1
 -2      2710      2798      1417      2923      3379      8460      7629      3382      3381      8454
 -1      5532    6    0    1
 -2      1445      2827      1534      1633      7929      8042      2427      2431      8341      2432
 -1      5533    6    0    1
 -2      4745      2902      1493      2786      8890      8224      8220      8582      3356      8144
 -1      5534    6    0    1
 -2      1479      2824      1531      1693      7876      8007      2660      2659      7986      1864
 -1      5535    6    0    1
 -2      5082      5176      5115      6921      5414      5413      5412      8192      8191      8645
 -1      5536    6    0    1
 -2      4718      2899      1584      2877      7856      7771      8701      8993      3350      7982
 -1      5537    6    0    1
 -2      1424      2717      1558      1642      8911      8354      2201      2196      8073      2200
 -1      5538    6    0    1
 -2      2979      2879      1471      2764      3312      8994      8273      3925      3653      8659
 -1      5539    6    0    1
 -2      6888      6898      6904      6944      7333      7584      8760      7274      7526      7638
 -1      5540    6    0    1
 -2      1514      1437      2896      1603      2354      8845      8995      2356      2355      8651
 -1      5541    6    0    1
 -2      6888      5088      5108      6929      8049      5467      7273      6998      8996      7703
 -1      5542    6    0    1
 -2      2811      1518      4710      2868      8401      8398      8400      3270      8453      8997
 -1      5543    6    0    1
 -2      4710      1518      1575      2868      8398      1977      8998      8997      8453      8963
 -1      5544    6    0    1
 -2      4716      1521      1590      2883      9000      2040      8999      9002      9001      9003
 -1      5545    6    0    1
 -2      2865       302       436       437      7850      8947      3193      3192      8535       445
 -1      5546    6    0    1
 -2      2767      1588      1474      2730      8643      2350      8673      3644      9004      8672
 -1      5547    6    0    1
 -2      2866      2774      1656      1481      3959      7721      8318      8924      8310      2143
 -1      5548    6    0    1
 -2      1674      1555      2732      1439      2228      7778      7980      2375      2379      8828
 -1      5549    6    0    1
 -2      2726      1433      2865      2792      8696      7875      3602      3603      8796      3197
 -1      5550    6    0    1
 -2      2807      1588      2881      2730      8962      8959      3324      3647      9004      3643
 -1      5551    6    0    1
 -2      5571      5621      5555      6915      5821      5820      5822      8524      7787      8048
 -1      5552    6    0    1
 -2      6371      6361      6375      6928      6467      6475      6408      7315      7882      7103
 -1      5553    6    0    1
 -2      1609      2902      4744      1607      7762      9005      9006      2066      8035      9007
 -1      5554    6    0    1
 -2      1545      1599      2732      1439      2237      8912      7995      2381      2377      8828
 -1      5555    6    0    1
 -2      1640      2939      2933      1418      7655      3401      7656      2104      9008      9009
 -1      5556    6    0    1
 -2      2716      2936      2853      1423      3473      3477      3478      8925      8143      8353
 -1      5557    6    0    1
 -2      5082      5131      5176      6891      5416      5415      5414      7791      7391      7469
 -1      5558    6    0    1
 -2      1038      6750      6732       315      6761      8557      6748      9010      8556      8555
 -1      5559    6    0    1
 -2      6732      1039       450      6750      6747      9011      8560      8557      6760      8561
 -1      5560    6    0    1
 -2      2935      2779      1486      2717      3488      9012      8200      3489      3487      8201
 -1      5561    6    0    1
 -2      1424      1486      2717      1642      2194      8201      8911      2196      2195      8073
 -1      5562    6    0    1
 -2      1577      1515      2870      4735      1986      8991      8992      9013      8444      9014
 -1      5563    6    0    1
 -2      4735      1515      2870      2808      8444      8991      9014      8448      8446      3279
 -1      5564    6    0    1
 -2      1644      1422      2854      2715      2164      8315      8128      8130      8966      3462
 -1      5565    6    0    1
 -2        13      5607      4667       439      7835      7696      4677       448      7695      7694
 -1      5566    6    0    1
 -2      2805      1512      2765      2982      8492      7889      3926      3291      7878      3928
 -1      5567    6    0    1
 -2      1439      2732      1674      1470      8828      7980      2375      2373      8114      2374
 -1      5568    6    0    1
 -2      2882      2795      1502      1434      3187      8194      8032      8846      8711      2321
 -1      5569    6    0    1
 -2      2723      2942      2816      1430      3572      3571      3573      9015      8529      8530
 -1      5570    6    0    1
 -2      2822      2737      1529      1618      3712      7959      8740      8392      8390      2420
 -1      5571    6    0    1
 -2      2906      2869      2753      1576      3854      3851      3855      8296      8814      7913
 -1      5572    6    0    1
 -2      2771      1660      1478      1422      8502      2158      8842      8843      2159      2157
 -1      5573    6    0    1
 -2      1567      2935      1486      1642      8313      8200      2681      2513      7916      2195
 -1      5574    6    0    1
 -2      2770      1436      1477      2972      9017      2340      9016      3634      8118      8312
 -1      5575    6    0    1
 -2      2717      1424      2835      1627      8911      7706      3491      8274      2192      7813
 -1      5576    6    0    1
 -2      1482      1571      2775      1645      2669      8495      8396      2148      2537      7682
 -1      5577    6    0    1
 -2      1599      1471      1676      2764      2631      2363      2244      9018      8659      8221
 -1      5578    6    0    1
 -2      1435      2728      2872      1508      9019      3626      8188      2336      9020      8189
 -1      5579    6    0    1
 -2      2728      2801      2872      1508      3630      3629      3626      9020      9021      8189
 -1      5580    6    0    1
 -2      2883      1477      1683      2976      9022      2654      8956      3330      9023      8606
 -1      5581    6    0    1
 -2      1485      2936      2778      1423      8237      3472      9024      2178      8143      9025
 -1      5582    6    0    1
 -2      2778      2936      2716      1423      3472      3473      3471      9025      8143      8925
 -1      5583    6    0    1
 -2      1541      2921      2716      1423      8261      3470      8079      2182      8263      8925
 -1      5584    6    0    1
 -2      2940      1524      2943      1647      8945      7947      3575      9026      2593      8946
 -1      5585    6    0    1
 -2      6038      4042      5153      6925      8757      8578      8811      8758      8579      8580
 -1      5586    6    0    1
 -2      1464      2891      2885      1592      8853      3038      9027      2594      8664      7564
 -1      5587    6    0    1
 -2      2855      2713      2926      6903      3430      3419      3429      9029      9028      9030
 -1      5588    6    0    1
 -2      6897      5166      6912      6916      8971      8615      7006      6983      8616      7190
 -1      5589    6    0    1
 -2      2954      1433      2726      2792      7842      8696      3604      3375      8796      3603
 -1      5590    6    0    1
 -2      1454      1567      2935      2860      2506      8313      7914      7962      8730      3806
 -1      5591    6    0    1
 -2      1464      2885      2933      1640      9027      3888      9031      2591      7193      7656
 -1      5592    6    0    1
 -2      4738      1509      1582      2875      8512      2004      9032      9034      9033      9035
 -1      5593    6    0    1
 -2      2802      1509      4738      2875      8515      8512      8514      3297      9033      9034
 -1      5594    6    0    1
 -2      6889      6908      6935      6940      6978      8112      8253      7421      7422      9036
 -1      5595    6    0    1
 -2      1101      2996      2821      1528      7990      3106      9037      7992      7991      8171
 -1      5596    6    0    1
 -2      1592      2885      1464      1640      7564      9027      2594      2595      7193      2591
 -1      5597    6    0    1
 -2      1103      2994      2820      1527      8013      3115      9038      8015      8014      8184
 -1      5598    6    0    1
 -2      2715      1483      1644      1422      8246      2163      8130      8966      2162      2164
 -1      5599    6    0    1
 -2      2715      2937      1483      2776      3457      8245      8246      3455      3456      9039
 -1      5600    6    0    1
 -2      4041      5171      6913      6946      9041      8897      9040      9042      8898      8290
 -1      5601    6    0    1
 -2      2922      2715      2833      1422      3454      3459      3460      8255      8966      8231
 -1      5602    6    0    1
 -2      5564      5581      6889      6940      5930      7979      7588      7589      8597      7421
 -1      5603    6    0    1
 -2      2822      2987      1529      1108      3151      8008      8740      9043      8010      8009
 -1      5604    6    0    1
 -2      2731      1438      2969      2847      8889      7933      3657      3662      7779      3535
 -1      5605    6    0    1
 -2      1568      2748      2861      1643      7969      3807      8734      2521      7908      8347
 -1      5606    6    0    1
 -2      1599      2892      2732      2804      8844      3671      8912      9044      3670      3669
 -1      5607    6    0    1
 -2      5082      5105      6892      6921      5406      7950      7792      8192      8584      7554
 -1      5608    6    0    1
 -2      2730      1437      2970      2844      8885      7938      3646      3651      7782      3549
 -1      5609    6    0    1
 -2      2957      1476      2769      1423      8576      8821      3467      8456      2173      8822
 -1      5610    6    0    1
 -2      2889      4662      4661      6920      8803      4693      9045      8768      8801      9046
 -1      5611    6    0    1
 -2      4661      4662      1596      6920      4693      8798      9047      9046      8801      8802
 -1      5612    6    0    1
 -2      1521      1680      1494      2973      2043      2706      2704      8726      8603      8602
 -1      5613    6    0    1
 -2      2950      1657      1524      1418      7685      2105      8410      8816      2101      2102
 -1      5614    6    0    1
 -2      2762      1469      1669      2952      8727      2623      8420      3919      7297      8000
 -1      5615    6    0    1
 -2      2873      4724      1580      2805      9050      9048      9049      3288      8491      8686
 -1      5616    6    0    1
 -2      4724      1512      1580      2805      8489      1995      9048      8491      8492      8686
 -1      5617    6    0    1
 -2      1485      2861      2936      1643      8831      3814      8237      2179      8347      7909
 -1      5618    6    0    1
 -2      4748      1585      2804      1511      8977      8976      8782      8778      2013      8780
 -1      5619    6    0    1
 -2      5577       436      5602      6922      9051      7366      5907      8416      7001      7827
 -1      5620    6    0    1
 -2      1483      1570      2937      1644      2672      8474      8245      2163      2529      8129
 -1      5621    6    0    1
 -2      2922      2715      1483      2776      3454      8246      8305      3453      3455      9039
 -1      5622    6    0    1
 -2      1422      2715      1483      2922      8966      8246      2162      8255      3454      8305
 -1      5623    6    0    1
 -2      1440      1582      1509      2875      2383      2004      2382      8705      9035      9033
 -1      5624    6    0    1
 -2      2802      1440      1509      2875      8430      2382      8515      3297      8705      9033
 -1      5625    6    0    1
 -2      1486      2779      2920      2717      9012      3485      8342      8201      3487      3486
 -1      5626    6    0    1
 -2      1627      1486      2717      1424      2193      8201      8274      2192      2194      8911
 -1      5627    6    0    1
 -2      1609      4744      2902      4745      9006      9005      7762      8891      4887      8890
 -1      5628    6    0    1
 -2      2733      2961      1440      2875      3682      8575      7941      3676      3683      8705
 -1      5629    6    0    1
 -2      6378      6363       893      6915      6449      6448      6442      9052      8783      7409
 -1      5630    6    0    1
 -2      2778      2716      2921      1423      3471      3470      3469      9025      8925      8263
 -1      5631    6    0    1
 -2      1423      1485      2921      2778      2178      8336      8263      9025      9024      3469
 -1      5632    6    0    1
 -2      2804      1471      1599      2764      8270      2631      9044      3923      8659      9018
 -1      5633    6    0    1
 -2      2766      2960      1473      1424      3483      8623      8807      8808      8478      2189
 -1      5634    6    0    1
 -2      2730      2896      1437      2840      3649      8845      8885      3652      3557      7781
 -1      5635    6    0    1
 -2      2882      2794      2727      1434      3191      3611      3613      8846      8790      8791
 -1      5636    6    0    1
 -2      1658      2951       317      6927      8820      8590      1924      8498      8785      7567
 -1      5637    6    0    1
 -2      1418      1640      2939      1646      2104      7655      9008      2106      2108      7715
 -1      5638    6    0    1
 -2      1679      1603      1477      2972      2272      2653      2341      7534      8317      8312
 -1      5639    6    0    1
 -2      1091      2905      1092      1612      8835      7800      1154      8836      7872      8344
 -1      5640    6    0    1
 -2      2894      2839      1438      2731      3543      7780      8403      3660      3663      8889
 -1      5641    6    0    1
 -2      2814      1611      2729      2904      9053      8809      3636      3637      8595      3638
 -1      5642    6    0    1
 -2      2989      2864      2775      1571      3139      3962      3961      7953      8733      8495
 -1      5643    6    0    1
 -2      2882      2794      1501       300      3191      8764      8713      8714      8707      1897
 -1      5644    6    0    1
 -2      2882       435      2794       300      3185      3190      3191      8714      6991      8707
 -1      5645    6    0    1
 -2      1676      2892      1427      1599      8301      8292      2243      2244      8844      2236
 -1      5646    6    0    1
 -2      2894      2767      1513      1474      3935      8369      9054      8611      8673      2641
 -1      5647    6    0    1
 -2      2728      2912      2801      1619      3621      3161      3630      9056      9055      9057
 -1      5648    6    0    1
 -2      2818      1483      2922      1629      9058      8305      3825      8238      2161      7922
 -1      5649    6    0    1
 -2      1513      1438      1586      2879      2365      2360      2022      8988      9059      8990
 -1      5650    6    0    1
 -2      2873      1580      2734      2805      9049      8685      3685      3288      8686      3684
 -1      5651    6    0    1
 -2      1441      1580      1512      2805      2392      1995      2391      8479      8686      8492
 -1      5652    6    0    1
 -2      1598      2891      1113      1498      8661      9060      9061      1748      8852      9062
 -1      5653    6    0    1
 -2      1677      1601      2894      1428      2258      8839      8307      2257      2250      8285
 -1      5654    6    0    1
 -2      2983      1494      1449      2787      8704      2464      8554      3758      8827      8826
 -1      5655    6    0    1
 -2      2792      4661      1499      2889      8681      8680      8418      3199      9045      8522
 -1      5656    6    0    1
 -2      6890      5598      6908      6914      8789      8165      8110      7363      8166      7502
 -1      5657    6    0    1
 -2      4743      1584      1497      2877      9064      2053      9063      9065      7982      9066
 -1      5658    6    0    1
 -2      6364      6382      6915      6940      6455      7408      9067      9068      7644      7590
 -1      5659    6    0    1
 -2      2965      1434      2874      1581      8509      8728      3173      8824      2325      7927
 -1      5660    6    0    1
 -2      1511      1686      1471      2804      2016      2632      2630      8780      8271      8270
 -1      5661    6    0    1
 -2      2910      2825      2775      1482      3722      3960      3439      7723      8002      8396
 -1      5662    6    0    1
 -2      2854      1660      2715      1422      8337      8402      3462      8315      2159      8966
 -1      5663    6    0    1
 -2      2859      2780      1487      2934      3977      8308      8500      3798      3499      7480
 -1      5664    6    0    1
 -2      1462      2901      1608      2803      8939      7758      2575      9069      3386      8440
 -1      5665    6    0    1
 -2      6906      5087      5123      6913      7903      5464      8928      7965      8163      8954
 -1      5666    6    0    1
 -2      2879      1438      1471      2764      9059      2362      8994      3653      8222      8659
 -1      5667    6    0    1
 -2      1601      1513      2894      1438      2367      9054      8839      2366      2365      8403
 -1      5668    6    0    1
 -2      2804      1439      1585      2878      9070      2371      8976      3306      9071      8979
 -1      5669    6    0    1
 -2       298      2944      1357      1651      8309      9072      7716      1891      7807      9073
 -1      5670    6    0    1
 -2      1634      1497      1584      2877      2709      2053      2610      7983      9066      7982
 -1      5671    6    0    1
 -2      2927      1497      1634      2877      9074      2709      7748      3903      9066      7983
 -1      5672    6    0    1
 -2      1436      2729      1611      1548      8964      8809      2344      2348      7883      2286
 -1      5673    6    0    1
 -2      1700      1079      2861      1568      8019      8185      8186      1828      9075      8734
 -1      5674    6    0    1
 -2      5641       436      5577      6922      9076      9051      6016      9077      7001      8416
 -1      5675    6    0    1
 -2      1709      1115      2869      1576      7887      8096      7777      1765      9078      8814
 -1      5676    6    0    1
 -2      5165      5094      6896      6917      5510      7438      9079      9080      7535      7516
 -1      5677    6    0    1
 -2      2716      2853      2957      1423      3478      3479      3468      8925      8353      8456
 -1      5678    6    0    1
 -2      4728      1635      4712      2928      8247      8765      4776      8249      7510      8767
 -1      5679    6    0    1
 -2      2960      2717      1558      1424      3484      8354      8477      8478      8911      2201
 -1      5680    6    0    1
 -2      1699      1481      1520      2813      2665      2664      1962      8206      8903      8333
 -1      5681    6    0    1
 -2      2821      2919      1487      2780      3801      7549      8464      3975      3496      8308
 -1      5682    6    0    1
 -2      5628      6374      5605      6890      9081      7150      5818      9082      7152      7151
 -1      5683    6    0    1
 -2      2739      2866      1656      1573      3730      8318      7863      8358      8893      2444
 -1      5684    6    0    1
 -2      2950      1657      1496      2900      7685      2100      8815      3895      7686      9083
 -1      5685    6    0    1
 -2      2728      2872      2800      1435      3626      3412      3627      9019      8188      8268
 -1      5686    6    0    1
 -2      2821      1487      2996      2780      8464      8443      3106      3975      8308      3976
 -1      5687    6    0    1
 -2      5617      5577      6907      6922      6014      9084      8098      8540      8416      8542
 -1      5688    6    0    1
 -2      1526      1485      2921      1628      2676      8336      8493      2524      2177      8262
 -1      5689    6    0    1
 -2      4712      1635      1503      2796      8765      1946      9085      8766      7818      8345
 -1      5690    6    0    1
 -2      5582      4036      6902      6941      9087      9086      8198      9089      9088      7862
 -1      5691    6    0    1
 -2      1696      2825      1532      1482      8001      8710      1849      2668      8002      2667
 -1      5692    6    0    1
 -2      1098      2997      2823      1530      8093      3097      9090      8094      7796      8139
 -1      5693    6    0    1
 -2       298      5138       297      6897      8982      7135       306      6980      7047      7015
 -1      5694    6    0    1
 -2       432      5616       433      6897      7136      8981       441      7011      7048      6981
 -1      5695    6    0    1
 -2      1500      2793      1435      1619      9092      9091      2326      2327      9093      2328
 -1      5696    6    0    1
 -2      2977      4749      1588      2881      8518      8573      8574      3321      9094      8959
 -1      5697    6    0    1
 -2      1503      1469      1669      2762      2622      2623      1947      8343      8727      8420
 -1      5698    6    0    1
 -2      1526      2921      2819      6893      8493      3817      9095      8494      8393      9096
 -1      5699    6    0    1
 -2       906      5584      6895      6917      8874      8449      9097      8439      8450      7633
 -1      5700    6    0    1
 -2      6889      5592      6912      6943      7932      8531      7030      7372      9098      7374
 -1      5701    6    0    1
 -2      5172      6898      6904      6938      7701      7584      8528      9099      7340      7763
 -1      5702    6    0    1
 -2      2803      1608      1462      1510      8440      2575      9069      7749      2094      2574
 -1      5703    6    0    1
 -2      1096      1705      2826      1533      8107      7793      8109      9100      1795      8125
 -1      5704    6    0    1
 -2      5146      4039      5112      6926      9102      9101      5273      7228      9103      8735
 -1      5705    6    0    1
 -2      2765      2886      1512      2805      3927      8142      7889      3926      3686      8492
 -1      5706    6    0    1
 -2      1527      1486      2920      1627      2679      8342      8277      2516      2193      7812
 -1      5707    6    0    1
 -2      1087      1535      3000      2828      8104      7789      8105      9104      8092      3079
 -1      5708    6    0    1
 -2      1580      1441      2960      2734      2392      8635      8952      8685      7855      3691
 -1      5709    6    0    1
 -2      5626      5644      6897      6912      5835      9105      6965      7004      9106      7006
 -1      5710    6    0    1
 -2      6897      5166      5148      6912      8971      5357      6971      7006      8615      7007
 -1      5711    6    0    1
 -2      1480      2987      1534      1694      9108      9107      2663      2662      8011      1855
 -1      5712    6    0    1
 -2      1081      3001      2830      1537      8101      3070      9109      8102      7783      8072
 -1      5713    6    0    1
 -2      5595      6888      6905      6937      8503      8506      8504      8521      7726      8658
 -1      5714    6    0    1
 -2      1521      1436      1590      2883      2343      2338      2040      9001      9110      9003
 -1      5715    6    0    1
 -2      6907      6908      6914      6935      7498      7502      7500      8670      8112      8113
 -1      5716    6    0    1
 -2      2882       434       435       300      3186       443      3185      8714      8051      6991
 -1      5717    6    0    1
 -2      2843      2972      1436      2729      3563      8118      7811      3640      3635      8964
 -1      5718    6    0    1
 -2      2771      1575      1660      2953      9111      2417      8502      3451      8694      8340
 -1      5719    6    0    1
 -2      5022      5107      5173      6906      8914      5193      9112      8385      7775      9113
 -1      5720    6    0    1
 -2      2979      4725      1586      2879      8433      8468      8469      3312      9114      8990
 -1      5721    6    0    1
 -2      6366      5165      6896      6917      9116      9079      9115      9117      9080      7516
 -1      5722    6    0    1
 -2      1484      2909      2777      6903      8629      3422      8480      8482      8630      8484
 -1      5723    6    0    1
 -2      2723      2943      2942      1430      3576      3577      3572      9015      8941      8529
 -1      5724    6    0    1
 -2      2909      1522      1484      2777      7731      2673      8629      3422      8703      8480
 -1      5725    6    0    1
 -2      1662      2955      2816      1430      8276      3574      8716      2276      9118      8530
 -1      5726    6    0    1
 -2      2880      2742      1449      1549      3765      9119      8311      7369      8260      2473
 -1      5727    6    0    1
 -2      5560      5654      6891      6921      5892      8419      8769      9120      8348      7768
 -1      5728    6    0    1
 -2      1582      1472      1689      2875      2637      2635      2001      9035      8179      8178
 -1      5729    6    0    1
 -2      1662      2816      1523      1430      8716      7747      2281      2276      8530      2280
 -1      5730    6    0    1
 -2      2780      1487      2996      2859      8308      8443      3976      3977      8500      3103
 -1      5731    6    0    1
 -2      1096      2852      1705      1559      8193      7820      8107      9121      8715      1792
 -1      5732    6    0    1
 -2      1474      1437      2970      2730      2351      7938      8219      8672      8885      3646
 -1      5733    6    0    1
 -2      1081      2845      3001      1552      9122      3067      8101      8177      8745      7803
 -1      5734    6    0    1
 -2      6911      5083      6895      6924      9123      8872      8567      9124      8873      8857
 -1      5735    6    0    1
 -2      2969      2764      1438      2731      3656      8222      7933      3657      3655      8889
 -1      5736    6    0    1
 -2      1579      2712      1507      1419      8024      8674      2119      2114      8648      2111
 -1      5737    6    0    1
 -2      1611      1494      1690      2983      2705      2465      2295      8806      8704      7939
 -1      5738    6    0    1
 -2      1098      2857      2997      1564      9125      3094      8093      8204      8721      7826
 -1      5739    6    0    1
 -2      4713      1578      1702      2871      9126      1956      8159      8160      8738      8161
 -1      5740    6    0    1
 -2      2777      1702      1484      2871      7893      2674      8480      3968      8161      9127
 -1      5741    6    0    1
 -2       438      5587      6901      6922      9128      8973      8594      7287      8974      8541
 -1      5742    6    0    1
 -2      2715      1660      2771      1422      8402      8502      3450      8966      2159      8843
 -1      5743    6    0    1
 -2      5112      5092      6926      6938      5495      7229      8735      9130      9129      8325
 -1      5744    6    0    1
 -2      6375      5165      5108      6896      9131      5326      7098      7099      9079      7100
 -1      5745    6    0    1
 -2      1640      2933      1524      1418      7656      9132      2103      2104      9009      2102
 -1      5746    6    0    1
 -2      1514      1683      1477      2976      2034      2654      2652      8608      8606      9023
 -1      5747    6    0    1
 -2      6366      5165      6375      6896      9116      9131      6405      9115      9079      7099
 -1      5748    6    0    1
 -2      4750      4747      1514      2807      4857      9133      9134      8961      9135      9136
 -1      5749    6    0    1
 -2      2937      1570      2863      6893      8474      9137      3822      8240      8475      9138
 -1      5750    6    0    1
 -2      1439      1599      2732      2804      2377      8912      8828      9070      9044      3669
 -1      5751    6    0    1
 -2      1439      1511      1599      2804      2376      2378      2377      9070      8780      9044
 -1      5752    6    0    1
 -2      5593      5623      5654      6921      5703      6008      5890      9139      8349      8348
 -1      5753    6    0    1
 -2      1480      1529      2987      1694      2661      8008      9108      2662      1858      8011
 -1      5754    6    0    1
 -2      2879      4739      1513      2806      8989      8935      8988      3315      8937      8938
 -1      5755    6    0    1
 -2      2965      2874      1434      2727      3173      8728      8509      3615      3618      8791
 -1      5756    6    0    1
 -2      1508      2728      2801      1619      9020      3630      9021      1868      9056      9057
 -1      5757    6    0    1
 -2      1508      1435      2728      1619      2336      9019      9020      1868      2328      9056
 -1      5758    6    0    1
 -2      2716      2957      2769      1423      3468      3467      3466      8925      8456      8822
 -1      5759    6    0    1
 -2      2767      1513      2977      2806      8369      8368      3936      3934      8938      3318
 -1      5760    6    0    1
 -2      2881      1588      2977      2767      8959      8574      3321      3642      8643      3936
 -1      5761    6    0    1
 -2      1573      2866      1481      1699      8893      8924      2666      1965      8250      2665
 -1      5762    6    0    1
 -2      5584      5613      5652      6917      5677      5989      6031      8450      7517      7220
 -1      5763    6    0    1
 -2      2966       451      1506      2799      3208      6956      9140      3216      3215      7173
 -1      5764    6    0    1
 -2      2854      2834      6887      6893      3706      7458      7709      7613      7459      7460
 -1      5765    6    0    1
 -2      2717      2960      2766      1424      3484      3483      3482      8911      8478      8808
 -1      5766    6    0    1
 -2      2804      2732      1439      2878      3669      8828      9070      3306      3665      9071
 -1      5767    6    0    1
 -2      1439      1585      1511      2804      2371      2013      2376      9070      8976      8780
 -1      5768    6    0    1
 -2       300      5124      5133      6916      7209      5249      9141      6993      7211      8970
 -1      5769    6    0    1
 -2      5624      4035      5615      6926      9143      9142      5754      9144      7484      7057
 -1      5770    6    0    1
 -2      1614      1520      1481      2813      2541      2664      2140      7804      8333      8903
 -1      5771    6    0    1
 -2      1106      2864      2989      1571      9145      3139      8134      8136      8733      7953
 -1      5772    6    0    1
 -2      1607      2902      4744      2900      8035      9005      9007      7899      3359      9146
 -1      5773    6    0    1
 -2      2882      2727      2795      1434      3613      3614      3187      8846      8791      8711
 -1      5774    6    0    1
 -2      1662      1498      2955      1430      2277      9147      8276      2276      2273      9118
 -1      5775    6    0    1
 -2      6905      5640      5595      6937      7146      5831      8504      8658      8657      8521
 -1      5776    6    0    1
 -2      4750      1514      1588      2807      9134      2031      8958      8961      9136      8962
 -1      5777    6    0    1
 -2      4751      1585      1687      2878      9148      2010      8327      8377      8979      8378
 -1      5778    6    0    1
 -2      5080      5140      6902      6914      5387      9149      7945      7946      9150      7677
 -1      5779    6    0    1
 -2      2787      1605      1449      2742      8355      2462      8826      3757      8356      9119
 -1      5780    6    0    1
 -2      6910      5083      5102      6924      8871      5418      7081      7352      8873      7351
 -1      5781    6    0    1
 -2      6891      4028      6921      6941      7764      7767      7768      7861      9151      8351
 -1      5782    6    0    1
 -2      2882      1501      2794      1434      8713      8764      3191      8846      2318      8790
 -1      5783    6    0    1
 -2      6360      6361      6376      6896      6474      6440      6435      7719      7881      7649
 -1      5784    6    0    1
 -2      2749      2854      2937      6893      3820      3461      3821      7612      7613      8240
 -1      5785    6    0    1
 -2      1456      1644      1561      6893      2528      2168      2527      7611      8239      7610
 -1      5786    6    0    1
 -2      5643      5586      6896      6928      5804      9152      7648      7651      8855      7102
 -1      5787    6    0    1
 -2      6376      5643      6360      6896      7650      8553      6435      7649      7648      7719
 -1      5788    6    0    1
 -2      1464      2933      1524      1640      9031      9132      2592      2591      7656      2103
 -1      5789    6    0    1
 -2      5578      5590      5634      6926      6017      5975      6018      8323      8856      8324
 -1      5790    6    0    1
 -2      5081      6899      6910      6933      7847      7051      7846      9153      7046      8086
 -1      5791    6    0    1
 -2       452       317      6715      1034      7144      7566      7565      7142      6947      6731
 -1      5792    6    0    1
 -2      4056      5017      5019      5012      8748      5054      9154      8747      5064      5067
 -1      5793    6    0    1
 -2      1476      2870      1664      2957      8653      8810      2174      8576      3701      8457
 -1      5794    6    0    1
 -2      2770      2729      1436      2972      3633      8964      9017      3634      3635      8118
 -1      5795    6    0    1
 -2      4667       439      6919      6920      7694      7699      7697      8921      9155      8920
 -1      5796    6    0    1
 -2      6914      5140      6902      6919      9150      9149      7677      7672      9156      7679
 -1      5797    6    0    1
 -2      5644      6897      6912      6916      9105      7006      9106      9157      6983      7190
 -1      5798    6    0    1
 -2      2896      1514      2807      2730      8995      9136      3648      3649      9158      3647
 -1      5799    6    0    1
 -2      1514      2896      1437      2730      8995      8845      2354      9158      3649      8885
 -1      5800    6    0    1
 -2      2864      2938      2775      1571      3830      3441      3962      8733      8050      8495
 -1      5801    6    0    1
 -2      2923      1505      1417      1630      8823      2085      8454      7926      2089      2088
 -1      5802    6    0    1
 -2      1431      1611      2983      2904      2285      8806      7845      7834      8595      3588
 -1      5803    6    0    1
 -2      1578      1484      1702      2871      2675      2674      1956      8738      9127      8161
 -1      5804    6    0    1
 -2      5585      5661      5636      6892      5888      6001      5668      7654      8548      7122
 -1      5805    6    0    1
 -2      5642      5560      6892      6921      5883      9159      7555      7553      9120      7554
 -1      5806    6    0    1
 -2      5615      4032      5588      6933      9161      9160      5757      7058      9162      8082
 -1      5807    6    0    1
 -2      2807      1514      1588      2730      9136      2031      8962      3647      9158      9004
 -1      5808    6    0    1
 -2      1514      1437      1588      2730      2354      2349      2031      9158      8885      9004
 -1      5809    6    0    1
 -2      2883      4716      1521      2814      9002      9000      9001      3333      9163      9164
 -1      5810    6    0    1
 -2      6381      6364      6915      6940      6423      9067      8226      8229      9068      7590
 -1      5811    6    0    1
 -2      4725      2804      1686      1511      8431      8271      8432      9165      8780      2016
 -1      5812    6    0    1
 -2      2767      2881      1588      2730      3642      8959      8643      3644      3643      9004
 -1      5813    6    0    1
 -2      5165      5135      5094      6917      5321      5509      5510      9080      9166      7535
 -1      5814    6    0    1
 -2      2789      1610      2755      2903      9168      9167      3865      3364      9169      3864
 -1      5815    6    0    1
 -2      1438      1513      2894      2806      2365      9054      8403      9170      8938      3659
 -1      5816    6    0    1
 -2      2806      2894      1438      2731      3659      8403      9170      3658      3660      8889
 -1      5817    6    0    1
 -2      5096      5127      6909      6918      5519      7185      9171      9172      7186      7187
 -1      5818    6    0    1
 -2      4727      4712      1503      2796      4773      9085      8984      9173      8766      8345
 -1      5819    6    0    1
 -2      4661      1596      1499      2889      9047      1906      8680      9045      8536      8522
 -1      5820    6    0    1
 -2      2772      2801      2986      1508      3951      3160      3952      8461      9021      8266
 -1      5821    6    0    1
 -2      2806      1438      2879      2731      9170      9059      3315      3658      8889      3654
 -1      5822    6    0    1
 -2      2879      1513      1438      2806      8988      2365      9059      3315      8938      9170
 -1      5823    6    0    1
 -2      4732      2988      1519      2812      8380      8379      8381      9174      3264      8429
 -1      5824    6    0    1
 -2      6902      5618      5558      6914      7678      5866      7562      7677      7669      7989
 -1      5825    6    0    1
 -2      5118      5088      5157      6888      5472      5469      5371      7524      8049      7987
 -1      5826    6    0    1
 -2      5596      5635      5566      6888      5848      5948      5950      7130      8677      6997
 -1      5827    6    0    1
 -2      5564      5592      6889      6943      5934      7932      7588      9175      9098      7372
 -1      5828    6    0    1
 -2      5644      5579      6897      6916      6020      7570      9105      9157      7571      6983
 -1      5829    6    0    1
 -2      1487      2934      1566      2859      7480      7770      2684      8500      3798      8709
 -1      5830    6    0    1
 -2      6902      5104      4052      6919      9178      9176      9177      7679      9179      9180
 -1      5831    6    0    1
 -2      4727      1503      2962      2796      8984      8501      8983      9173      8345      3240
 -1      5832    6    0    1
 -2      5590      4043      6926      6938      8719      9181      8856      8116      8720      8325
 -1      5833    6    0    1
 -2      1464      2940      1498      1647      9183      9182      2588      2590      9026      2274
 -1      5834    6    0    1
 -2      6895      5561      6911      6924      8569      8568      8567      8857      9184      9124
 -1      5835    6    0    1
 -2      2979      1471      2879      1586      8273      8994      3312      8469      2361      8990
 -1      5836    6    0    1
 -2      1647      2940      1498      1430      9026      9182      2274      2275      9185      2273
 -1      5837    6    0    1
 -2      1626      2821      1487      1528      7708      8464      2204      2508      8171      2682
 -1      5838    6    0    1
 -2      2965      1355      1502      1672      9186      8915      8508      8510      9187      1879
 -1      5839    6    0    1
 -2      1656      2866      1481      1573      8318      8924      2143      2444      8893      2666
 -1      5840    6    0    1
 -2      1357       433      2944       298      7411      3184      9072      7716      6979      8309
 -1      5841    6    0    1
 -2      2772      2872      2801      1508      3407      3629      3951      8461      8189      9021
 -1      5842    6    0    1
 -2      2960      1580      1473      1667      8952      2640      8623      8476      2399      2190
 -1      5843    6    0    1
 -2      4033      5113      6911      6924      9190      9188      9189      9192      9191      9124
 -1      5844    6    0    1
 -2      5614      5565      5604      6913      5937      5944      5691      8412      7966      9193
 -1      5845    6    0    1
 -2      1487      2996      1528      2821      8443      7991      2682      8464      3106      8171
 -1      5846    6    0    1
 -2      2927      1497      2971      1678      9074      8708      3601      8736      2470      8625
 -1      5847    6    0    1
 -2      4743      4718      1584      2877      4881      8701      9064      9065      8993      7982
 -1      5848    6    0    1
 -2      2793       169      1500      6930      9195      9194      9092      9197      9196      9198
 -1      5849    6    0    1
 -2      1462      1620      1496      2913      2573      2098      2572      9199      8972      9200
 -1      5850    6    0    1
 -2      5084      5114      5166      6912      5434      5349      5437      7029      7292      8615
 -1      5851    6    0    1
 -2      1462      2901      2755      1574      8939      3868      9201      2578      7239      8940
 -1      5852    6    0    1
 -2      5628      6380      6908      6940      9204      9202      9203      9206      9205      7422
 -1      5853    6    0    1
 -2      2976      1514      4740      2807      8608      8604      8607      3327      9136      9207
 -1      5854    6    0    1
 -2      1482      1532      2910      2825      2667      7957      7723      8002      8710      3722
 -1      5855    6    0    1
 -2      2966      1506       451       316      9140      6956      3208      9208      1921      7331
 -1      5856    6    0    1
 -2      2777      1484      2948      2871      8480      8481      3424      3968      9127      3838
 -1      5857    6    0    1
 -2      5626      5644      5579      6897      5835      6020      6024      6965      9105      7570
 -1      5858    6    0    1
 -2      5148      5101      5166      6897      5546      5542      5357      6971      7255      8971
 -1      5859    6    0    1
 -2      4052       715      6902      6919      4076      8077      9177      9180      8117      7679
 -1      5860    6    0    1
 -2      2913      1620      1496      1418      8972      2098      9200      9209      2097      2099
 -1      5861    6    0    1
 -2      1505      1417      2798      2923      2085      8460      8793      8823      8454      3381
 -1      5862    6    0    1
 -2      6928      5586      6896      6945      8855      9152      7102      8692      9210      7464
 -1      5863    6    0    1
 -2      2956      1498      1662      1663      9211      2277      7911      8275      1750      2587
 -1      5864    6    0    1
 -2      2956      1498      2955      1662      9211      9147      3880      7911      2277      8276
 -1      5865    6    0    1
 -2       301       436       302      6922      6985      8947       310      7003      7001      8636
 -1      5866    6    0    1
 -2      4028      5623      6921      6941      9212      8349      7767      9151      8350      8351
 -1      5867    6    0    1
 -2      2950      1524      2817      1418      8410      7949      3398      8816      2102      9213
 -1      5868    6    0    1
 -2      1607      1496      1657      2900      2069      2100      2602      7899      9083      7686
 -1      5869    6    0    1
 -2      5653      5582      6902      6941      6030      8198      6960      7860      9089      7862
 -1      5870    6    0    1
 -2      1601      2894      1474      1677      8839      8611      2642      2258      8307      2352
 -1      5871    6    0    1
 -2      2868      1443      1575      2953      8452      2410      8963      3710      8339      8694
 -1      5872    6    0    1
 -2      5084      5133      5124      6916      5438      5249      5431      7189      8970      7211
 -1      5873    6    0    1
 -2      2977      1513      4749      2806      8368      8516      8518      3318      8938      9214
 -1      5874    6    0    1
 -2      1436      1477      1590      2883      2340      2339      2338      9110      9022      9003
 -1      5875    6    0    1
 -2      5155      5103      5086      6940      5453      5452      5454      8773      9215      8131
 -1      5876    6    0    1
 -2      2933      2817      1524      1418      3395      7949      9132      9009      9213      2102
 -1      5877    6    0    1
 -2      5155      5086      5116      6889      5454      5455      5359      8772      7823      7088
 -1      5878    6    0    1
 -2      5564      5633      5594      6889      5932      5836      5933      7588      6975      7809
 -1      5879    6    0    1
 -2      2954      4665      1499      2792      8755      8679      8451      3375      8682      8418
 -1      5880    6    0    1
 -2      1541      1561      6887      6893      2414      7710      7457      7461      7610      7460
 -1      5881    6    0    1
 -2      1574      2755      1610      2867      8940      9167      2072      7759      3871      9216
 -1      5882    6    0    1
 -2      1566      1487      2859      1703      2684      8500      8709      1810      2683      8133
 -1      5883    6    0    1
 -2       315      6732       316      6930      8555      8363       322      8559      8366      8367
 -1      5884    6    0    1
 -2      6732       450       451      6930      8560       457      8364      8366      8562      8365
 -1      5885    6    0    1
 -2      5595      5640      5563      6937      5831      5926      5925      8521      8657      8067
 -1      5886    6    0    1
 -2      2764      2892      1676      1599      3924      8301      8221      9018      8844      2244
 -1      5887    6    0    1
 -2      1668      1472      1582      2875      2636      2637      2390      8838      8179      9035
 -1      5888    6    0    1
 -2      6039      6033      6037      6932      6084      6086      6085      9218      9217      9219
 -1      5889    6    0    1
 -2      2728      2800      2974      1435      3627      3628      3625      9019      8268      8797
 -1      5890    6    0    1
 -2      6895      5083      6911      6932      8872      9123      8567      8570      9220      8572
 -1      5891    6    0    1
 -2      4026      4006      5659      6924      4211      9221      7321      7487      8969      7493
 -1      5892    6    0    1
 -2      6039      6037      6925      6932      6085      9222      8641      9218      9219      9223
 -1      5893    6    0    1
 -2      5080      5175      5131      6939      5392      5391      5384      8467      9224      7430
 -1      5894    6    0    1
 -2      4719      1496      1607      2900      9226      2069      9225      9227      9083      7899
 -1      5895    6    0    1
 -2      5581      6364      6380      6940      9229      6453      9228      8597      9068      9205
 -1      5896    6    0    1
 -2      2985      1518      4714      2811      8374      8372      8376      3273      8401      9230
 -1      5897    6    0    1
 -2      2742      1449      2983      2880      9119      8554      3759      3765      8311      3586
 -1      5898    6    0    1
 -2      2742      2971      1449      1549      3763      8642      9119      8260      8459      2473
 -1      5899    6    0    1
 -2      4717      4743      1497      2790      4878      9063      9231      9233      9232      9234
 -1      5900    6    0    1
 -2      2804      1599      2892      2764      9044      8844      3670      3923      9018      3924
 -1      5901    6    0    1
 -2      2711      2789      2950      1418      3392      3393      3394      9236      9235      8816
 -1      5902    6    0    1
 -2      1498      2891      2757      1464      8852      3882      9237      2588      8853      9238
 -1      5903    6    0    1
 -2      1519      1604      2771      1478      2439      7870      8632      2655      2155      8842
 -1      5904    6    0    1
 -2      2883      1521      1436      2814      9001      2343      9110      3333      9164      9239
 -1      5905    6    0    1
 -2      2883      1436      2729      2814      9110      8964      3632      3333      9239      3636
 -1      5906    6    0    1
 -2      1471      1586      1438      2879      2361      2360      2362      8994      8990      9059
 -1      5907    6    0    1
 -2      2883      1436      1477      2770      9110      2340      9022      3631      9017      9016
 -1      5908    6    0    1
 -2      6909      5131      5096      6918      7429      5383      9171      7187      7580      9172
 -1      5909    6    0    1
 -2      2933      1524      2817      1464      9132      7949      3395      9031      2592      9240
 -1      5910    6    0    1
 -2      1521      1611      1436      2814      2345      2344      2343      9164      9053      9239
 -1      5911    6    0    1
 -2      1436      1611      2729      2814      2344      8809      8964      9239      9053      3636
 -1      5912    6    0    1
 -2      4016      4038      5151      6911      4226      9241      8243      8242      9242      7741
 -1      5913    6    0    1
 -2      4038      4016      5629      6911      4226      8471      9243      9242      8242      8470
 -1      5914    6    0    1
 -2      2948      1484      1578      2871      8481      2675      8286      3838      9127      8738
 -1      5915    6    0    1
 -2      2967      1595      1470      2763      7623      2628      8115      3667      8691      8965
 -1      5916    6    0    1
 -2      6366      5135      5165      6917      9244      5321      9116      9117      9166      9080
 -1      5917    6    0    1
 -2      6034      6038      6036      6925      6092      6091      6090      8759      8758      8900
 -1      5918    6    0    1
 -2      2958       828      2867      6931      9245      8894      3026      9246      8896      8316
 -1      5919    6    0    1
 -2      6891      6902      6939      6941      6959      7928      7432      7861      7862      9247
 -1      5920    6    0    1
 -2      2742      1449      2971      2790      9119      8642      3763      3760      9248      3762
 -1      5921    6    0    1
 -2      2971      1449      1497      2790      8642      2467      8708      3762      9248      9234
 -1      5922    6    0    1
 -2       302       436       437      6922      8947       445      8535      8636      7001      7729
 -1      5923    6    0    1
 -2      5018      5646      6913      6946      9250      8599      9249      9251      8601      8290
 -1      5924    6    0    1
 -2      2968      1605      2742      1449      8583      8356      3761      8840      2462      9119
 -1      5925    6    0    1
 -2      1356      1357      2944      1651      1375      9072      8723      8724      9073      7807
 -1      5926    6    0    1
 -2      5177       299      5133      6916      7259      9252      5252      7094      7073      8970
 -1      5927    6    0    1
 -2      2728      2793      2912      1619      3620      3619      3621      9056      9093      9055
 -1      5928    6    0    1
 -2      4005      5179      6921      6923      9255      9253      9254      9257      9256      7557
 -1      5929    6    0    1
 -2      1498      2940      2723      1430      9182      3568      9258      2273      9185      9015
 -1      5930    6    0    1
 -2      1513      2894      1474      1601      9054      8611      2641      2367      8839      2642
 -1      5931    6    0    1
 -2      2890      2808      1473      2766      3695      8610      7755      3481      3931      8807
 -1      5932    6    0    1
 -2      2811      1476      2893      2769      8628      7802      3704      3942      8821      3465
 -1      5933    6    0    1
 -2      5139      5109      6901      6922      5476      9259      8153      8933      9260      8541
 -1      5934    6    0    1
 -2       828      1665      1574      6931      9261      1733      8895      8896      9262      7538
 -1      5935    6    0    1
 -2      1442      2870      1664      1577      8520      8810      2407      2401      8992      2408
 -1      5936    6    0    1
 -2      2973      2787      1494      2814      3999      8827      8602      3336      3997      9263
 -1      5937    6    0    1
 -2      6362      6359      6373      6890      6470      6427      6430      7217      9264      7227
 -1      5938    6    0    1
 -2      1439      1470      1585      2878      2373      2372      2371      9071      8910      8979
 -1      5939    6    0    1
 -2      2867      2755      1610      2903      3871      9167      9216      3365      3864      9169
 -1      5940    6    0    1
 -2      5591      4033      6911      6924      9266      9189      9265      9267      9192      9124
 -1      5941    6    0    1
 -2      2728      2974      2799      1435      3625      3624      3623      9019      8797      8886
 -1      5942    6    0    1
 -2      2803      1462      1620      1510      9069      2573      8777      7749      2574      2576
 -1      5943    6    0    1
 -2      5124      5163      5099      6922      5246      5538      5430      7821      9268      8931
 -1      5944    6    0    1
 -2      2988      1478      1519      2771      8656      2655      8379      3949      8842      8632
 -1      5945    6    0    1
 -2      4023      4056      5012      6946      4315      8747      9269      9270      8750      8751
 -1      5946    6    0    1
 -2      5585      5642      6892      6906      5886      7555      7654      8202      8066      7424
 -1      5947    6    0    1
 -2      5089      5140      6914      6919      5480      9150      8622      9271      9156      7672
 -1      5948    6    0    1
 -2      2771      1519      2812      2897      8632      8429      3948      3449      7854      3731
 -1      5949    6    0    1
 -2      2973      1521      4720      2814      8726      8725      8588      3336      9164      9272
 -1      5950    6    0    1
 -2      5161      5092      6899      6933      5500      7753      9273      9274      7230      7046
 -1      5951    6    0    1
 -2      2911      2822      2773      1618      3713      3954      3416      8391      8392      9275
 -1      5952    6    0    1
 -2      2878      2732      1470      2763      3665      8114      8910      3664      3666      8965
 -1      5953    6    0    1
 -2      5179      5105      6921      6923      5219      8584      9253      9256      7951      7557
 -1      5954    6    0    1
 -2      6915      5093      6929      6942      8591      8689      8690      7161      8592      7247
 -1      5955    6    0    1
 -2      6914      6901      5089      6919      7897      8621      8622      7672      7898      9271
 -1      5956    6    0    1
 -2      4716      4741      1521      2814      4866      9276      9000      9163      9277      9164
 -1      5957    6    0    1
 -2      5596      5635      6888      6945      5848      8677      7130      7132      8693      7134
 -1      5958    6    0    1
 -2      1462      2789      2755      2913      9278      3865      9201      9199      3390      3866
 -1      5959    6    0    1
 -2      5015      5168      5014      6946      8665      9279      5075      8667      8291      9280
 -1      5960    6    0    1
 -2      6910      5580      5638      6924      7083      5899      7467      7352      7492      8858
 -1      5961    6    0    1
 -2      1111      2986      2801      1508      8387      3160      9281      8462      8266      9021
 -1      5962    6    0    1
 -2      1668      1582      1440      2875      2390      2383      2389      8838      9035      8705
 -1      5963    6    0    1
 -2      6913      5649      4041      6946      9283      9282      9040      8290      9284      9042
 -1      5964    6    0    1
 -2      5151      4038      5113      6911      9241      9285      5294      7741      9242      9188
 -1      5965    6    0    1
 -2      5591      4038      5629      6911      9286      9243      5772      9265      9242      8470
 -1      5966    6    0    1
 -2      2988      4732      1575      2868      8380      8551      8552      3267      9287      8963
 -1      5967    6    0    1
 -2      5630      5605      5574      6909      5966      5997      5863      7398      7155      7472
 -1      5968    6    0    1
 -2      5096      5127      5152      6909      5519      5488      5386      9171      7185      7360
 -1      5969    6    0    1
 -2      2889      1596       303      6920      8536      1902      7681      8768      8802      7284
 -1      5970    6    0    1
 -2      2723      2816      2955      1430      3573      3574      3570      9015      8530      9118
 -1      5971    6    0    1
 -2      4982      1024      1023      4981      9289      1026      9288      5001      9290      9291
 -1      5972    6    0    1
 -2      1678      1497      1634      2927      2470      2709      2308      8736      9074      7748
 -1      5973    6    0    1
 -2      5614      5604      4013      6913      5691      9292      8613      8412      9193      8612
 -1      5974    6    0    1
 -2      1089      1086      2885      1592      1142      7402      8746      8663      8190      7564
 -1      5975    6    0    1
 -2         5      4054       272      6894      4058      4057       274      7268      8063      7265
 -1      5976    6    0    1
 -2      4053         6       272      6894      4065       273      4064      8060      7264      7265
 -1      5977    6    0    1
 -2      5582      5622      4036      6941      5709      9293      9087      9089      9294      9088
 -1      5978    6    0    1
 -2      2985      2870      1476      2769      3276      8653      8655      3943      3944      8821
 -1      5979    6    0    1
 -2      1574      1610      4754      2867      2072      9295      9296      7759      9216      9297
 -1      5980    6    0    1
 -2      2811      2985      1476      2769      3273      8655      8628      3942      3943      8821
 -1      5981    6    0    1
 -2      1500       169      2793      1619      9194      9195      9092      2327      9298      9093
 -1      5982    6    0    1
 -2      4711      1669      2962      4727      7997      7996      7998      4770      8985      8983
 -1      5983    6    0    1
 -2      1462      2755      2901      2803      9201      3868      8939      9069      3867      3386
 -1      5984    6    0    1
 -2      1498      2757      2940      1464      9237      3883      9182      2588      9238      9183
 -1      5985    6    0    1
 -2      2787      1449      2983      2742      8826      8554      3758      3757      9119      3759
 -1      5986    6    0    1
 -2      5111      4040      5151      6925      9300      9299      5297      8581      9301      7743
 -1      5987    6    0    1
 -2      4740      1590      1683      2883      9302      2037      8605      8955      9003      8956
 -1      5988    6    0    1
 -2      2812      2988      1519      2771      3264      8379      8429      3948      3949      8632
 -1      5989    6    0    1
 -2       301      5163      5124      6922      9303      5246      7365      7003      9268      7821
 -1      5990    6    0    1
 -2      2790      2742      1449      2968      3760      9119      9248      3347      3761      8840
 -1      5991    6    0    1
 -2      2790      1449      1497      2968      9248      2467      9234      3347      8840      8957
 -1      5992    6    0    1
 -2      1498      2723      2955      1430      9258      3570      9147      2273      9015      9118
 -1      5993    6    0    1
 -2      1044      1387      1386      1043      9305      1409      9304      1046      9306      9307
 -1      5994    6    0    1
 -2      4746      2789      1496      4719      9310      9308      9309      4893      9311      9226
 -1      5995    6    0    1
 -2      1437      1474      1588      2730      2351      2350      2349      8885      8672      9004
 -1      5996    6    0    1
 -2      1599      1511      1471      2804      2378      2630      2631      9044      8780      8270
 -1      5997    6    0    1
 -2      1113      2791      1090      1498      9313      9312      1148      9062      9314      9315
 -1      5998    6    0    1
 -2      2766      2808      1473      2984      3931      8610      8807      3932      3282      8684
 -1      5999    6    0    1
 -2      2988      1575      1478      2771      8552      2657      8656      3949      9111      8842
 -1      6000    6    0    1
 -2      1355      1502      2795      2965      8915      8194      8916      9186      8508      3172
 -1      6001    6    0    1
 -2      2939      2711      2933      1418      3400      3397      3401      9008      9236      9009
 -1      6002    6    0    1
 -2      1476      1600      1518      2811      2171      2412      2649      8628      7828      8401
 -1      6003    6    0    1
 -2      1435      2793      2728      1619      9091      3620      9019      2328      9093      9056
 -1      6004    6    0    1
 -2      1439      2732      1470      2878      8828      8114      2373      9071      3665      8910
 -1      6005    6    0    1
 -2      2966       316       451      6930      9208      7331      3208      9316      8367      8365
 -1      6006    6    0    1
 -2      1473      2808      1597      1515      8610      7810      2187      2638      8446      2403
 -1      6007    6    0    1
 -2      4741      4720      1521      2814      4869      8725      9276      9277      9272      9164
 -1      6008    6    0    1
 -2      2873      2766      1473      2984      3933      8807      8702      3285      3932      8684
 -1      6009    6    0    1
 -2      4742      1605      4720      2898      8618      8586      4872      8619      8357      8587
 -1      6010    6    0    1
 -2      2885      2757      2891      1464      3887      3882      3038      9027      9238      8853
 -1      6011    6    0    1
 -2      2933      2757      2885      1464      3884      3887      3888      9031      9238      9027
 -1      6012    6    0    1
 -2      5577      6900      6907      6922      8415      9317      9084      8416      7002      8542
 -1      6013    6    0    1
 -2      5581      6382      6364      6940      8596      6455      9229      8597      7644      9068
 -1      6014    6    0    1
 -2      2711      2913      2789      1418      3391      3390      3392      9236      9209      9235
 -1      6015    6    0    1
 -2      5630      5568      5605      6890      5963      5965      5966      7397      8788      7151
 -1      6016    6    0    1
 -2      5152      5127      5090      6890      5488      5487      5485      7361      7184      8786
 -1      6017    6    0    1
 -2      5609      5654      6891      6936      5893      8419      7453      7454      8771      7166
 -1      6018    6    0    1
 -2      5117      5088      5118      6888      5471      5472      5446      9318      8049      7524
 -1      6019    6    0    1
 -2      5566      5595      5596      6888      5949      5923      5950      6997      8503      7130
 -1      6020    6    0    1
 -2      4723      1580      1691      2873      9319      1992      8543      8544      9049      8545
 -1      6021    6    0    1
 -2      1618      2773      2911      6903      9275      3416      8391      8649      9320      8650
 -1      6022    6    0    1
 -2      2789      2755      1610      1462      3865      9167      9168      9278      9201      2571
 -1      6023    6    0    1
 -2      1590      1477      1683      2883      2339      2654      2037      9003      9022      8956
 -1      6024    6    0    1
 -2      2876      2726      2797      6931      3610      3609      3608      7304      8122      8407
 -1      6025    6    0    1
 -2      5093      5154      6905      6929      5345      9321      8687      8689      9322      8688
 -1      6026    6    0    1
 -2      2867      1610      4754      2903      9216      9295      9297      3365      9169      9323
 -1      6027    6    0    1
 -2      2802      1470      1595      2763      9324      2628      7877      3920      8965      8691
 -1      6028    6    0    1
 -2      2764      2879      1438      2731      3653      9059      8222      3655      3654      8889
 -1      6029    6    0    1
 -2      2894      1513      2767      2806      9054      8369      3935      3659      8938      3934
 -1      6030    6    0    1
 -2      1504      1433      1583      6931      2315      2317      2316      9325      8698      7734
 -1      6031    6    0    1
 -2      2883      2729      1436      2770      3632      8964      9110      3631      3633      9017
 -1      6032    6    0    1
 -2      2960      1580      2734      2873      8952      8685      3691      3692      9049      3685
 -1      6033    6    0    1
 -2      6888      5157      5118      6944      7987      5371      7524      7274      7988      7525
 -1      6034    6    0    1
 -2      5095      5138      5148      6897      5518      5517      5516      7018      7047      6971
 -1      6035    6    0    1
 -2      5616      5573      5626      6897      5996      5995      5994      7048      7023      6965
 -1      6036    6    0    1
 -2      5109       303      6901      6922      9326      8752      9259      9260      7285      8541
 -1      6037    6    0    1
 -2      4667      4663       439      6920      4707      9327      7694      8921      8919      9155
 -1      6038    6    0    1
 -2      2985      1476      1518      2811      8655      2649      8374      3273      8628      8401
 -1      6039    6    0    1
 -2      4740      1514      4747      2807      8604      9133      4860      9207      9136      9135
 -1      6040    6    0    1
 -2      5096      5131      5183      6918      5383      5417      5521      9172      7580      7579
 -1      6041    6    0    1
 -2      2983      1611      1494      2787      8806      2705      8704      3758      9328      8827
 -1      6042    6    0    1
 -2      2820      2994      2779      1527      3115      3973      3972      8184      8014      8774
 -1      6043    6    0    1
 -2      1476      1577      2870      1692      2651      8992      8653      2650      1983      8654
 -1      6044    6    0    1
 -2      6360      6370       906      6917      6434      6394      6465      7599      7598      8439
 -1      6045    6    0    1
 -2      6905      5632      5571      6942      8706      5823      8525      8527      8119      8526
 -1      6046    6    0    1
 -2      2993      2778      2819      1526      3970      3969      3124      8021      9329      9095
 -1      6047    6    0    1
 -2      2757      2791      2891      1498      3881      3041      3882      9237      9314      8852
 -1      6048    6    0    1
 -2      1581      1355      2965      1672      9330      9186      8824      1880      9187      8510
 -1      6049    6    0    1
 -2      1483      2818      2990      1525      9058      3133      8795      2670      8147      8029
 -1      6050    6    0    1
 -2      2976      2883      1477      2770      3330      9022      9023      3947      3631      9016
 -1      6051    6    0    1
 -2      5156      5130      5092      6904      5376      5499      5497      9331      7844      7752
 -1      6052    6    0    1
 -2      5608      5634      5570      6904      5853      5976      5977      8187      7772      9332
 -1      6053    6    0    1
 -2      2808      1515      1473      2984      8446      2638      8610      3282      8683      8684
 -1      6054    6    0    1
 -2      2771      2988      1575      2868      3949      8552      9111      3950      3267      8963
 -1      6055    6    0    1
 -2      2950      2789      1496      1418      3393      9308      8815      8816      9235      2099
 -1      6056    6    0    1
 -2      5634      5570      6904      6926      5976      9332      7772      8324      7308      7754
 -1      6057    6    0    1
 -2      2787      2983      1611      2904      3758      8806      9328      3998      3588      8595
 -1      6058    6    0    1
 -2      1435      2966      1506      2799      9333      9140      2330      8886      3216      7173
 -1      6059    6    0    1
 -2      4021      4043      5656      6938      4186      8718      9334      9335      8720      7339
 -1      6060    6    0    1
 -2      2913      1462      1620      2803      9199      2573      8972      3869      9069      8777
 -1      6061    6    0    1
 -2       303      1596      1706      6920      1902      1909      1908      7284      8802      8800
 -1      6062    6    0    1
 -2       438      2999      2889      6920      3201      3202      3195      7283      8805      8768
 -1      6063    6    0    1
 -2      4029      5657      5583      6923      9337      5697      9336      9338      8830      8534
 -1      6064    6    0    1
 -2      1088      2884      1086      1591      8881      7552      1139      8884      8164      8652
 -1      6065    6    0    1
 -2      5103      6381      5132      6940      9339      8228      5336      9215      8229      8230
 -1      6066    6    0    1
 -2      1595      1509      1470      2802      2385      2627      2628      7877      8515      9324
 -1      6067    6    0    1
 -2      1663      2956      1498      1090      8275      9211      1750      9341      9340      9315
 -1      6068    6    0    1
 -2      4035      4015      5146      6926      4196      9342      7485      7484      9343      7228
 -1      6069    6    0    1
 -2      1567      2779      2860      1701      9344      3974      8730      1819      8775      8173
 -1      6070    6    0    1
 -2      5083      5160      6895      6910      5421      8980      8872      8871      8833      7631
 -1      6071    6    0    1
 -2      6035      5149      6039      6925      9345      8638      6070      9346      8640      8641
 -1      6072    6    0    1
 -2      5180      5108      6896      6944      5554      7100      7815      7866      7242      7243
 -1      6073    6    0    1
 -2      6907      6885      6908      6935      9347      8251      7498      8670      8254      8112
 -1      6074    6    0    1
 -2      1485      1700      2861      1568      2677      8186      8831      2678      1828      8734
 -1      6075    6    0    1
 -2       835      5651      5585      6906      9348      5671      7653      8203      9349      8202
 -1      6076    6    0    1
 -2      2776      2863      1570      2990      3965      9137      9350      3964      3130      8832
 -1      6077    6    0    1
 -2      6902      5175      5080      6939      9351      5392      7945      7928      9224      8467
 -1      6078    6    0    1
 -2      1473      2873      1691      1580      8702      8545      2639      2640      9049      1992
 -1      6079    6    0    1
 -2      1033      6732       451       316      6744      8364      6958      7332      8363      7331
 -1      6080    6    0    1
 -2      6891      5560      6921      6936      8769      9120      7768      7166      8770      9352
 -1      6081    6    0    1
 -2      2711      2950      2817      1418      3394      3398      3396      9236      8816      9213
 -1      6082    6    0    1
 -2      4746      1610      2789      2903      9353      9168      9310      9354      9169      3364
 -1      6083    6    0    1
 -2      1687      1585      1470      2878      2010      2372      2629      8378      8979      8910
 -1      6084    6    0    1
 -2      2790      1497      2927      2877      9234      9074      4002      3345      9066      3903
 -1      6085    6    0    1
 -2      2711      2817      2933      1418      3396      3395      3397      9236      9213      9009
 -1      6086    6    0    1
 -2      2790      4743      1497      2877      9232      9063      9234      3345      9065      9066
 -1      6087    6    0    1
 -2      6890      6359      6379      6940      9264      6428      8877      8879      9355      8878
 -1      6088    6    0    1
 -2      6904      5557      5650      6945      9356      5852      7582      8041      9357      7133
 -1      6089    6    0    1
 -2      1647      1650      2943      1430      2282      7948      8946      2275      2283      8941
 -1      6090    6    0    1
 -2      6906      5123      5015      6913      8928      9358      9359      7965      8954      8666
 -1      6091    6    0    1
 -2      1478      1575      1660      2771      2657      2417      2158      8842      9111      8502
 -1      6092    6    0    1
 -2      2972      1603      1477      2896      8317      2653      8312      3565      8651      9360
 -1      6093    6    0    1
 -2      5116      5086      5114      6889      5455      5456      5435      7088      7823      7175
 -1      6094    6    0    1
 -2      5117      5088      6888      6929      5471      8049      9318      9361      8996      6998
 -1      6095    6    0    1
 -2      2980      1470      2763      2878      8909      8965      3922      3303      8910      3664
 -1      6096    6    0    1
 -2      1456      1541      1628      6893      2526      2183      2525      7611      7461      8394
 -1      6097    6    0    1
 -2      2749      2921      2834      6893      3818      3476      3819      7612      8393      7459
 -1      6098    6    0    1
 -2      5617      5587      5577      6922      5953      6015      6014      8540      8974      8416
 -1      6099    6    0    1
 -2      5625      5598      5556      6908      5844      5842      5845      7884      8165      6976
 -1      6100    6    0    1
 -2      1567      2779      2935      2860      9344      3488      8313      8730      3974      3806
 -1      6101    6    0    1
 -2      2933      2817      2757      1464      3395      3885      3884      9031      9240      9238
 -1      6102    6    0    1
 -2      1123      2801      2912      1619      9363      3161      9362      9364      9057      9055
 -1      6103    6    0    1
 -2      2940      2791      2757      1498      3566      3881      3883      9182      9314      9237
 -1      6104    6    0    1
 -2      1525      1483      2818      1629      2670      9058      8147      2532      2161      8238
 -1      6105    6    0    1
 -2      1527      2779      1486      1701      8774      9012      2679      1822      8775      2680
 -1      6106    6    0    1
 -2      5106       905      6895      6917      9367      9365      9366      9369      9368      7633
 -1      6107    6    0    1
 -2      6034      6038      4042      4022      6092      8757      8756      9371      9370      4310
 -1      6108    6    0    1
 -2      6911      5597      5561      6932      9372      5906      8568      8572      9373      8571
 -1      6109    6    0    1
 -2      2723      2791      2940      1498      3567      3566      3568      9258      9314      9182
 -1      6110    6    0    1
 -2      1111      2801      1112      1508      9281      9374      1265      8462      9021      9375
 -1      6111    6    0    1
 -2      5095      5121      5169      6894      5513      5261      5515      7016      8064      7017
 -1      6112    6    0    1
 -2      5599      5573      5647      6894      5991      5993      5739      7178      7021      7020
 -1      6113    6    0    1
 -2      1485      2778      2993      1526      9024      3970      8784      2676      9329      8021
 -1      6114    6    0    1
 -2      2763      2802      1470      2980      3920      9324      8965      3922      3300      8909
 -1      6115    6    0    1
 -2      5653      5622      5582      6941      6007      5709      6030      7860      9294      9089
 -1      6116    6    0    1
 -2      5602      5641       436      5577      5724      9076      7366      5907      6016      9051
 -1      6117    6    0    1
 -2      2787      1611      1494      2814      9328      2705      8827      3997      9053      9263
 -1      6118    6    0    1
 -2      1568      2861      1485      1643      8734      8831      2678      2521      8347      2179
 -1      6119    6    0    1
 -2      2863      1570      2937      2776      9137      8474      3822      3965      9350      3456
 -1      6120    6    0    1
 -2      6907      6885      5556      6908      9347      8306      7499      7498      8251      6976
 -1      6121    6    0    1
 -2      2778      2921      2819      1526      3469      3817      3969      9329      8493      9095
 -1      6122    6    0    1
 -2      2777      2713      2948      6903      3423      3425      3424      8484      9028      8483
 -1      6123    6    0    1
 -2      6935      5155      6889      6940      9376      8772      8253      9036      8773      7421
 -1      6124    6    0    1
 -2       906      6041      6045      6932      6057      6083      6081      9378      9377      9379
 -1      6125    6    0    1
 -2      5654      5575      5609      6891      6004      6003      5893      8419      8359      7453
 -1      6126    6    0    1
 -2      5097      5176      5131      6891      5526      5415      5525      7471      7469      7391
 -1      6127    6    0    1
 -2      5174      5081      6899      6917      5401      7847      8360      8361      7848      7054
 -1      6128    6    0    1
 -2      2820      2779      2920      1527      3972      3485      3809      8184      8774      8277
 -1      6129    6    0    1
 -2      2990      2776      2818      1483      3964      3963      3133      8795      9039      9058
 -1      6130    6    0    1
 -2      1462      2755      1610      1574      9201      9167      2571      2578      8940      2072
 -1      6131    6    0    1
 -2      5087      5136      5126      6923      5459      5213      5466      7904      9380      8700
 -1      6132    6    0    1
 -2      2976      1477      1514      2770      9023      2652      8608      3947      9016      9381
 -1      6133    6    0    1
 -2      1109      2824       119      1110      8003      3153      1255      1259      8004      1257
 -1      6134    6    0    1
 -2      1531      1110      1109       213      8006      1259      8005      1859      1350      1347
 -1      6135    6    0    1
 -2      2769      2870      1476      2957      3944      8653      8821      3467      3701      8576
 -1      6136    6    0    1
 -2      1098      2823      1099      1530      9090      8138      1202      8094      8139      8140
 -1      6137    6    0    1
 -2      2814      2787      1611      2904      3997      9328      9053      3637      3998      8595
 -1      6138    6    0    1
 -2      4732      1519      4731      2812      8381      8425      4797      9174      8429      8427
 -1      6139    6    0    1
 -2      6904      5172      5079      6944      8528      5374      9382      7638      7702      9383
 -1      6140    6    0    1
 -2      2940      2817      1524      1464      3886      7949      8945      9183      9240      2592
 -1      6141    6    0    1
 -2      1103      2820      1118      1527      9038      8180      1220      8015      8184      8182
 -1      6142    6    0    1
 -2      1116      1096      2826      1533      1193      8109      8124      8126      9100      8125
 -1      6143    6    0    1
 -2      2911      2831      2737      6903      3428      3718      3714      8650      8585      8421
 -1      6144    6    0    1
 -2      1538      1618      1444      6903      2135      2421      2424      8423      8649      8422
 -1      6145    6    0    1
 -2      1418      2939      1620      1646      9008      8776      2097      2106      7715      2107
 -1      6146    6    0    1
 -2      1567      1486      2779      1701      2681      9012      9344      1819      2680      8775
 -1      6147    6    0    1
 -2      5601      5565      6906      6913      5943      7964      9384      8953      7966      7965
 -1      6148    6    0    1
 -2       316      2966      1506      1673      9208      9140      1921      1916      9385      1923
 -1      6149    6    0    1
 -2      1101      2821      1117      1528      9037      8167      1211      7992      8171      8169
 -1      6150    6    0    1
 -2      1113      1089      2891      1598      1145      8660      9060      9061      8662      8661
 -1      6151    6    0    1
 -2      1462      1496      2789      2913      2572      9308      9278      9199      9200      3390
 -1      6152    6    0    1
 -2      1087      2828      1085      1535      9104      8088      1184      8104      8092      8090
 -1      6153    6    0    1
 -2      2973      1494      1521      2814      8602      2704      8726      3336      9263      9164
 -1      6154    6    0    1
 -2      5619       438      6901      6920      9386      8594      8208      9387      7283      8593
 -1      6155    6    0    1
 -2       303      5141      6901      6920      9389      9388      8752      7284      9390      8593
 -1      6156    6    0    1
 -2      4003      4026      5637      6910      4210      7322      9391      9392      7320      7085
 -1      6157    6    0    1
 -2      4026      4003      5159      6910      4210      9393      7318      7320      9392      7082
 -1      6158    6    0    1
 -2      2913      1496      2789      1418      9200      9308      3390      9209      2099      9235
 -1      6159    6    0    1
 -2      2993      2861      2778      1485      3121      3971      3970      8784      8831      9024
 -1      6160    6    0    1
 -2      5099      5139      6907      6922      5536      8152      9394      8931      8933      8542
 -1      6161    6    0    1
 -2      5132      5086      5103      6940      5451      5452      5336      8230      8131      9215
 -1      6162    6    0    1
 -2      1081      2830      1083      1537      9109      8068      1175      8102      8072      8070
 -1      6163    6    0    1
 -2      5021      5651       835      6906      9395      9348      5034      9396      9349      8203
 -1      6164    6    0    1
 -2      2990      1570      2776      1483      8832      9350      3964      8795      2672      9039
 -1      6165    6    0    1
 -2      2913      2755      1462      2803      3866      9201      9199      3869      3867      9069
 -1      6166    6    0    1
 -2      2802      1509      1470      2980      8515      2627      9324      3300      8330      8909
 -1      6167    6    0    1
 -2      2972      1477      2770      2896      8312      9016      3634      3565      9360      3946
 -1      6168    6    0    1
 -2      2868      1575      2771      2953      8963      9111      3950      3710      8694      3451
 -1      6169    6    0    1
 -2      1647      2943      2940      1430      8946      3575      9026      2275      8941      9185
 -1      6170    6    0    1
 -2      2960      1473      2873      2766      8623      8702      3692      3483      8807      3933
 -1      6171    6    0    1
 -2      1106      1120      2864      1571      1244      8847      9145      8136      8848      8733
 -1      6172    6    0    1
 -2      5654      5575      6891      6941      6004      8359      8419      8352      8519      7861
 -1      6173    6    0    1
 -2      5645      5577      6900      6907      5910      8415      9397      9398      9084      9317
 -1      6174    6    0    1
 -2      2804      4752      1511      4725      8781      8779      8780      8431      4842      9165
 -1      6175    6    0    1
 -2      4039      5112      6926      6938      9101      8735      9103      9399      9130      8325
 -1      6176    6    0    1
 -2       905      5142      5106      6895      9400      5201      9367      9365      9401      9366
 -1      6177    6    0    1
 -2      4726      4749      1513      2806      4851      8516      8934      8936      9214      8938
 -1      6178    6    0    1
 -2      1537      1084      1083       186      8071      1178      8070      1776      1296      1293
 -1      6179    6    0    1
 -2      1083      2830        92      1084      8068      3068      1174      1178      8069      1176
 -1      6180    6    0    1
 -2      5128      5181      5102      6924      5288      5549      5419      9402      7350      7351
 -1      6181    6    0    1
 -2      4661      1596      2889      6920      9047      8536      9045      9046      8802      8768
 -1      6182    6    0    1
 -2      2793       169      2912      1619      9195      9403      3619      9093      9298      9055
 -1      6183    6    0    1
 -2      6359      5150      6373      6890      9404      8967      6427      9264      8876      7227
 -1      6184    6    0    1
 -2      1508      2801      1123      1619      9021      9363      9405      1868      9057      9364
 -1      6185    6    0    1
 -2      2723      2955      2791      1498      3570      3569      3567      9258      9147      9314
 -1      6186    6    0    1
 -2      1093        86      2846      1114      1158      3050      8232      1160      1156      8233
 -1      6187    6    0    1
 -2       180      1114      1093      1553      1281      1160      1284      1758      8235      8236
 -1      6188    6    0    1
 -2      5150      6359      6379      6890      9404      6428      8875      8876      9264      8877
 -1      6189    6    0    1
 -2      5638      5561      6895      6924      5900      8569      7632      8858      9184      8857
 -1      6190    6    0    1
 -2      1567      1486      2935      2779      2681      8200      8313      9344      9012      3488
 -1      6191    6    0    1
 -2      5092      5130      5161      6899      5499      5400      5500      7753      7387      9273
 -1      6192    6    0    1
 -2      5151      5091      5111      6925      5492      5490      5297      7743      7744      8581
 -1      6193    6    0    1
 -2      1085      2828        95      1095      8088      3077      1183      1187      8089      1185
 -1      6194    6    0    1
 -2      1535      1095      1085       189      8091      1187      8090      1785      1302      1299
 -1      6195    6    0    1
 -2      5574      5609      6909      6936      5860      7452      7472      8763      7454      7455
 -1      6196    6    0    1
 -2      5582      5607      5618      6902      5712      5959      6029      8198      7955      7678
 -1      6197    6    0    1
 -2      6359      6362      6374      6890      6470      6471      6458      9264      7217      7152
 -1      6198    6    0    1
 -2      5128      4030      5181      6924      9407      9406      5288      9402      9408      7350
 -1      6199    6    0    1
 -2        89      2832      1082      1094      3059      8052      1167      1165      8053      1169
 -1      6200    6    0    1
 -2      1539      1082      1094       183      8056      1169      8055      1767      1290      1287
 -1      6201    6    0    1
 -2      1530      1100      1099       195      8141      1205      8140      1803      1314      1311
 -1      6202    6    0    1
 -2      1100       101      2823      1099      1203      3095      8137      1205      1201      8138
 -1      6203    6    0    1
 -2      4036      5104      4052      6902      9409      9176      4270      9086      9178      9177
 -1      6204    6    0    1
 -2      4036      4051      5582      6902      4172      8196      9087      9086      8078      8198
 -1      6205    6    0    1
 -2      2818      2922      1483      2776      3825      8305      9058      3963      3453      9039
 -1      6206    6    0    1
 -2      1097        98      2826      1116      1194      3086      8123      1196      1192      8124
 -1      6207    6    0    1
 -2      1116      1097       192      1533      1196      1308      1305      8126      8127      1794
 -1      6208    6    0    1
 -2      1115      2832      1094      1539      8975      8053      1166      7886      8054      8055
 -1      6209    6    0    1
 -2      6913      5576      5649      6946      8598      6011      9283      8290      8600      9284
 -1      6210    6    0    1
 -2      2778      2861      2936      1485      3971      3814      3472      9024      8831      8237
 -1      6211    6    0    1
 -2      1081      1082      2845      1552      1172      8887      9122      8177      8888      8745
 -1      6212    6    0    1
 -2      1096      1095      2852      1559      1190      8865      8193      9121      8866      8715
 -1      6213    6    0    1
 -2      6375      6360      6366      6896      6473      6466      6405      7099      7719      9115
 -1      6214    6    0    1
 -2      5172      5085      5118      6898      5444      5445      5373      7701      7355      7523
 -1      6215    6    0    1
 -2      5650      5596      5563      6898      5851      5924      5922      7334      7603      7179
 -1      6216    6    0    1
 -2      1485      2921      2778      1526      8336      3469      9024      2676      8493      9329
 -1      6217    6    0    1
 -2      1577      2870      1664      1476      8992      8810      2408      2651      8653      2174
 -1      6218    6    0    1
 -2      1527      2920      1486      2779      8277      8342      2679      8774      3485      9012
 -1      6219    6    0    1
 -2      1098      1097      2857      1564      1199      8863      9125      8204      8864      8721
 -1      6220    6    0    1
 -2      5605      5568      5628      6890      5965      5964      5818      7151      8788      9082
 -1      6221    6    0    1
 -2      5090      5127      5150      6890      5487      5340      5486      8786      7184      8876
 -1      6222    6    0    1
 -2      2776      1570      2937      1483      9350      8474      3456      9039      2672      8245
 -1      6223    6    0    1
 -2      1107      1534      1121       210      8046      8043      1250      1341      1850      1344
 -1      6224    6    0    1
 -2      1121       116      2827      1107      1248      3144      8044      1250      1246      8045
 -1      6225    6    0    1
 -2      5611      5602       435      6916      5727      7233      9410      9411      7234      6992
 -1      6226    6    0    1
 -2      6375      6361      6360      6896      6475      6474      6473      7099      7881      7719
 -1      6227    6    0    1
 -2      5132      6381      6363      6915      8228      6418      9412      8227      8226      8783
 -1      6228    6    0    1
 -2       835      5023      5021      6906      5041      5044      5034      8203      8384      9396
 -1      6229    6    0    1
 -2      1464      1524      2940      1647      2592      8945      9183      2590      2593      9026
 -1      6230    6    0    1
 -2      1117      2821       104      1102      8167      3104      1210      1214      8168      1212
 -1      6231    6    0    1
 -2      1528      1102      1117       198      8170      1214      8169      1812      1320      1317
 -1      6232    6    0    1
 -2      5132      6363      6377      6915      9412      6416      8386      8227      8783      7157
 -1      6233    6    0    1
 -2       905      5142      6895      6932      9400      9401      9365      9414      9413      8570
 -1      6234    6    0    1
 -2      5645      5617      5577      6907      5846      6014      5910      9398      8098      9084
 -1      6235    6    0    1
 -2      2789      1610      1496      1462      9168      2071      9308      9278      2571      2572
 -1      6236    6    0    1
 -2       201      1118      1104      1527      1323      1223      1326      1821      8182      8183
 -1      6237    6    0    1
 -2      1118      2820       107      1104      8180      3113      1219      1223      8181      1221
 -1      6238    6    0    1
 -2      1079      1104      2861      1568      1226      8860      8185      9075      8859      8734
 -1      6239    6    0    1
 -2      6889      5116      5155      6935      7088      5359      8772      8253      9415      9376
 -1      6240    6    0    1
 -2      1673      2793      1435      1500      9416      9091      2329      1920      9092      2326
 -1      6241    6    0    1
 -2      6885      5556      6889      6943      8306      6974      8252      9417      8302      7372
 -1      6242    6    0    1
 -2      1109      2822      1529      1108      8902      8740      8901      1256      9043      8009
 -1      6243    6    0    1
 -2      2807      2976      1514      2770      3327      8608      9136      3945      3947      9381
 -1      6244    6    0    1
 -2      5139      5089      5120      6914      5477      5479      5364      8154      8622      8668
 -1      6245    6    0    1
 -2      1113      2891      2791      1498      9060      3041      9313      9062      8852      9314
 -1      6246    6    0    1
 -2      5168      5098      5122      6946      5531      5532      5309      8291      8289      9418
 -1      6247    6    0    1
 -2      4003      4027      5159      6910      4205      8083      9393      9392      8084      7082
 -1      6248    6    0    1
 -2      4027      4003      5637      6910      4205      9391      8904      8084      9392      7085
 -1      6249    6    0    1
 -2      5123      5168      5015      6913      5307      8665      9358      8954      8287      8666
 -1      6250    6    0    1
 -2       113      2818      1120      1105      3131      8145      1239      1237      8146      1241
 -1      6251    6    0    1
 -2       207      1105      1120      1525      1335      1241      1338      1839      8148      8149
 -1      6252    6    0    1
 -2      2813      4730      4729       473      8335      4785      8334      3251      4906      4907
 -1      6253    6    0    1
 -2       338      1520      4730      4729      1957      8331      4780      4784      8332      4785
 -1      6254    6    0    1
 -2      2723      2940      2943      1430      3568      3575      3576      9015      9185      8941
 -1      6255    6    0    1
 -2      4036      5104      6902      6939      9409      9178      9086      9420      9419      7928
 -1      6256    6    0    1
 -2      5123      5015      5013      6906      9358      5070      8926      8928      9359      8929
 -1      6257    6    0    1
 -2      4713      4730      1578      2871      4782      8907      9126      8160      8908      8738
 -1      6258    6    0    1
 -2      2960      2873      1473      1580      3692      8702      8623      8952      9049      2640
 -1      6259    6    0    1
 -2      5013      5015      5018      6906      5070      5069      5071      8929      9359      9421
 -1      6260    6    0    1
 -2      1518      4733      4714      2811      8397      4806      8372      8401      8399      9230
 -1      6261    6    0    1
 -2      5020      5122      4023      5012      9424      9422      9423      5066      9425      9269
 -1      6262    6    0    1
 -2      2956      2955      1498      2791      3880      9147      9211      3043      3569      9314
 -1      6263    6    0    1
 -2      2773      1534      2987      2827      9426      9107      3955      3956      8042      3148
 -1      6264    6    0    1
 -2      5169      5121         5      6894      5261      9427      7266      7017      8064      7268
 -1      6265    6    0    1
 -2      5599      5647         6      6894      5739      7263      9428      7178      7020      7264
 -1      6266    6    0    1
 -2      2950      1496      2789      2900      8815      9308      3393      3895      9083      3362
 -1      6267    6    0    1
 -2      4028      5623      5593      6921      9212      5703      9429      7767      8349      9139
 -1      6268    6    0    1
 -2      2939      1620      2913      1418      8776      8972      3399      9008      2097      9209
 -1      6269    6    0    1
 -2      6904      6888      6944      6945      8760      7274      7638      8041      7134      9430
 -1      6270    6    0    1
 -2       438       437      5587      6922       446      9431      9128      7287      7729      8974
 -1      6271    6    0    1
 -2       479      4733      4710      2811      4919      4803      4918      3269      8399      8400
 -1      6272    6    0    1
 -2      1518       344      4733      4710      1975      4802      8397      8398      4798      4803
 -1      6273    6    0    1
 -2      4717      1497      1675      2968      9231      2054      9432      9433      8957      8841
 -1      6274    6    0    1
 -2      5079      5130      6904      6944      5377      7844      9382      9383      7389      7638
 -1      6275    6    0    1
 -2      5628      6359      6374      6890      9434      6458      9081      9082      9264      7152
 -1      6276    6    0    1
 -2       316      2966      1673      6930      9208      9385      1916      8367      9316      9435
 -1      6277    6    0    1
 -2      1514      1477      1603      2896      2652      2653      2356      8995      9360      8651
 -1      6278    6    0    1
 -2      1091      1090      2956      1663      1151      9340      8986      8837      9341      8275
 -1      6279    6    0    1
 -2      5608      5557      6904      6945      5855      9356      8187      7463      9357      8041
 -1      6280    6    0    1
 -2      5102      5160      5083      6910      5422      5421      5418      7081      8833      8871
 -1      6281    6    0    1
 -2      5080      5152      5120      6914      5385      5390      5389      7946      7362      8668
 -1      6282    6    0    1
 -2      5151      4040      4016      6925      9299      4230      8243      7743      9301      8244
 -1      6283    6    0    1
 -2      5581      6380      5628      6940      9228      9204      5815      8597      9205      9206
 -1      6284    6    0    1
 -2      5655      5579      5611      6916      6022      6021      5730      7254      7571      9411
 -1      6285    6    0    1
 -2      5077      5093      5154      6905      5344      5345      5346      7490      8687      9321
 -1      6286    6    0    1
 -2      5571      5555      5632      6905      5822      5824      5823      8525      7488      8706
 -1      6287    6    0    1
 -2      5022      5173      5123      6906      9112      5304      8927      8385      9113      8928
 -1      6288    6    0    1
 -2      4719      1607      4744      2900      9225      9007      4890      9227      7899      9146
 -1      6289    6    0    1
 -2      5588      4007      4027      6933      9436      4206      8905      8082      9437      8085
 -1      6290    6    0    1
 -2      4719      2789      1496      2900      9311      9308      9226      9227      3362      9083
 -1      6291    6    0    1
 -2      6360      6366      6896      6917      6466      9115      7719      7599      9117      7516
 -1      6292    6    0    1
 -2      4983      1023      6681      4981      9439      6697      9438      5003      9291      9440
 -1      6293    6    0    1
 -2      1093      2869      1115      1576      8922      8096      1163      8923      8814      9078
 -1      6294    6    0    1
 -2      6892      6891      6921      6936      7163      7768      7554      7126      7166      9352
 -1      6295    6    0    1
 -2      2822      1529      2987      1480      8740      8008      3151      9441      2661      9108
 -1      6296    6    0    1
 -2      6900      5099      6907      6922      8930      9394      9317      7002      8931      8542
 -1      6297    6    0    1
 -2      5098      5171      5122      6946      5533      5207      5532      8289      8898      9418
 -1      6298    6    0    1
 -2      4735       347      1515      4734      4807      1984      8444      4812      4811      8445
 -1      6299    6    0    1
 -2       482      4734      4735      2808      4925      4812      4924      3278      8447      8448
 -1      6300    6    0    1
 -2      6363      6377      6915      6942      6416      7157      8783      9442      7160      7161
 -1      6301    6    0    1
 -2      5140      5104      6902      6919      5551      9178      9149      9156      9179      7679
 -1      6302    6    0    1
 -2      1389      6766      1387      1044      9444      9443      1415      9445      6777      9305
 -1      6303    6    0    1
 -2       828      4668      1665      6931      4675      9446      9261      8896      9447      9262
 -1      6304    6    0    1
 -2      5617      5598      5567      6914      5841      5957      5955      8100      8166      7668
 -1      6305    6    0    1
 -2      4731      1519       341      4722      8425      1966      4793      4794      8426      4789
 -1      6306    6    0    1
 -2      4722       476      4731      2812      4912      4913      4794      8428      3260      8427
 -1      6307    6    0    1
 -2      1618      1529      2822      1480      2420      8740      8392      2124      2661      9441
 -1      6308    6    0    1
 -2      5113      5083      6911      6924      5426      9123      9188      9191      8873      9124
 -1      6309    6    0    1
 -2      2927      2971      1497      2790      3601      8708      9074      4002      3762      9234
 -1      6310    6    0    1
 -2      6929      6377      6358      6942      7245      6413      9448      7247      7160      9449
 -1      6311    6    0    1
 -2      4052      5104         9      6919      9176      9450      4075      9180      9179      9451
 -1      6312    6    0    1
 -2      5178      4021      4045      6938      9452      4180      8435      8282      9335      8436
 -1      6313    6    0    1
 -2      1521      1494      1611      2814      2704      2705      2345      9164      9263      9053
 -1      6314    6    0    1
 -2      2940      2757      2817      1464      3883      3885      3886      9183      9238      9240
 -1      6315    6    0    1
 -2      2770      1477      1514      2896      9016      2652      9381      3946      9360      8995
 -1      6316    6    0    1
 -2      6915      6378      6363      6942      9052      6449      8783      7161      9453      9442
 -1      6317    6    0    1
 -2      1509       353      4715      4738      2002      4829      8511      8512      4825      4830
 -1      6318    6    0    1
 -2      2802      4738      4715       488      8514      4830      8513      3296      4936      4937
 -1      6319    6    0    1
 -2      5140      5129      5104      6919      5481      5234      5551      9156      9454      9179
 -1      6320    6    0    1
 -2      4669       828      2958      6931      4681      9245      9455      9456      8896      9246
 -1      6321    6    0    1
 -2      5569      5597      6911      6925      5971      9372      8565      8566      9457      7745
 -1      6322    6    0    1
 -2      4750      1588      4749      2881      8958      8573      4854      8960      8959      9094
 -1      6323    6    0    1
 -2      1512       350      4736      4724      1993      4820      8488      8489      4816      4821
 -1      6324    6    0    1
 -2      2805      4724      4736       485      8491      4821      8490      3287      4930      4931
 -1      6325    6    0    1
 -2      5087      5173      5107      6906      5463      5193      5462      7903      9113      7775
 -1      6326    6    0    1
 -2      5167      5116      5084      6900      5362      5436      5432      9458      7089      7026
 -1      6327    6    0    1
 -2      2793      2947       169      6930      3210      9459      9195      9197      9460      9196
 -1      6328    6    0    1
 -2      1500       169      1654      6930      9194      9461      1918      9198      9196      9462
 -1      6329    6    0    1
 -2      5133       299       300      6916      9252       308      9141      8970      7073      6993
 -1      6330    6    0    1
 -2      4017      5604      5649      6913      9464      5688      9463      9465      9193      9283
 -1      6331    6    0    1
 -2      4017      5171      5126      6913      9467      5210      9466      9465      8897      8699
 -1      6332    6    0    1
 -2      6898      5085      5118      6937      7355      5445      7523      7727      9468      8913
 -1      6333    6    0    1
 -2      4710      1575      4732      2868      8998      8551      4800      8997      8963      9287
 -1      6334    6    0    1
 -2      6900      5099      5167      6907      8930      5433      9458      9317      9394      9469
 -1      6335    6    0    1
 -2      5598      5630      5558      6914      5868      5864      5867      8166      7399      7989
 -1      6336    6    0    1
 -2      4739      1586      4725      2879      8987      8468      4845      8989      8990      9114
 -1      6337    6    0    1
 -2       449      2964      2946      1386      3181      3180      3207      9471      9470      9472
 -1      6338    6    0    1
 -2      1653      1386      1671       314      9474      9473      1887      1913      9475      1888
 -1      6339    6    0    1
 -2      5153      4042      6038      4022      8578      8757      8811      9476      4310      9370
 -1      6340    6    0    1
 -2      4040      5589      5629      6925      9478      5775      9477      9301      9479      8472
 -1      6341    6    0    1
 -2      5141       304      6919      6920      9482      9480      9481      9390      9483      8920
 -1      6342    6    0    1
 -2      5082      5179      5105      6921      5407      5219      5406      8192      9253      8584
 -1      6343    6    0    1
 -2      5646      5601      5018      6913      5785      9484      9250      8599      8953      9249
 -1      6344    6    0    1
 -2      2804      4748      4752       491      8782      4839      8781      3305      4942      4943
 -1      6345    6    0    1
 -2      4748       356      1511      4752      4834      2011      8778      4839      4838      8779
 -1      6346    6    0    1
 -2      6041      5597      6033      6932      9486      9485      6087      9377      9373      9217
 -1      6347    6    0    1
 -2      4045      4024      5125      6898      4181      8218      8741      8434      8215      7354
 -1      6348    6    0    1
 -2      4045      5603      4024      6898      8743      8214      4181      8434      7356      8215
 -1      6349    6    0    1
 -2      5581      6364       894      6380      9229      6454      5814      9228      6453      6452
 -1      6350    6    0    1
 -2      5635      5586      6928      6945      5947      8855      8678      8693      9210      8692
 -1      6351    6    0    1
 -2      5082      5115      5179      6921      5412      5222      5407      8192      8645      9253
 -1      6352    6    0    1
 -2      6036      5589      5631      6925      9488      5778      9487      8900      9479      9489
 -1      6353    6    0    1
 -2      6901      5141      6919      6920      9388      9481      7898      8593      9390      8920
 -1      6354    6    0    1
 -2      6895      5160      5106      6917      8980      5425      9366      7633      8834      9369
 -1      6355    6    0    1
 -2      2966      2728      2799      1435      3622      3623      3216      9333      9019      8886
 -1      6356    6    0    1
 -2      1435      1506      2966      1673      2330      9140      9333      2329      1923      9385
 -1      6357    6    0    1
 -2      1023      1024      4982      6927      1026      9289      9288      9491      9490      9492
 -1      6358    6    0    1
 -2      5113      4033      5128      6924      9190      9493      5291      9191      9192      9402
 -1      6359    6    0    1
 -2      4052      5144      5104      4036      9494      5231      9176      4270      9495      9409
 -1      6360    6    0    1
 -2      4051      5582      5622      4036      8196      5709      9496      4172      9087      9293
 -1      6361    6    0    1
 -2      2939      2913      2711      1418      3399      3391      3400      9008      9209      9236
 -1      6362    6    0    1
 -2      4013      5604      4037      6913      9292      9497      4142      8612      9193      9498
 -1      6363    6    0    1
 -2      4037      5126      4013      6913      9500      9499      4142      9498      8699      8612
 -1      6364    6    0    1
 -2      1386      2946      1044      6930      9472      9501      9304      9503      9502      9504
 -1      6365    6    0    1
 -2      1653      1386      1043      6930      9474      9307      9505      9506      9503      9507
 -1      6366    6    0    1
 -2      1043      1386      1044      6930      9307      9304      1046      9507      9503      9504
 -1      6367    6    0    1
 -2      4033      4010      5128      6924      4220      9508      9493      9192      9509      9402
 -1      6368    6    0    1
 -2       828      1574      4754      2867      8895      9296      4760      8894      7759      9297
 -1      6369    6    0    1
 -2      5655      5611       434      6916      5730      9510      7605      7254      9411      7096
 -1      6370    6    0    1
 -2      1028       318       317      6715      8627       324      9511      6727      7616      7566
 -1      6371    6    0    1
 -2       453      6715      1029       452      7624      6726      8626       459      7565      9512
 -1      6372    6    0    1
 -2      2770      1514      2807      2896      9381      9136      3945      3946      8995      3648
 -1      6373    6    0    1
 -2      5018      5601      6906      6913      9484      9384      9421      9249      8953      7965
 -1      6374    6    0    1
 -2      5156      5172      6904      6938      5380      8528      9331      9513      9099      7763
 -1      6375    6    0    1
 -2       272      4054      4048      6894      4057      4097      4096      7265      8063      8059
 -1      6376    6    0    1
 -2      4048      4053       272      6894      4095      4064      4096      8059      8060      7265
 -1      6377    6    0    1
 -2      5144      5104      4036      6939      5231      9409      9495      9514      9419      9420
 -1      6378    6    0    1
 -2      5562      5602      5611      6916      5909      5727      5916      8949      7234      9411
 -1      6379    6    0    1
 -2      1581      2874      1358      6934      7927      9515      9516      7691      7692      9517
 -1      6380    6    0    1
 -2      5599      5563      5640      6894      5927      5926      5928      7178      7177      7145
 -1      6381    6    0    1
 -2      6912      5644      6916      6943      9106      9157      7190      7374      9518      7756
 -1      6382    6    0    1
 -2      5659      4030      5606      6924      9520      9519      5766      7493      9408      9521
 -1      6383    6    0    1
 -2      5113      5091      5151      6911      5494      5492      5294      9188      7742      7741
 -1      6384    6    0    1
 -2      5569      5591      5629      6911      5972      5772      5970      8565      9265      8470
 -1      6385    6    0    1
 -2      6886      2773      1480      6903      9524      9522      9523      9525      9320      9526
 -1      6386    6    0    1
 -2      6902      4036      6939      6941      9086      9420      7928      7862      9088      9247
 -1      6387    6    0    1
 -2      4041      5171      4017      6913      9041      9467      4137      9040      8897      9465
 -1      6388    6    0    1
 -2      4017      5649      4041      6913      9463      9282      4137      9465      9283      9040
 -1      6389    6    0    1
 -2       906      5620      6041      6895      9528      9527      6057      9097      9529      9530
 -1      6390    6    0    1
 -2      6916      5562      6900      6943      8949      8948      6994      7756      9531      7373
 -1      6391    6    0    1
 -2      1123      1112      2801      1508      1266      9374      9363      9405      9375      9021
 -1      6392    6    0    1
 -2      4723      4724      1580      2873      4818      9048      9319      8544      9050      9049
 -1      6393    6    0    1
 -2      5090      5150      5147      6890      5486      5489      5484      8786      8876      9532
 -1      6394    6    0    1
 -2      4753      4711      1659      2952      4767      8294      7963      7435      7999      7503
 -1      6395    6    0    1
 -2       494      4726      4739      2806      4949      4848      4948      3314      8936      8937
 -1      6396    6    0    1
 -2      4726      1513       359      4739      8934      2020      4847      4848      8935      4843
 -1      6397    6    0    1
 -2      1673      2793      1500      6930      9416      9092      1920      9435      9197      9198
 -1      6398    6    0    1
 -2      4056      5600      5017      6946      9534      9533      8748      8750      9535      8749
 -1      6399    6    0    1
 -2      6921      5560      6892      6936      9120      9159      7554      9352      8770      7126
 -1      6400    6    0    1
 -2      5170      5093      5132      6915      5504      5503      5332      7156      8591      8227
 -1      6401    6    0    1
 -2      2793      2966      1435      2728      3213      9333      9091      3620      3622      9019
 -1      6402    6    0    1
 -2      2793      1435      2966      1673      9091      9333      3213      9416      2329      9385
 -1      6403    6    0    1
 -2      6910      5110      5081      6933      8155      5395      7846      8086      8156      9153
 -1      6404    6    0    1
 -2      1090      2956      1498      2791      9340      9211      9315      9312      3043      9314
 -1      6405    6    0    1
 -2      5141      5109       303      6901      5240      9326      9389      9388      9259      8752
 -1      6406    6    0    1
 -2       438      5587      5619      6901      9128      5718      9386      8594      8973      8208
 -1      6407    6    0    1
 -2         9      5104      5129      6919      9450      5234      9536      9451      9179      9454
 -1      6408    6    0    1
 -2      6379       870      5103      6940      6420      5335      9537      8878      9538      9215
 -1      6409    6    0    1
 -2      5167      5099      5139      6907      5433      5536      5368      9469      9394      8152
 -1      6410    6    0    1
 -2      6370      5643      5613      6360      9539      5799      7597      6434      8553      7596
 -1      6411    6    0    1
 -2      5160      5081      5174      6917      5394      5401      5403      8834      7848      8361
 -1      6412    6    0    1
 -2      2789      1496      1610      4746      9308      2071      9168      9310      9309      9353
 -1      6413    6    0    1
 -2      2773      2987      1534      1480      3955      9107      9426      9522      9108      2663
 -1      6414    6    0    1
 -2      5566      5612      5632      6928      5946      5952      5951      6996      9540      7280
 -1      6415    6    0    1
 -2      5108      5165      5180      6896      5326      5512      5554      7100      9079      7815
 -1      6416    6    0    1
 -2      5121      4054         5      6894      8061      4058      9427      8064      8063      7268
 -1      6417    6    0    1
 -2      5599         6      4053      6894      9428      4065      8057      7178      7264      8060
 -1      6418    6    0    1
 -2      6895      5620      6041      6932      9529      9527      9530      8570      9541      9377
 -1      6419    6    0    1
 -2      5182      6362      5127      6918      9542      7216      5341      9543      7218      7186
 -1      6420    6    0    1
 -2      4748      1585      4751      2878      8977      9148      4836      8978      8979      8377
 -1      6421    6    0    1
 -2      5170      5134      5093      6929      5329      5505      5504      7246      8634      8689
 -1      6422    6    0    1
 -2      5181      4030      4006      6924      9406      4215      8968      7350      9408      8969
 -1      6423    6    0    1
 -2      2992      4721      4722       475      8299      4791      9544      3253      4910      4911
 -1      6424    6    0    1
 -2      4721       340      1699      4722      4786      1961      8297      4791      4790      9545
 -1      6425    6    0    1
 -2      5112      5156      5092      6938      5498      5497      5495      9130      9513      9129
 -1      6426    6    0    1
 -2      6895      6041       906      6932      9530      6057      9097      8570      9377      9378
 -1      6427    6    0    1
 -2      5162      5121      6894      6937      5450      8064      7147      8932      9546      8322
 -1      6428    6    0    1
 -2      4015      4039      5146      6926      4190      9102      9342      9343      9103      7228
 -1      6429    6    0    1
 -2       905       906      6895      6917       908      9097      9365      9368      8439      7633
 -1      6430    6    0    1
 -2      2773      2822      2987      1480      3954      3151      3955      9522      9441      9108
 -1      6431    6    0    1
 -2      5108      5134      6371      6929      5324      9547      7314      7703      8634      8507
 -1      6432    6    0    1
 -2      5616      5626      5579      6897      5994      6024      6023      7048      6965      7570
 -1      6433    6    0    1
 -2      5138      5101      5148      6897      5545      5546      5517      7047      7255      6971
 -1      6434    6    0    1
 -2      5584      5620       906      6895      5679      9528      8874      8449      9529      9097
 -1      6435    6    0    1
 -2      6034      4042      4055      4022      8756      4236      9548      9371      4310      4313
 -1      6436    6    0    1
 -2      1092      2978        85      1114      7799      3047      1153      1157      9549      1155
 -1      6437    6    0    1
 -2      1618      2822      2773      1480      8392      3954      9275      2124      9441      9522
 -1      6438    6    0    1
 -2      5561      5591      6911      6924      5905      9265      8568      9184      9267      9124
 -1      6439    6    0    1
 -2      5642      5565      5583      6923      5939      5938      5882      7556      7967      8534
 -1      6440    6    0    1
 -2      5079      5156      5172      6904      5375      5380      5374      9382      9331      8528
 -1      6441    6    0    1
 -2      5634      5557      5650      6904      5854      5852      5858      7772      9356      7582
 -1      6442    6    0    1
 -2      5118      5117      6888      6937      5446      9318      7524      8913      9550      7726
 -1      6443    6    0    1
 -2      6891      5131      5097      6939      7391      5525      7471      7432      7430      8537
 -1      6444    6    0    1
 -2      5017      5019      5600      4056      5054      9551      9533      8748      9154      9534
 -1      6445    6    0    1
 -2      6615      4375      6231      6597      9554      9552      9553      9556      9555      9557
 -1      6446    6    0    1
 -2      5122      5171      4020      6946      5207      9558      9559      9418      8898      9560
 -1      6447    6    0    1
 -2      6899      5081      5161      6933      7847      5397      9273      7046      9153      9274
 -1      6448    6    0    1
 -2      1078       110      1080      6893      1228      1230      1232      9562      9561      9563
 -1      6449    6    0    1
 -2      1078      1080       204      6893      1232      1332      1329      9562      9563      9564
 -1      6450    6    0    1
 -2      5583      5560      5642      6921      5884      5883      5882      8533      9120      7553
 -1      6451    6    0    1
 -2       209      1106      1107      1696      1339      1247      1342      1845      8135      9565
 -1      6452    6    0    1
 -2      5180      5165      5094      6896      5512      5510      5508      7815      9079      7438
 -1      6453    6    0    1
 -2      5014      5168      5016      6946      9279      9566      5076      9280      8291      9567
 -1      6454    6    0    1
 -2      6382      6364       894      5581      6455      6454      6447      8596      9229      5814
 -1      6455    6    0    1
 -2      5555      5644      5626      6912      5828      5835      5834      7489      9106      7004
 -1      6456    6    0    1
 -2      5148      5166      5077      6912      5357      5350      5355      7007      8615      7491
 -1      6457    6    0    1
 -2       346      1692      4714      4735      1979      8373      4804      4808      9568      4809
 -1      6458    6    0    1
 -2       481      4735      4714      2985      4923      4809      4922      3271      9569      8376
 -1      6459    6    0    1
 -2      6631      6228      4342      6648      9572      9570      9571      9574      9573      9575
 -1      6460    6    0    1
 -2      6926      4043      4018      6938      9181      4185      9576      8325      8720      9577
 -1      6461    6    0    1
 -2      6889      5594      5564      6943      7809      5933      7588      7372      8303      9175
 -1      6462    6    0    1
 -2      6647      6630      6098      4343      9580      9578      9579      9582      9581      9583
 -1      6463    6    0    1
 -2      5627      5597      5569      6925      5795      5971      5969      9584      9457      8566
 -1      6464    6    0    1
 -2      5559      5652      5608      6899      5880      5879      5878      7053      7219      7443
 -1      6465    6    0    1
 -2      5174      5081      5130      6899      5401      5399      5402      8360      7847      7387
 -1      6466    6    0    1
 -2      5143      5086      5132      6915      5457      5451      5458      7825      7824      8227
 -1      6467    6    0    1
 -2       715      4051      4036      6902      4082      4172      4312      8077      8078      9086
 -1      6468    6    0    1
 -2      4036      4052       715      6902      4270      4076      4312      9086      9177      8077
 -1      6469    6    0    1
 -2      5606      4033      5591      6924      9585      9266      5769      9521      9192      9267
 -1      6470    6    0    1
 -2       497      4747      4750      2807      4955      4857      4954      3323      9135      8961
 -1      6471    6    0    1
 -2      1514       362      4747      4750      2029      4856      9133      9134      4852      4857
 -1      6472    6    0    1
 -2      4716      1590      4740      2883      8999      9302      4863      9002      9003      8955
 -1      6473    6    0    1
 -2      5123      5173      5087      6906      5304      5463      5464      8928      9113      7903
 -1      6474    6    0    1
 -2      5581      5628      6908      6940      5815      9203      8717      8597      9206      7422
 -1      6475    6    0    1
 -2      2792      4665      4661       558      8682      4690      8681      3374      4701      4702
 -1      6476    6    0    1
 -2      4665       423      1499      4661      4685      2081      8679      4690      4689      8680
 -1      6477    6    0    1
 -2      5638      5580      5561      6924      5899      5897      5900      8858      7492      9184
 -1      6478    6    0    1
 -2      1122      2862      1569      6934      8943      8944      8942      9586      8647      8646
 -1      6479    6    0    1
 -2      4020      5171      4041      6946      9558      9041      4138      9560      8898      9042
 -1      6480    6    0    1
 -2      6929      6888      5117      6937      6998      9318      9361      9587      7726      9550
 -1      6481    6    0    1
 -2      5606      4010      4033      6924      9588      4220      9585      9521      9509      9192
 -1      6482    6    0    1
 -2      5608      5557      5634      6904      5855      5854      5853      8187      9356      7772
 -1      6483    6    0    1
 -2      5156      5079      5130      6904      5375      5377      5376      9331      9382      7844
 -1      6484    6    0    1
 -2       187      1084      1087      1707      1295      1181      1298      1781      9589      8106
 -1      6485    6    0    1
 -2      1087        93      3000      1084      1179      3075      8105      1181      1177      9590
 -1      6486    6    0    1
 -2      1531      1109      1529       213      8005      8901      1861      1859      1347      1857
 -1      6487    6    0    1
 -2      2822      2824       119      1109      3154      3153      3149      8902      8003      1255
 -1      6488    6    0    1
 -2      4981      4984      6681       825      5008      9591      9440      5010      4995      9592
 -1      6489    6    0    1
 -2      4981      6681      4983       825      9440      9438      5003      5010      9592      4989
 -1      6490    6    0    1
 -2      4029      5179      4005      6923      9593      9255      4152      9338      9256      9257
 -1      6491    6    0    1
 -2      5098      5126      5171      6913      5534      5210      5533      8288      8699      8897
 -1      6492    6    0    1
 -2      5649      5604      5576      6913      5688      6012      6011      9283      9193      8598
 -1      6493    6    0    1
 -2      6230      6835      6852      4371      9596      9594      9595      9598      9597      9599
 -1      6494    6    0    1
 -2      5111      4042      4019      6925      8577      4235      9600      8581      8579      9601
 -1      6495    6    0    1
 -2      6906      5015      5018      6913      9359      5069      9421      7965      8666      9249
 -1      6496    6    0    1
 -2      5588      4032      4007      6933      9160      4200      9436      8082      9162      9437
 -1      6497    6    0    1
 -2      5179      5115      4025      6921      5222      9602      9603      9253      8645      9604
 -1      6498    6    0    1
 -2      4029      5583      4009      6923      9336      9605      4153      9338      8534      9606
 -1      6499    6    0    1
 -2       214      1110      1111      1693      1349      1262      1352      1862      9607      8389
 -1      6500    6    0    1
 -2      1044      6766      1387      1043      6777      9443      9305      1046      6778      9306
 -1      6501    6    0    1
 -2      2773      1618      1480      6903      9275      2124      9522      9320      8649      9526
 -1      6502    6    0    1
 -2      5016      5122      5020      5012      9608      9424      5062      5065      9425      5066
 -1      6503    6    0    1
 -2        92      2830      2849      1084      3068      3073      3072      1176      8069      8868
 -1      6504    6    0    1
 -2      1537      1556      1084       186      1780      8867      8071      1776      1778      1296
 -1      6505    6    0    1
 -2      4728       471      4713      2995      4902      4903      4779      9609      3245      8162
 -1      6506    6    0    1
 -2      4713      1702       336      4728      8159      1951      4778      4779      9610      4774
 -1      6507    6    0    1
 -2      5619       439       438      6920      8617       447      9386      9387      9155      7283
 -1      6508    6    0    1
 -2       304      5141       303      6920      9482      9389       312      9483      9390      7284
 -1      6509    6    0    1
 -2      4012      4032      5615      6933      4201      9161      9611      9612      9162      7058
 -1      6510    6    0    1
 -2      6358      5134      6377      6929      9613      8633      6413      9448      8634      7245
 -1      6511    6    0    1
 -2      4984      6681      1019      6683      9591      6692      9614      9615      6695      6691
 -1      6512    6    0    1
 -2      4983      6681      6682      1018      9438      6694      9616      9617      6693      6687
 -1      6513    6    0    1
 -2        95      2828      2852      1095      3077      3082      3081      1185      8089      8865
 -1      6514    6    0    1
 -2      1535      1559      1095       189      1789      8866      8091      1785      1787      1302
 -1      6515    6    0    1
 -2      6229      6801      6818      4351      9620      9618      9619      9622      9621      9623
 -1      6516    6    0    1
 -2      1566      1100      1530       195      8850      8141      1807      1805      1314      1803
 -1      6517    6    0    1
 -2      2823      2859       101      1100      3100      3099      3095      8137      8851      1203
 -1      6518    6    0    1
 -2      4745      2899      4718       506      7858      7856      4884      4973      3348      4972
 -1      6519    6    0    1
 -2       371      1606      4718      4745      2056      7857      4879      4883      7859      4884
 -1      6520    6    0    1
 -2      1023      1024      6681      4981      1026      6696      6697      9291      9290      9440
 -1      6521    6    0    1
 -2      6700      1024      1023      6927      6709      1026      6710      7618      9490      9491
 -1      6522    6    0    1
 -2      2790      1497      4717      2968      9234      9231      9233      3347      8957      9433
 -1      6523    6    0    1
 -2      6890      5568      5628      6908      8788      5964      9082      8110      8849      9203
 -1      6524    6    0    1
 -2      5099      5109      5139      6922      5537      5476      5536      8931      9260      8933
 -1      6525    6    0    1
 -2      2857        98      2826      1097      3090      3086      3091      8863      1194      8123
 -1      6526    6    0    1
 -2      1533      1097       192      1564      8127      1308      1794      1798      8864      1796
 -1      6527    6    0    1
 -2      2832      1082      2845        89      8052      8887      3064      3059      1167      3063
 -1      6528    6    0    1
 -2      1552      1082      1539       183      8888      8056      1771      1769      1290      1767
 -1      6529    6    0    1
 -2      5608      5639      5559      6899      5877      5876      5878      7443      7041      7053
 -1      6530    6    0    1
 -2      5130      5081      5161      6899      5399      5397      5400      7387      7847      9273
 -1      6531    6    0    1
 -2      1389      6766      6768      1049      9444      6780      9624      9625      6782      6775
 -1      6532    6    0    1
 -2      1388      6766      1048      6767      9627      6781      9626      9628      6779      6771
 -1      6533    6    0    1
 -2      1391       169      2947      6930      1392      9459      9629      9630      9196      9460
 -1      6534    6    0    1
 -2      2869        86      2846      1093      3054      3050      3055      8922      1158      8232
 -1      6535    6    0    1
 -2      1553      1093       180      1576      8236      1284      1758      1762      8923      1760
 -1      6536    6    0    1
 -2      5103       870      6381      6940      5335      6415      9339      9215      9538      8229
 -1      6537    6    0    1
 -2      1119       111      2990      1080      1233      3129      8026      1235      1231      9631
 -1      6538    6    0    1
 -2       205      1080      1119      1697      1331      1235      1334      1835      9632      8027
 -1      6539    6    0    1
 -2      1528      1567      1102       198      1816      8861      8170      1812      1814      1320
 -1      6540    6    0    1
 -2      2860       104      2821      1102      3108      3104      3109      8862      1212      8168
 -1      6541    6    0    1
 -2       196      1100      1101      1703      1313      1208      1316      1808      9633      7993
 -1      6542    6    0    1
 -2      1701      1103      1102       199      8016      1217      9634      1817      1322      1319
 -1      6543    6    0    1
 -2      4984      1019      6681       825      9614      6692      9591      4995      9635      9592
 -1      6544    6    0    1
 -2      1018      4983      6681       825      9617      9438      6693      9636      4989      9592
 -1      6545    6    0    1
 -2      1532      1534      1107       210      1852      8046      8870      1848      1850      1341
 -1      6546    6    0    1
 -2      2827       116      2825      1107      3144      3140      3145      8045      1246      8869
 -1      6547    6    0    1
 -2      1527      1104       201      1568      8183      1326      1821      1825      8859      1823
 -1      6548    6    0    1
 -2      2820      2861       107      1104      3118      3117      3113      8181      8860      1221
 -1      6549    6    0    1
 -2      2871      4730      2813       473      8908      8335      3252      3247      4906      3251
 -1      6550    6    0    1
 -2       338      4730      1520      1578      4780      8331      1957      1955      8907      1959
 -1      6551    6    0    1
 -2      1654       169      1390      6930      9461      1396      9637      9462      9196      9638
 -1      6552    6    0    1
 -2      6364       870      6379      6940      6421      6420      6422      9068      9538      8878
 -1      6553    6    0    1
 -2       294      6766      1387      1389      9639      9443      1416      1403      9444      1415
 -1      6554    6    0    1
 -2       294      1387      6766      1388      1416      9443      9639      1400      1410      9627
 -1      6555    6    0    1
 -2      6834      4339      6100      6851      9642      9640      9641      9644      9643      9645
 -1      6556    6    0    1
 -2      5014      5646      5018      6946      9646      9250      5053      9280      8601      9251
 -1      6557    6    0    1
 -2      1389       294      6766      1049      1403      9639      9444      9625      9647      6782
 -1      6558    6    0    1
 -2      1048       294      6766      1388      9648      9639      6781      9626      1400      9627
 -1      6559    6    0    1
 -2      1119      2990       112      1105      8026      3128      1234      1238      9649      1236
 -1      6560    6    0    1
 -2      2818      1120      2864       113      8145      8847      3136      3131      1239      3135
 -1      6561    6    0    1
 -2      1571       207      1120      1525      1841      1338      8848      1843      1839      8149
 -1      6562    6    0    1
 -2      5583      5614      4009      6923      5695      9650      9605      8534      8413      9606
 -1      6563    6    0    1
 -2      6376      6361       891      6928      6440      6439      6432      7652      7882      9651
 -1      6564    6    0    1
 -2      1079      2993       109      1078      8018      3119      1225      1229      9652      1227
 -1      6565    6    0    1
 -2      5615      5570      5624      6926      5979      5974      5754      7057      7308      9144
 -1      6566    6    0    1
 -2      5023      5022      5013      6906      5043      5072      5074      8384      8385      8929
 -1      6567    6    0    1
 -2       277      2795      1355      1356      3171      8916      1384      1383      8917      1378
 -1      6568    6    0    1
 -2      1356      1502      1355       265      8722      8915      1378      1373      1878      1377
 -1      6569    6    0    1
 -2       211      1121      1108      1694      1343      1253      1346      1853      9653      8012
 -1      6570    6    0    1
 -2      1108       117      2987      1121      1251      3147      8010      1253      1249      9654
 -1      6571    6    0    1
 -2      6381      6363       869      5132      6418      6417      6414      8228      9412      5331
 -1      6572    6    0    1
 -2      5080      5120      5140      6914      5389      5388      5387      7946      8668      9150
 -1      6573    6    0    1
 -2      4721      1699       339      4729      8297      1960      4787      4788      9655      4783
 -1      6574    6    0    1
 -2      5590      4043      4018      6926      8719      4185      9656      8856      9181      9576
 -1      6575    6    0    1
 -2       302       303      5109      6922       311      9326      9657      8636      7285      9260
 -1      6576    6    0    1
 -2      4723      1691       348      4734      8543      1987      4814      4815      9658      4810
 -1      6577    6    0    1
 -2       483      4723      4734      2984      4927      4815      4926      3281      8547      9659
 -1      6578    6    0    1
 -2      4663      4666       304      6919      4696      9660      9661      8918      9662      9480
 -1      6579    6    0    1
 -2      5574      5609      5558      6909      5860      5862      5861      7472      7452      7563
 -1      6580    6    0    1
 -2      5080      5131      5096      6909      5384      5383      5382      7944      7429      9171
 -1      6581    6    0    1
 -2       500      4741      4716      2814      4961      4866      4960      3332      9277      9163
 -1      6582    6    0    1
 -2      4741      1521       365      4716      9276      2038      4865      4866      9000      4861
 -1      6583    6    0    1
 -2       486      4737      4736      2982      4933      4824      4932      3290      8321      9663
 -1      6584    6    0    1
 -2       352      1689      4737      4738      1997      8319      4822      4826      9664      4827
 -1      6585    6    0    1
 -2      2982      4737      4738       487      8321      4827      9665      3289      4934      4935
 -1      6586    6    0    1
 -2      6376       891      5586      6928      6432      5803      8854      7652      9651      8855
 -1      6587    6    0    1
 -2      6363      6381      6364      6915      6418      6423      6476      8783      8226      9067
 -1      6588    6    0    1
 -2      5159      5110      5102      6910      5282      5547      5548      7082      8155      7081
 -1      6589    6    0    1
 -2      5637      5580      5588      6910      6026      6025      5760      7085      7083      8424
 -1      6590    6    0    1
 -2      2980      4715      4751       489      9666      4833      8329      3299      4938      4939
 -1      6591    6    0    1
 -2      2966      2793      1673      6930      3213      9416      9385      9316      9197      9435
 -1      6592    6    0    1
 -2      2790      4717      4743       504      9233      4878      9232      3346      4968      4969
 -1      6593    6    0    1
 -2      4743      1497       369      4717      9063      2052      4877      4878      9231      4873
 -1      6594    6    0    1
 -2      6037      6033      5597      6932      6086      9485      9667      9219      9217      9373
 -1      6595    6    0    1
 -2      4056      5019      4047      5012      9154      9668      4128      8747      5067      9669
 -1      6596    6    0    1
 -2       905        25      6369      5106       907      6390      6391      9367      5200      9670
 -1      6597    6    0    1
 -2      5566      5635      5586      6928      5948      5947      5945      6996      8678      8855
 -1      6598    6    0    1
 -2       435       434      5611      6916       443      9510      9410      6992      7096      9411
 -1      6599    6    0    1
 -2      5601      5604      5565      6913      5942      5944      5943      8953      9193      7966
 -1      6600    6    0    1
 -2      5123      5087      5126      6913      5464      5466      5465      8954      8163      8699
 -1      6601    6    0    1
 -2      4717      1675      4742      2968      9432      8906      4875      9433      8841      8620
 -1      6602    6    0    1
 -2      6231      4383      4375      6615      9671      4511      9552      9553      9672      9554
 -1      6603    6    0    1
 -2      5591      4033      4014      6911      9266      4221      9673      9265      9189      9674
 -1      6604    6    0    1
 -2      4014      4033      5113      6911      4221      9190      9675      9674      9189      9188
 -1      6605    6    0    1
 -2      5166      5101      5133      6916      5542      5543      5439      8616      7256      8970
 -1      6606    6    0    1
 -2      6364      6382      6363      6915      6455      6450      6476      9067      7408      8783
 -1      6607    6    0    1
 -2      2811      4710       479      2868      8400      4918      3269      3270      8997      3265
 -1      6608    6    0    1
 -2      1518      1575       344      4710      1977      1973      1975      8398      8998      4798
 -1      6609    6    0    1
 -2      5612      5632      6928      6942      5952      7280      9540      9676      8119      8120
 -1      6610    6    0    1
 -2      5577      5587      5641      6922      6015      5721      6016      8416      8974      9077
 -1      6611    6    0    1
 -2      1043      1044      6750      6930      1046      6764      6765      9507      9504      8558
 -1      6612    6    0    1
 -2      2867      2760      2958      6931      3908      3907      3026      8316      7303      9246
 -1      6613    6    0    1
 -2      4669      4668       828      6931      4709      4675      4681      9456      9447      8896
 -1      6614    6    0    1
 -2      5139      5109      5089      6901      5476      5475      5477      8153      9259      8621
 -1      6615    6    0    1
 -2      5617      5567      5587      6901      5955      5954      5953      8099      7896      8973
 -1      6616    6    0    1
 -2       341      1519      1573      4722      1966      1968      1964      4789      8426      8951
 -1      6617    6    0    1
 -2      4722      2866       476      2812      8950      3256      4912      8428      3261      3260
 -1      6618    6    0    1
 -2      5180      5130      5079      6944      5378      5377      5379      7866      7389      9383
 -1      6619    6    0    1
 -2      4982      1652      1023      6927      9678      9677      9288      9492      9679      9491
 -1      6620    6    0    1
 -2       891      6361      6372      6928      6439      6438      6437      9651      7882      9680
 -1      6621    6    0    1
 -2      5083      5119      6911      6932      5428      8761      9123      9220      9681      8572
 -1      6622    6    0    1
 -2      4006      4030      5659      6924      4215      9520      9221      8969      9408      7493
 -1      6623    6    0    1
 -2      5564      5621      5610      6915      5935      5936      5929      7587      7787      7410
 -1      6624    6    0    1
 -2      4034      5614      4013      6923      9682      8613      4148      9683      8413      8614
 -1      6625    6    0    1
 -2      5606      5580      5659      6924      5896      6027      5766      9521      7492      7493
 -1      6626    6    0    1
 -2      1024      2945      4982      6927      9685      9684      9289      9490      9686      9492
 -1      6627    6    0    1
 -2      5082      5164      5107      6892      5404      5409      5408      7792      7425      7774
 -1      6628    6    0    1
 -2      5642      5560      5585      6892      5883      5887      5886      7555      9159      7654
 -1      6629    6    0    1
 -2      1574      1665      1467      6931      1733      2614      2615      7538      9262      7302
 -1      6630    6    0    1
 -2       347      1515      1577      4735      1984      1986      1982      4807      8444      9013
 -1      6631    6    0    1
 -2       482      4735      2870      2808      4924      9014      3274      3278      8448      3279
 -1      6632    6    0    1
 -2      5558      5618      5598      6914      5866      5865      5867      7989      7669      8166
 -1      6633    6    0    1
 -2      5591      4014      4038      6911      9673      4225      9286      9265      9674      9242
 -1      6634    6    0    1
 -2      4038      4014      5113      6911      4225      9675      9285      9242      9674      9188
 -1      6635    6    0    1
 -2      5653      5582      5618      6902      6030      6029      5871      6960      8198      7678
 -1      6636    6    0    1
 -2      5140      5104      5175      6902      5551      5552      5393      9149      9178      9351
 -1      6637    6    0    1
 -2      1090        82      2791      1113      1146      3042      9312      1148      1144      9313
 -1      6638    6    0    1
 -2       176      1113      1090      1498      1273      1148      1276      1749      9062      9315
 -1      6639    6    0    1
 -2      4719      4746      2789       509      4893      9310      9311      4978      4979      3363
 -1      6640    6    0    1
 -2      5022      5123      5015      5013      8927      9358      5057      5072      8926      5070
 -1      6641    6    0    1
 -2      5105       651      5136      6923      5217      5214      5218      7951      9687      9380
 -1      6642    6    0    1
 -2      4004      5115      4028      6921      9688      8644      4162      9689      8645      7767
 -1      6643    6    0    1
 -2      4746      1496       374      4719      9309      2070      4892      4893      9226      4888
 -1      6644    6    0    1
 -2      5013      5018      5021      6906      5071      5047      5073      8929      9421      9396
 -1      6645    6    0    1
 -2      4016      4040      5629      6925      4230      9477      8471      8244      9301      8472
 -1      6646    6    0    1
 -2      5622       581      5582      4051      5704      5708      5709      9496      4169      8196
 -1      6647    6    0    1
 -2      5144      5104       655      4052      5231      5230      5226      9494      9176      4268
 -1      6648    6    0    1
 -2      5085      5121      5162      6937      5449      5450      5448      9468      9546      8932
 -1      6649    6    0    1
 -2       316      1038      6732       315      9690      6748      8363       322      9010      8555
 -1      6650    6    0    1
 -2      1039       450       451      6732      9011       457      9691      6747      8560      8364
 -1      6651    6    0    1
 -2      1509      1582       353      4738      2004      2000      2002      8512      9032      4825
 -1      6652    6    0    1
 -2      2875      4738      2802       488      9034      8514      3297      3292      4936      3296
 -1      6653    6    0    1
 -2      2796      4727      4712       469      9173      4773      8766      3239      4898      4899
 -1      6654    6    0    1
 -2      4712      1503       334      4727      9085      1945      4772      4773      8984      4768
 -1      6655    6    0    1
 -2      5111      4019      4040      6925      9600      4231      9300      8581      9601      9301
 -1      6656    6    0    1
 -2      2926      2773      6886      6903      3420      9524      9692      9030      9320      9525
 -1      6657    6    0    1
 -2      2805      2873      4724       485      3288      9050      8491      3287      3283      4930
 -1      6658    6    0    1
 -2      1512      1580       350      4724      1995      1991      1993      8489      9048      4816
 -1      6659    6    0    1
 -2      1386      2946       449      1044      9472      3207      9471      9304      9501      9693
 -1      6660    6    0    1
 -2      1653      1043      1386       314      9505      9307      9474      1913      9694      9475
 -1      6661    6    0    1
 -2       491      2804      4748      2878      3305      8782      4942      3301      3306      8978
 -1      6662    6    0    1
 -2      1511      1585       356      4748      2013      2009      2011      8778      8977      4834
 -1      6663    6    0    1
 -2      5077      5114      5143      6912      5348      5347      5343      7491      7292      8295
 -1      6664    6    0    1
 -2      5555      5621      5592      6912      5820      5825      5826      7489      8485      8531
 -1      6665    6    0    1
 -2      5117      6905      6929      6937      9695      8688      9361      9550      8658      9587
 -1      6666    6    0    1
 -2      5141      5089      6901      6919      5478      8621      9388      9481      9271      7898
 -1      6667    6    0    1
 -2      6101      6614      6596      4322      9698      9696      9697      9700      9699      9701
 -1      6668    6    0    1
 -2      5125      5085      5100      6898      5440      5442      5441      7354      7355      8281
 -1      6669    6    0    1
 -2      5563      5603      5578      6898      5919      5918      5920      7179      7356      7336
 -1      6670    6    0    1
 -2      5557      5596      5650      6945      5850      5851      5852      9357      7132      7133
 -1      6671    6    0    1
 -2      6042      4055      4046      6034      9703      4237      9702      6093      9548      9704
 -1      6672    6    0    1
 -2      1390       169      1391      6930      1396      1392      1404      9638      9196      9630
 -1      6673    6    0    1
 -2      6892      5560      5661      6936      9159      5889      8548      7126      8770      8549
 -1      6674    6    0    1
 -2      5124      5099      5084      6900      5430      5429      5431      7210      8930      7026
 -1      6675    6    0    1
 -2      5577      5602      5562      6900      5907      5909      5908      8415      7232      8948
 -1      6676    6    0    1
 -2      6905      6888      6929      6937      8506      6998      8688      8658      7726      9587
 -1      6677    6    0    1
 -2      1358      2874      2975      6934      9515      3175      9705      9517      7692      9706
 -1      6678    6    0    1
 -2      1581      1358      1682      6934      9516      9707      1882      7691      9517      9708
 -1      6679    6    0    1
 -2      2879       494      4739      2806      3310      4948      8989      3315      3314      8937
 -1      6680    6    0    1
 -2      1513      1586       359      4739      2022      2018      2020      8935      8987      4843
 -1      6681    6    0    1
 -2       866      6369      5135      6366      6389      9709      5197      6404      6403      9244
 -1      6682    6    0    1
 -2      2815       471      4728      2995      3241      4902      8695      3246      3245      9609
 -1      6683    6    0    1
 -2      1522       336      1702      4728      1949      1951      1953      8248      4774      9610
 -1      6684    6    0    1
 -2      5609      5560      5654      6936      5894      5892      5893      7454      8770      8771
 -1      6685    6    0    1
 -2       371      1493      1606      4745      2058      2060      2056      4883      8220      7859
 -1      6686    6    0    1
 -2      2786      2899      4745       506      3353      7858      8582      3352      3348      4973
 -1      6687    6    0    1
 -2      6905      5117      5162      6937      9695      5354      7148      8658      9550      8932
 -1      6688    6    0    1
 -2      5615      5588      4032       597      5757      9160      9161      5752      5756      4199
 -1      6689    6    0    1
 -2      2877      4743      4718       505      9065      4881      8993      3343      4970      4971
 -1      6690    6    0    1
 -2       370      4718      1584      4743      4880      8701      2051      4876      4881      9064
 -1      6691    6    0    1
 -2      5599      5603      4053       592      5742      8465      8057      5737      5741      4070
 -1      6692    6    0    1
 -2       666      4054      5121      5125      4063      8061      5259      5263      8466      5264
 -1      6693    6    0    1
 -2       654      5145      5144      6939      5223      5228      5227      9710      8538      9514
 -1      6694    6    0    1
 -2      5149      6038      5111      6925      9711      8812      5313      8640      8758      8581
 -1      6695    6    0    1
 -2      6035      6038      5149      6925      6068      9711      9345      9346      8758      8640
 -1      6696    6    0    1
 -2      5084      5166      5133      6916      5437      5439      5438      7189      8616      8970
 -1      6697    6    0    1
 -2      6037      5597      5627      6925      9667      5795      9712      9222      9457      9584
 -1      6698    6    0    1
 -2      6371      6358      6928      6929      6411      9713      7315      8507      9448      7000
 -1      6699    6    0    1
 -2      5109      5141      5089      6901      5240      5478      5475      9259      9388      8621
 -1      6700    6    0    1
 -2      5567      5619      5587      6901      5956      5718      5954      7896      8208      8973
 -1      6701    6    0    1
 -2      2965       278      1355      1358      3168      1385      9186      9714      1364      1379
 -1      6702    6    0    1
 -2       715      4663      4667      6919      4708      4707      4678      8117      8918      7697
 -1      6703    6    0    1
 -2      5103      5155      6935      6940      5453      9376      9715      9215      8773      9036
 -1      6704    6    0    1
 -2      2809       433      2944      1357      3182      3184      3167      7718      7411      9072
 -1      6705    6    0    1
 -2      1651      1357       298      1516      9073      7716      1891      1874      7717      1889
 -1      6706    6    0    1
 -2      6370      5613        26       906      7597      5676      6393      6394      8438       909
 -1      6707    6    0    1
 -2      5159      4026      5181       673      7318      7319      5285      5280      4294      5284
 -1      6708    6    0    1
 -2       599      5637      4026      5659      5758      7322      4209      5762      5763      7321
 -1      6709    6    0    1
 -2      5182      6367      6362      6918      9716      6399      9542      9543      9717      7218
 -1      6710    6    0    1
 -2      5100      5085      5172      6898      5442      5444      5443      8281      7355      7701
 -1      6711    6    0    1
 -2      5563      5578      5650      6898      5920      5921      5922      7179      7336      7334
 -1      6712    6    0    1
 -2       318      1658       317      6927      1925      1924       324      7619      8498      7567
 -1      6713    6    0    1
 -2       784      6243       783      4359      6296      6350       809      4541      9718      4540
 -1      6714    6    0    1
 -2      1514      1588       362      4750      2031      2027      2029      9134      8958      4852
 -1      6715    6    0    1
 -2       497      4750      2881      2807      4954      8960      3319      3323      8961      3324
 -1      6716    6    0    1
 -2      5080      5140      5175      6902      5387      5393      5392      7945      9149      9351
 -1      6717    6    0    1
 -2      5558      5653      5618      6902      5870      5871      5866      7562      6960      7678
 -1      6718    6    0    1
 -2       779       778      4360        57       804      4522      4521      6280      6275      9719
 -1      6719    6    0    1
 -2      5082      5107      5183      6892      5408      5410      5411      7792      7774      7164
 -1      6720    6    0    1
 -2      5585      5560      5661      6892      5887      5889      5888      7654      9159      8548
 -1      6721    6    0    1
 -2      5104      5175      6902      6939      5552      9351      9178      9419      9224      7928
 -1      6722    6    0    1
 -2       452      2951       453      6927      3218      3217       459      7569      8785      7626
 -1      6723    6    0    1
 -2      5149      5111      5091      6925      5313      5490      5491      8640      8581      7744
 -1      6724    6    0    1
 -2      5585      5565      5642      6906      5940      5939      5886      8202      7964      8066
 -1      6725    6    0    1
 -2      6237      6869      4338      6246      9722      9720      9721      6291      9723      9724
 -1      6726    6    0    1
 -2      5147      5150      5103      6940      5489      5337      5550      9725      8880      9215
 -1      6727    6    0    1
 -2      6800      4354      6099      6817      9728      9726      9727      9730      9729      9731
 -1      6728    6    0    1
 -2      5182      5127      6362      6373      5341      7216      9542      9732      7226      6430
 -1      6729    6    0    1
 -2      5118      5079      5172      6944      5372      5374      5373      7525      9383      7702
 -1      6730    6    0    1
 -2      5172      5100      6898      6938      5443      8281      7701      9099      8283      7340
 -1      6731    6    0    1
 -2      5089      5140      5120      6914      5480      5388      5479      8622      9150      8668
 -1      6732    6    0    1
 -2      4031      4008      5145      6939      4167      9733      9734      9736      9735      8538
 -1      6733    6    0    1
 -2      2991        80      1086      2885      3030      1138      7401      3035      3034      7402
 -1      6734    6    0    1
 -2      1698      1086       174      1592      7403      1269      1738      1742      8190      1740
 -1      6735    6    0    1
 -2      5099      5167      5084      6900      5433      5432      5429      8930      9458      7026
 -1      6736    6    0    1
 -2      5562      5645      5577      6900      5911      5910      5908      8948      9397      8415
 -1      6737    6    0    1
 -2      5562      5645      6900      6943      5911      9397      8948      9531      8609      7373
 -1      6738    6    0    1
 -2      5019       842      5600      4056      5030      5682      9551      9154      9737      9534
 -1      6739    6    0    1
 -2      5162      5077      5117      6905      5353      5351      5354      7148      7490      9695
 -1      6740    6    0    1
 -2      5595      5555      5640      6905      5830      5832      5831      8504      7488      7146
 -1      6741    6    0    1
 -2      2992      4722      2866       475      9544      8950      3258      3253      4911      3257
 -1      6742    6    0    1
 -2       340      1573      1699      4722      1963      1965      1961      4790      8951      9545
 -1      6743    6    0    1
 -2      5147      5103      6935      6940      5550      9715      9738      9725      9215      9036
 -1      6744    6    0    1
 -2      5128      5083      5113      6924      5420      5426      5291      9402      8873      9191
 -1      6745    6    0    1
 -2      5097      5131      5175      6939      5525      5391      5524      8537      7430      9224
 -1      6746    6    0    1
 -2      5641      5587       437      6922      5721      9431      9739      9077      8974      7729
 -1      6747    6    0    1
 -2      6372      5612      6928      6942      9740      9540      9680      9741      9676      8120
 -1      6748    6    0    1
 -2      4013      5136      4034      6923      9743      9742      4148      8614      9380      9683
 -1      6749    6    0    1
 -2      2846        85      2978      1114      3051      3047      3052      8233      1155      9549
 -1      6750    6    0    1
 -2      4009       651      4029      6923      4253      4258      4153      9606      9687      9338
 -1      6751    6    0    1
 -2      5608      5658      5557      6945      5856      5857      5855      7463      8225      9357
 -1      6752    6    0    1
 -2      2877      4718      2899       505      8993      7856      3350      3343      4971      3349
 -1      6753    6    0    1
 -2      1584      1606      4718       370      2057      7857      8701      2051      2055      4880
 -1      6754    6    0    1
 -2       788       789      6240      4378       814      6352      6319      4559      4398      9744
 -1      6755    6    0    1
 -2       209      1107      1532      1696      1342      8870      1847      1845      9565      1849
 -1      6756    6    0    1
 -2      1420      1616      1484      6903      2129      2128      2130      9745      8631      8482
 -1      6757    6    0    1
 -2      2777      2909      2713      6903      3422      3421      3423      8484      8630      9028
 -1      6758    6    0    1
 -2      6378       892      6358      6942      6441      6443      6445      9453      9746      9449
 -1      6759    6    0    1
 -2      5557      5635      5596      6945      5849      5848      5850      9357      8693      7132
 -1      6760    6    0    1
 -2      5102      5083      5128      6924      5418      5420      5419      7351      8873      9402
 -1      6761    6    0    1
 -2      2877      2790      4743       504      3345      9232      9065      3344      3346      4969
 -1      6762    6    0    1
 -2      1584      1497       369      4743      2053      2052      2050      9064      9063      4877
 -1      6763    6    0    1
 -2      5625      5581      5628      6908      6028      5815      5967      7884      8717      9203
 -1      6764    6    0    1
 -2      5625      5568      5598      6908      5962      5961      5844      7884      8849      8165
 -1      6765    6    0    1
 -2      5123      5126      5098      6913      5465      5534      5535      8954      8699      8288
 -1      6766    6    0    1
 -2      5576      5604      5601      6913      6012      5942      6013      8598      9193      8953
 -1      6767    6    0    1
 -2      5571      5648      5610      6942      5982      5810      5981      8526      9747      9748
 -1      6768    6    0    1
 -2      4986       831      4985      6927      4998      4992      5011      9749      8550      9750
 -1      6769    6    0    1
 -2      5598      5618      5567      6914      5865      5958      5957      8166      7669      7668
 -1      6770    6    0    1
 -2      5150      6379      5103      6940      8875      9537      5337      8880      8878      9215
 -1      6771    6    0    1
 -2      5136       651      4009      6923      5214      4253      9751      9380      9687      9606
 -1      6772    6    0    1
 -2      6885      5645      6900      6907      9753      9397      9752      9347      9398      9317
 -1      6773    6    0    1
 -2      2810       831      4986      6927      7087      4998      9754      8499      8550      9749
 -1      6774    6    0    1
 -2       187      1556      1084      1707      1779      8867      1295      1781      1783      9589
 -1      6775    6    0    1
 -2        93      2849      3000      1084      3071      3076      3075      1177      8868      9590
 -1      6776    6    0    1
 -2      4985       831      1517      6927      4992      6951      9755      9750      8550      8497
 -1      6777    6    0    1
 -2      1521      1590       365      4716      2040      2036      2038      9000      8999      4861
 -1      6778    6    0    1
 -2       500      4716      2883      2814      4960      9002      3328      3332      9163      3333
 -1      6779    6    0    1
 -2      6381       870      6364      6940      6415      6421      6423      8229      9538      9068
 -1      6780    6    0    1
 -2      1123      2912       169      1619      9362      9403      1131      9364      9055      9298
 -1      6781    6    0    1
 -2      1591      1088      1122       172      8884      1136      8883      1734      1268      1126
 -1      6782    6    0    1
 -2      5160      5110      5081      6910      5396      5395      5394      8833      8155      7846
 -1      6783    6    0    1
 -2      5559      5588      5638      6910      5872      5874      5873      7052      8424      7467
 -1      6784    6    0    1
 -2      4025      5115      4004      6921      9602      9688      4157      9604      8645      9689
 -1      6785    6    0    1
 -2      5106      5160      5174      6917      5425      5403      5553      9369      8834      8361
 -1      6786    6    0    1
 -2       346      1577      1692      4735      1981      1983      1979      4808      9013      9568
 -1      6787    6    0    1
 -2       481      2870      4735      2985      3275      9014      4923      3271      3276      9569
 -1      6788    6    0    1
 -2      4052         9       715      6919      4075       716      4076      9180      9451      8117
 -1      6789    6    0    1
 -2       214      1531      1110      1693      1860      8006      1349      1862      1864      9607
 -1      6790    6    0    1
 -2       277      1355      2795      2965      1384      8916      3171      3169      9186      3172
 -1      6791    6    0    1
 -2       265      1502      1355      1672      1878      8915      1377      1875      1879      9187
 -1      6792    6    0    1
 -2       598      5588      4027      5637      5755      8905      4204      5759      5760      8904
 -1      6793    6    0    1
 -2      5142      5083      6895      6932      5423      8872      9401      9413      9220      8570
 -1      6794    6    0    1
 -2       339      1699      1520      4729      1960      1962      1958      4783      9655      8332
 -1      6795    6    0    1
 -2      4023      5122      4044      6946      9422      9756      4246      9270      9418      9757
 -1      6796    6    0    1
 -2      5182      5127      5096      6918      5341      5519      5520      9543      7186      9172
 -1      6797    6    0    1
 -2       196      1566      1100      1703      1806      8850      1313      1808      1810      9633
 -1      6798    6    0    1
 -2      5135      6369        25      5106      9709      6390      5198      5199      9670      5200
 -1      6799    6    0    1
 -2       111      2863      2990      1080      3125      3130      3129      1231      9758      9631
 -1      6800    6    0    1
 -2       205      1570      1080      1697      1833      9759      1331      1835      1837      9632
 -1      6801    6    0    1
 -2      1701      1102      1567       199      9634      8861      1819      1817      1319      1815
 -1      6802    6    0    1
 -2      6040      5142       905      6932      9760      9400      6054      9761      9413      9414
 -1      6803    6    0    1
 -2       112      2990      2818      1105      3128      3133      3132      1236      9649      8146
 -1      6804    6    0    1
 -2      5118      5157      5079      6944      5371      5370      5372      7525      7988      9383
 -1      6805    6    0    1
 -2      2819       110      1078      6893      3122      1228      9762      9096      9561      9562
 -1      6806    6    0    1
 -2      1078       204      1526      6893      1329      1830      9763      9562      9564      8494
 -1      6807    6    0    1
 -2      6869      4338      4335      6237      9720      4543      9764      9722      9721      9765
 -1      6808    6    0    1
 -2       109      2993      2819      1078      3119      3124      3123      1227      9652      9762
 -1      6809    6    0    1
 -2      2902      4744       507      4745      9005      4975      3355      8890      4887      4974
 -1      6810    6    0    1
 -2       372      4744      1609      4745      4886      9006      2061      4882      4887      8891
 -1      6811    6    0    1
 -2      2885        80      1086      1089      3034      1138      7402      8746      1140      1142
 -1      6812    6    0    1
 -2       174      1086      1089      1592      1269      1142      1272      1740      8190      8663
 -1      6813    6    0    1
 -2       110      2863      1080      6893      3126      9758      1230      9561      9138      9563
 -1      6814    6    0    1
 -2      1080      1570       204      6893      9759      1832      1332      9563      8475      9564
 -1      6815    6    0    1
 -2      4031      5145       654      6939      9734      5223      4267      9736      8538      9710
 -1      6816    6    0    1
 -2      5641       437       436      6922      9739       445      9076      9077      7729      7001
 -1      6817    6    0    1
 -2      5593      5657      4025      6921      5700      9766      9767      9139      8829      9604
 -1      6818    6    0    1
 -2      6896      6904      6944      6945      7636      7638      7243      7464      8041      9430
 -1      6819    6    0    1
 -2      5645      5556      6885      6943      5840      8306      9753      8609      8302      9417
 -1      6820    6    0    1
 -2      4019      5589      4040      6925      9768      9478      4231      9601      9479      9301
 -1      6821    6    0    1
 -2      6528       979      6547      4360      6537      6555      9769      9771      9770      9772
 -1      6822    6    0    1
 -2      5644      5562      6916      6943      5915      8949      9157      9518      9531      7756
 -1      6823    6    0    1
 -2      2827      2987       117      1121      3148      3147      3143      8044      9654      1249
 -1      6824    6    0    1
 -2       211      1534      1121      1694      1851      8043      1343      1853      1855      9653
 -1      6825    6    0    1
 -2      4746      4754      1610      2903      4894      9295      9353      9354      9323      9169
 -1      6826    6    0    1
 -2      1043      1387      1386       314      9306      1409      9307      9694      9773      9475
 -1      6827    6    0    1
 -2      1386       449      1387      1044      9471      9774      1409      9304      9693      9305
 -1      6828    6    0    1
 -2       835      5636      5585        24      7123      5668      7653       838      5670      5669
 -1      6829    6    0    1
 -2      5162      5121      5095      6894      5450      5513      5514      7147      8064      7016
 -1      6830    6    0    1
 -2      5599      5640      5573      6894      5928      5992      5991      7178      7145      7021
 -1      6831    6    0    1
 -2      6369      5135      6366      6917      9709      9244      6403      9775      9166      9117
 -1      6832    6    0    1
 -2      6034      4055      4046      4022      9548      4237      9704      9371      4313      4314
 -1      6833    6    0    1
 -2      5080      5096      5152      6909      5382      5386      5385      7944      9171      7360
 -1      6834    6    0    1
 -2      5558      5630      5574      6909      5864      5863      5861      7563      7398      7472
 -1      6835    6    0    1
 -2      6231       774      4383      6615      6263      4425      9671      9553      9776      9672
 -1      6836    6    0    1
 -2      4328      6230      6852      4371      9778      9595      9777      4550      9598      9599
 -1      6837    6    0    1
 -2      6041      5620      5597      6932      9527      5796      9486      9377      9541      9373
 -1      6838    6    0    1
 -2      4056      4047      4023      5012      4128      4316      4315      8747      9669      9269
 -1      6839    6    0    1
 -2       348      1691      1515      4734      1987      1989      1985      4810      9658      8445
 -1      6840    6    0    1
 -2      2808       483      4734      2984      3277      4926      8447      3282      3281      9659
 -1      6841    6    0    1
 -2      6044      6034      4046      4022      6095      9704      9779      9780      9371      4314
 -1      6842    6    0    1
 -2      5111      4040       677      5151      9300      4306      5296      5297      9299      5292
 -1      6843    6    0    1
 -2      5629      5589      4040       603      5775      9478      9477      5770      5774      4229
 -1      6844    6    0    1
 -2      6228      4321      4342      6648      9781      4565      9570      9573      9782      9575
 -1      6845    6    0    1
 -2      5134      6358      6371      6929      9613      6411      9547      8634      9448      8507
 -1      6846    6    0    1
 -2       872      5127      5182      6373      5338      5341      5189      6424      7226      9732
 -1      6847    6    0    1
 -2      6885      6889      6900      6943      8252      7027      9752      9417      7372      7373
 -1      6848    6    0    1
 -2      2980      2802      4715       489      3300      8513      9666      3299      3295      4938
 -1      6849    6    0    1
 -2      5556      5617      5645      6907      5843      5846      5840      7499      8098      9398
 -1      6850    6    0    1
 -2      4012      4035      5137      6933      4195      8278      9783      9612      7486      7829
 -1      6851    6    0    1
 -2      5024      4023      4047      5012      9785      4316      9784      5068      9269      9669
 -1      6852    6    0    1
 -2       486      4736      2805      2982      4932      8490      3286      3290      9663      3291
 -1      6853    6    0    1
 -2      5137      4035       670      5146      8278      4285      5275      5276      7485      5271
 -1      6854    6    0    1
 -2      5624      5615      4035       596      5754      9142      9143      5749      5753      4194
 -1      6855    6    0    1
 -2      1685       178      1092      1612      1754      1280      7801      1756      1752      8344
 -1      6856    6    0    1
 -2      2978        84      2905      1092      3048      3044      3049      7799      1152      7800
 -1      6857    6    0    1
 -2      6513       969      6494      4344      6522      6510      9786      9788      9787      9789
 -1      6858    6    0    1
 -2      5654      5623      5575      6941      6008      6005      6004      8352      8350      8519
 -1      6859    6    0    1
 -2       176      1598      1113      1498      1744      9061      1273      1749      1748      9062
 -1      6860    6    0    1
 -2      2791        82      2891      1113      3042      3036      3041      9313      1144      9060
 -1      6861    6    0    1
 -2      5145      5097      5144      6939      5527      5528      5228      8538      8537      9514
 -1      6862    6    0    1
 -2       872      5182      6362      6373      5189      9542      6429      6424      9732      6430
 -1      6863    6    0    1
 -2      4044      5122      4020      6946      9756      9559      4132      9757      9418      9560
 -1      6864    6    0    1
 -2      5168      5122      5016      6946      5309      9608      9566      8291      9418      9567
 -1      6865    6    0    1
 -2      6647      6098      4323      4343      9579      9790      9791      9582      9583      4500
 -1      6866    6    0    1
 -2      2982      4738      2875       487      9665      9034      3294      3289      4935      3293
 -1      6867    6    0    1
 -2      1582      1689       352      4738      2001      1997      1999      9032      9664      4826
 -1      6868    6    0    1
 -2       715      4666      4663      6919      4672      4696      4708      8117      9662      8918
 -1      6869    6    0    1
 -2      2791      2956        82      1090      3043      3040      3042      9312      9340      1146
 -1      6870    6    0    1
 -2       176      1090      1663      1498      1276      9341      1746      1749      9315      1750
 -1      6871    6    0    1
 -2      5154      5117      6905      6929      5352      9695      9321      9322      9361      8688
 -1      6872    6    0    1
 -2      6039      6037      6035      6925      6085      6097      6070      8641      9222      9346
 -1      6873    6    0    1
 -2      4005      5179      4025      6921      9255      9603      4158      9254      9253      9604
 -1      6874    6    0    1
 -2      5571      5610      6915      6942      5981      7410      8524      8526      9748      7161
 -1      6875    6    0    1
 -2      6380      6359       895      5628      6460      6459      6451      9204      9434      5811
 -1      6876    6    0    1
 -2      5631      5589       604      4055      5778      5773      5777      9793      9792      4232
 -1      6877    6    0    1
 -2      4031      4008      6939      6941      4167      9735      9736      9795      9794      9247
 -1      6878    6    0    1
 -2      6683      4984      6681       454      9615      9591      6695      9797      9796      9798
 -1      6879    6    0    1
 -2      4017      5126      4037      6913      9466      9500      4143      9465      8699      9498
 -1      6880    6    0    1
 -2      4037      5604      4017      6913      9497      9464      4143      9498      9193      9465
 -1      6881    6    0    1
 -2      5622      4011      4036      6941      9799      4171      9293      9294      9800      9088
 -1      6882    6    0    1
 -2      6360       906      6366      6917      6465      6463      6466      7599      8439      9117
 -1      6883    6    0    1
 -2      6370       890      5643      6360      6392      5798      9539      6434      6433      8553
 -1      6884    6    0    1
 -2       314      6766      1388      6767      9802      9627      9801      9803      6779      9628
 -1      6885    6    0    1
 -2      6242      4346      6247      6581      9805      9804      6271      9807      9806      9808
 -1      6886    6    0    1
 -2      1092        84      2905      1091      1152      3044      7800      1154      1150      8835
 -1      6887    6    0    1
 -2       178      1091      1092      1612      1277      1154      1280      1752      8836      8344
 -1      6888    6    0    1
 -2      4344      6494      6513       968      9789      9786      9788      9809      6509      6523
 -1      6889    6    0    1
 -2      5019      5600       842      5017      9551      5682      5030      5054      9533      5049
 -1      6890    6    0    1
 -2       797      4379      6241       796      4561      9810      6343       822      4411      6356
 -1      6891    6    0    1
 -2       678      4042      5111      5153      4309      8577      5295      5299      8578      5300
 -1      6892    6    0    1
 -2      4052       655      5144      4036      4268      5226      9494      4270      4269      9495
 -1      6893    6    0    1
 -2      4051      5622       581      4036      9496      5704      4169      4172      9293      4170
 -1      6894    6    0    1
 -2      5164      5105      5087      6923      5405      5460      5461      7426      7951      7904
 -1      6895    6    0    1
 -2       669      4039      5112      5146      4282      9101      5268      5272      9102      5273
 -1      6896    6    0    1
 -2      5601      5651      5021      6906      5782      9395      9811      9384      9349      9396
 -1      6897    6    0    1
 -2      4044      4056      4023      6946      4133      4315      4246      9757      8750      9270
 -1      6898    6    0    1
 -2      5583       577      5657      4029      5696      5694      5697      9336      4151      9337
 -1      6899    6    0    1
 -2      6631      4342      1009      6648      9571      9812      6640      9574      9575      6656
 -1      6900    6    0    1
 -2      4983       319      1023      4981      9814      9813      9439      5003      9815      9291
 -1      6901    6    0    1
 -2      6919       304      4663      6920      9480      9661      8918      8920      9483      8919
 -1      6902    6    0    1
 -2      4374      6801      6229      4351      9817      9620      9816      4558      9621      9622
 -1      6903    6    0    1
 -2      4343      6647      6630      1008      9582      9580      9581      9818      6653      6635
 -1      6904    6    0    1
 -2      5591      5597      5561      6911      5904      5906      5905      9265      9372      8568
 -1      6905    6    0    1
 -2      5083      5119      5113      6911      5428      5427      5426      9123      8761      9188
 -1      6906    6    0    1
 -2      1389      1387       449      1044      1415      9774      9819      9445      9305      9693
 -1      6907    6    0    1
 -2      5024      4047      5019      5012      9784      9668      5040      5068      9669      5067
 -1      6908    6    0    1
 -2       741       740      6111      4380       766      6226      6187      4496      4404      9820
 -1      6909    6    0    1
 -2      6036      5627      5589      6925      9821      5791      9488      8900      9584      9479
 -1      6910    6    0    1
 -2      6237      4335      6869       959      9765      9764      9722      9823      9822      6877
 -1      6911    6    0    1
 -2       374      1496      1607      4719      2070      2069      2065      4888      9226      9225
 -1      6912    6    0    1
 -2      2900      4719      2789       509      9227      9311      3362      3357      4978      3363
 -1      6913    6    0    1
 -2      5117      5077      5154      6905      5351      5346      5352      9695      7490      9321
 -1      6914    6    0    1
 -2      5595      5632      5555      6905      5829      5824      5830      8504      8706      7488
 -1      6915    6    0    1
 -2         9       304      4666      6919       313      9660      4670      9451      9480      9662
 -1      6916    6    0    1
 -2      6615       999      4375      6597      6623      9824      9554      9556      6605      9555
 -1      6917    6    0    1
 -2      2874       278      2965      1358      3174      3168      3173      9515      1364      9714
 -1      6918    6    0    1
 -2       594      4043      5590      5656      4184      8719      5747      5743      8718      5748
 -1      6919    6    0    1
 -2      5182      6362      6367       872      9542      6399      9716      5189      6429      6385
 -1      6920    6    0    1
 -2      6869      4335      4338       959      9764      4543      9720      6877      9822      9825
 -1      6921    6    0    1
 -2      4036      4011      5144      6939      4171      9826      9495      9420      9827      9514
 -1      6922    6    0    1
 -2      6631        52      6228      6648      6637      6257      9572      9574      6655      9573
 -1      6923    6    0    1
 -2      6647      6098      6630        42      9579      9578      9580      6650      6183      6634
 -1      6924    6    0    1
 -2      6800      6099        32      6817      9727      6152      6804      9730      9731      6820
 -1      6925    6    0    1
 -2        65      6801      6818      6229      6808      9618      6825      6310      9620      9619
 -1      6926    6    0    1
 -2      6615      6231        53      6597      9553      6262      6620      9556      9557      6604
 -1      6927    6    0    1
 -2        44      6614      6596      6101      6616      9696      6600      6195      9698      9697
 -1      6928    6    0    1
 -2      6834      6100        30      6851      9641      6134      6838      9644      9645      6854
 -1      6929    6    0    1
 -2        63      6835      6852      6230      6842      9594      6858      6292      9596      9595
 -1      6930    6    0    1
 -2      5110      5160      5102      6910      5396      5422      5547      8155      8833      7081
 -1      6931    6    0    1
 -2      5638      5588      5580      6910      5874      6025      5899      7467      8424      7083
 -1      6932    6    0    1
 -2      5166      5114      5077      6912      5349      5348      5350      8615      7292      7491
 -1      6933    6    0    1
 -2      5555      5592      5644      6912      5826      5827      5828      7489      8531      9106
 -1      6934    6    0    1
 -2      4371      6835      6852      1069      9597      9594      9599      9828      6843      6861
 -1      6935    6    0    1
 -2       835      5585      5651        24      7653      5671      9348       838      5669      5665
 -1      6936    6    0    1
 -2      6037      5597      6033      6041      9667      9485      6086      6079      9486      6087
 -1      6937    6    0    1
 -2      2889      2908      4662      2999      3377      9829      8803      3202      3205      8804
 -1      6938    6    0    1
 -2      1706      1596      1615      4662      1909      2084      1912      8799      8798      9830
 -1      6939    6    0    1
 -2       439      2999       438      6920      3200      3201       447      9155      8805      7283
 -1      6940    6    0    1
 -2       303      1706       304      6920      1908      1907       312      7284      8800      9483
 -1      6941    6    0    1
 -2      1503       334      1635      4712      1945      1943      1946      9085      4772      8765
 -1      6942    6    0    1
 -2       469      4712      2796      2928      4899      8766      3239      3237      8767      3238
 -1      6943    6    0    1
 -2      1591      1122      1569       172      8883      8942      1736      1734      1126      1711
 -1      6944    6    0    1
 -2       719      6112       720      4330      6202      6216       745      4449      9831      4448
 -1      6945    6    0    1
 -2      5099      5163      5109      6922      5538      5243      5537      8931      9268      9260
 -1      6946    6    0    1
 -2      2863      1570      1080      6893      9137      9759      9758      9138      8475      9563
 -1      6947    6    0    1
 -2      6034      4046      6042      6044      9704      9702      6093      6095      9779      6061
 -1      6948    6    0    1
 -2      4351      6801      6818      1059      9621      9618      9623      9832      6809      6827
 -1      6949    6    0    1
 -2      5155      5116      5078      6935      5359      5358      5360      9376      9415      9833
 -1      6950    6    0    1
 -2      5171      5126       648      4017      5210      5209      5205      9467      9466      4248
 -1      6951    6    0    1
 -2       574      5604      5649      4017      5687      5688      5683      4134      9464      9463
 -1      6952    6    0    1
 -2      4008      5623      4028      6941      9834      9212      4163      9794      8350      9151
 -1      6953    6    0    1
 -2      6366       906       905      6917      6463       908      6464      9117      8439      9368
 -1      6954    6    0    1
 -2      1526      2819      1078      6893      9095      9762      9763      8494      9096      9562
 -1      6955    6    0    1
 -2      4015      4035      5624      6926      4196      9143      9835      9343      7484      9144
 -1      6956    6    0    1
 -2       905      6369      6366      6917      6391      6403      6464      9368      9775      9117
 -1      6957    6    0    1
 -2      5112       668      5178      6938      5269      5265      5270      9130      9836      8282
 -1      6958    6    0    1
 -2       785      6835      6230      4371      9837      9596      6302      4548      9597      9598
 -1      6959    6    0    1
 -2      6110       732         7       733      6160      4388      9838      6222       758      4389
 -1      6960    6    0    1
 -2      5122      5171       647      4020      5207      5206      5202      9559      9558      4243
 -1      6961    6    0    1
 -2      5592      5644      6912      6943      5827      9106      8531      9098      9518      7374
 -1      6962    6    0    1
 -2      5023      5013      5021      6906      5074      5073      5044      8384      8929      9396
 -1      6963    6    0    1
 -2      6785      6766       294      1049      9840      9639      9839      6794      6782      9647
 -1      6964    6    0    1
 -2      6785       294      6766      1048      9839      9639      9840      6795      9648      6781
 -1      6965    6    0    1
 -2      6664      1018      6681       825      6680      6693      9841      9842      9636      9592
 -1      6966    6    0    1
 -2      6664      6681      1019       825      9841      6692      6679      9842      9592      9635
 -1      6967    6    0    1
 -2      5636      5661      5574      6936      6001      5999      6000      7125      8549      8763
 -1      6968    6    0    1
 -2      5606      4033       601      5591      9585      4219      5764      5769      9266      5768
 -1      6969    6    0    1
 -2       675      5113      4033      5128      5290      9190      4300      5286      5291      9493
 -1      6970    6    0    1
 -2      5132      6363       869      6377      9412      6417      5331      8386      6416      6410
 -1      6971    6    0    1
 -2       775      4346       776      6242      4513      4512       801      6270      9805      6346
 -1      6972    6    0    1
 -2      5591      4038       602      5629      9286      4224      5767      5772      9243      5771
 -1      6973    6    0    1
 -2      5113      4038      5151       676      9285      9241      5294      5289      4303      5293
 -1      6974    6    0    1
 -2      4041      5649      4020      6946      9282      9843      4138      9042      9284      9560
 -1      6975    6    0    1
 -2      4042      5589      4019      6925      9844      9768      4235      8579      9479      9601
 -1      6976    6    0    1
 -2      6376      5643       890      6360      7650      5798      6431      6435      8553      6433
 -1      6977    6    0    1
 -2      2947       169      2912      2793      9459      9403      3012      3210      9195      3619
 -1      6978    6    0    1
 -2      1654       169      1500      1619      9461      9194      1918      1719      9298      2327
 -1      6979    6    0    1
 -2      6379       871      6359      5150      6419      6426      6428      8875      5333      9404
 -1      6980    6    0    1
 -2       423      1499      1661      4665      2081      2082      2077      4685      8679      8753
 -1      6981    6    0    1
 -2      2792      2954      4665       558      3375      8755      8682      3374      3369      4701
 -1      6982    6    0    1
 -2       558      4661      2792      2889      4702      8681      3374      3373      9045      3199
 -1      6983    6    0    1
 -2       423      1596      1499      4661      2079      1906      2081      4689      9047      8680
 -1      6984    6    0    1
 -2      5644      5611      5579      6916      5917      6021      6020      9157      9411      7571
 -1      6985    6    0    1
 -2      6834      4372      4339      6851      9845      4488      9642      9644      9846      9643
 -1      6986    6    0    1
 -2      5593      5654      5560      6921      5890      5892      5891      9139      8348      9120
 -1      6987    6    0    1
 -2      6358      6928      6929      6942      9713      7000      9448      9449      8120      7247
 -1      6988    6    0    1
 -2      5629      5589      5569      6925      5775      5968      5970      8472      9479      8566
 -1      6989    6    0    1
 -2      5108      5088      5134      6929      5467      5468      5324      7703      8996      8634
 -1      6990    6    0    1
 -2      4745       507      2902      2786      4974      3355      8890      8582      3351      3356
 -1      6991    6    0    1
 -2       372      1609      1493      4745      2061      2063      2059      4882      8891      8220
 -1      6992    6    0    1
 -2       905      6045      6040      6932      6080      6082      6054      9414      9379      9761
 -1      6993    6    0    1
 -2       906      5613        26      5584      8438      5676       909      8874      5677      5678
 -1      6994    6    0    1
 -2      5178       668      4043      6938      5265      4279      9847      8282      9836      8720
 -1      6995    6    0    1
 -2       675      4033      4010      5128      4300      4220      4295      5286      9493      9508
 -1      6996    6    0    1
 -2       601      4010      4033      5606      4213      4220      4219      5764      9588      9585
 -1      6997    6    0    1
 -2       727      6113       728      4358      6220      6138       753      4476      9848      4477
 -1      6998    6    0    1
 -2      4039      4018      5112      6938      4191      9849      9101      9399      9577      9130
 -1      6999    6    0    1
 -2      4028      5593      4004      6921      9429      9850      4162      7767      9139      9689
 -1      7000    6    0    1
 -2      6528      4333       979      4360      9852      9851      6537      9771      4529      9770
 -1      7001    6    0    1
 -2       284      1386       285      1671      1406      1405       287      1883      9473      1884
 -1      7002    6    0    1
 -2       290       289      2964      1386       292      3177      3176      1412      1411      9470
 -1      7003    6    0    1
 -2       265      1356      1502      1651      1373      8722      1878      1873      8724      1877
 -1      7004    6    0    1
 -2       277      2944      2795      1356      3165      3170      3171      1383      8723      8917
 -1      7005    6    0    1
 -2      5089      5129      5140      6919      5482      5481      5480      9271      9454      9156
 -1      7006    6    0    1
 -2      5094      5135      5174      6917      5509      5511      5507      7535      9166      8361
 -1      7007    6    0    1
 -2      6100       729      4339      6834      6143      4480      9640      9641      9853      9642
 -1      7008    6    0    1
 -2      4036      4011      6939      6941      4171      9827      9420      9088      9800      9247
 -1      7009    6    0    1
 -2       718      6614      6101      4322      9854      9698      6196      4446      9699      9700
 -1      7010    6    0    1
 -2      4010      4030      5128      6924      4216      9407      9508      9509      9408      9402
 -1      7011    6    0    1
 -2      4665      1661       422      4664      8753      2076      4686      4687      8754      4682
 -1      7012    6    0    1
 -2      5643      5613       890      6370      5799      5675      5798      9539      7597      6392
 -1      7013    6    0    1
 -2      5158       834      6367      6918      8817      6383      9855      8819      7943      9717
 -1      7014    6    0    1
 -2       787      6229      6818      4351      6311      9619      9856      4552      9622      9623
 -1      7015    6    0    1
 -2      5180      5157      5108      6944      5381      5470      5554      7866      7988      7242
 -1      7016    6    0    1
 -2      2954      4664      4665       557      8405      4687      8755      3370      4698      4700
 -1      7017    6    0    1
 -2      5649      5600       573      6946      5685      5680      5684      9284      9535      9857
 -1      7018    6    0    1
 -2      6630       742      6098      4343      9858      6191      9578      9581      4418      9583
 -1      7019    6    0    1
 -2      1088        78      2884      1122      1134      3028      8881      1136      1128      8882
 -1      7020    6    0    1
 -2      5158       834      5107        23      8817      8211      5191      5192       836      5190
 -1      7021    6    0    1
 -2      5017      5646      5014      6946      9859      9646      5051      8749      8601      9280
 -1      7022    6    0    1
 -2       798      6228      4342      6631      6260      9570      4426      9860      9572      9571
 -1      7023    6    0    1
 -2      6036      6037      5627      6925      6077      9712      9821      8900      9222      9584
 -1      7024    6    0    1
 -2      6868      4337      6116      6107      9863      9861      9862      9865      9864      6129
 -1      7025    6    0    1
 -2      5624      5590       595      6926      5751      5746      5750      9144      8856      9866
 -1      7026    6    0    1
 -2      4712       335      1635      4728      4771      1944      8765      4776      4775      8247
 -1      7027    6    0    1
 -2      2928      4712      4728       470      8767      4776      8249      3236      4900      4901
 -1      7028    6    0    1
 -2      5561      5606      5591      6924      5898      5769      5905      9184      9521      9267
 -1      7029    6    0    1
 -2       595      4039      5624      6926      4189      9867      5750      9866      9103      9144
 -1      7030    6    0    1
 -2       774      4383      4375      6231      4425      4511      4510      6263      9671      9552
 -1      7031    6    0    1
 -2      2900      4744      4719       508      9146      4890      9227      3358      4976      4977
 -1      7032    6    0    1
 -2       373      1607      4744      4719      2064      9007      4885      4889      9225      4890
 -1      7033    6    0    1
 -2      6237      6478      4335       959      9869      9868      9765      9823      6487      9822
 -1      7034    6    0    1
 -2      6358      6372      6928      6942      6444      9680      9713      9449      9741      8120
 -1      7035    6    0    1
 -2      5106      5142      5083      6895      5201      5423      5424      9366      9401      8872
 -1      7036    6    0    1
 -2      5584      5561      5620      6895      5902      5901      5679      8449      8569      9529
 -1      7037    6    0    1
 -2      5137      5092      5161      6933      5501      5500      5502      7829      7230      9274
 -1      7038    6    0    1
 -2       905      5142        25      5106      9400      5195       907      9367      5201      5200
 -1      7039    6    0    1
 -2      5644      5562      5611      6916      5915      5916      5917      9157      8949      9411
 -1      7040    6    0    1
 -2      4043       668      5112      6938      4279      5269      9870      8720      9836      9130
 -1      7041    6    0    1
 -2      5109      5163       302      6922      5243      9871      9657      9260      9268      8636
 -1      7042    6    0    1
 -2      5167      5139      5078      6907      5368      5365      5361      9469      8152      9872
 -1      7043    6    0    1
 -2      5128      5181      4030       674      5288      9406      9407      5287      5283      4297
 -1      7044    6    0    1
 -2      5606       600      4030      5659      5765      4214      9519      5766      5761      9520
 -1      7045    6    0    1
 -2      5132      6377       869      5170      8386      6410      5331      5332      7158      5327
 -1      7046    6    0    1
 -2       866      5135      5165      6366      5197      5321      5320      6404      9244      9116
 -1      7047    6    0    1
 -2      5132      5093      5143      6915      5503      5342      5458      8227      8591      7825
 -1      7048    6    0    1
 -2      1028       317      6716      6715      9511      9873      6721      6727      7566      6728
 -1      7049    6    0    1
 -2      1029      6715      6717       452      6726      6729      6725      9512      7565      9874
 -1      7050    6    0    1
 -2      4009      5614      4034      6923      9650      9682      4147      9606      8413      9683
 -1      7051    6    0    1
 -2      4018      4043      5112      6938      4185      9870      9849      9577      8720      9130
 -1      7052    6    0    1
 -2      5110      4007       671      6933      9875      4286      5278      8156      9437      9876
 -1      7053    6    0    1
 -2      5658      5586      5635      6945      6032      5947      5859      8225      9210      8693
 -1      7054    6    0    1
 -2      1023       318      6700      6927      9877      7615      6710      9491      7619      7618
 -1      7055    6    0    1
 -2      5569      5597      5591      6911      5971      5904      5972      8565      9372      9265
 -1      7056    6    0    1
 -2      5119      5091      5113      6911      5493      5494      5427      8761      7742      9188
 -1      7057    6    0    1
 -2      6365       834       835      6918      6395       837      6396      8038      7943      7527
 -1      7058    6    0    1
 -2       493      4739      4725      2879      4947      4845      4946      3311      8989      9114
 -1      7059    6    0    1
 -2      4725       358      1586      4739      4840      2017      8468      4845      4844      8987
 -1      7060    6    0    1
 -2      4004      5593      4025      6921      9850      9767      4157      9689      9139      9604
 -1      7061    6    0    1
 -2      2796      2962      4727       469      3240      8983      9173      3239      3233      4898
 -1      7062    6    0    1
 -2      1503      1669       334      4727      1947      1941      1945      8984      8985      4768
 -1      7063    6    0    1
 -2       453      1024      6700      6927      9878      6709      7625      7626      9490      7618
 -1      7064    6    0    1
 -2      4749       361      1588      4750      4849      2026      8573      4854      4853      8958
 -1      7065    6    0    1
 -2       496      4750      4749      2881      4953      4854      4952      3320      8960      9094
 -1      7066    6    0    1
 -2      5583      5565      5614      6923      5938      5937      5695      8534      7967      8413
 -1      7067    6    0    1
 -2       989      4349      6563      6580      9880      9879      6577      6590      9881      9882
 -1      7068    6    0    1
 -2      4322      6614      6596       998      9699      9696      9701      9883      6619      6601
 -1      7069    6    0    1
 -2      5126      5136       649      4013      5213      5211      5208      9499      9743      4250
 -1      7070    6    0    1
 -2      5614      5604       575      4013      5691      5686      5689      8613      9292      4140
 -1      7071    6    0    1
 -2      5561      5580      5606      6924      5897      5896      5898      9184      7492      9521
 -1      7072    6    0    1
 -2      4039      4015      5624      6926      4190      9835      9867      9103      9343      9144
 -1      7073    6    0    1
 -2      6366      5165       866      6375      9116      5320      6404      6405      9131      6401
 -1      7074    6    0    1
 -2      2979       493      4725      2879      3307      4946      8433      3312      3311      9114
 -1      7075    6    0    1
 -2       358      1586      1686      4725      2017      2019      2015      4840      8468      8432
 -1      7076    6    0    1
 -2      5649       573      4044      6946      5684      4131      9884      9284      9857      9757
 -1      7077    6    0    1
 -2       302      5163       301      6922      9871      9303       310      8636      9268      7003
 -1      7078    6    0    1
 -2      1090      2956        83      1091      9340      3039      1147      1151      8986      1149
 -1      7079    6    0    1
 -2      1663      1091      1090       177      8837      1151      9341      1747      1278      1275
 -1      7080    6    0    1
 -2      5588      4007      4032       597      9436      4200      9160      5756      4198      4199
 -1      7081    6    0    1
 -2      5178      4043      4021      6938      9847      4186      9452      8282      8720      9335
 -1      7082    6    0    1
 -2      5120      5147      5078      6935      5367      5366      5363      8671      9738      9833
 -1      7083    6    0    1
 -2      6598      4322       998      4376      9885      9883      6612      9886      4591      9887
 -1      7084    6    0    1
 -2      5161      5081      5110      6933      5397      5395      5398      9274      9153      8156
 -1      7085    6    0    1
 -2      2898      4720      4742       502      8587      4872      8619      3338      4964      4965
 -1      7086    6    0    1
 -2      1605      4720       367      4742      8586      4867      2044      8618      4872      4871
 -1      7087    6    0    1
 -2      6375      5108       867      6371      7098      5325      6402      6408      7314      6407
 -1      7088    6    0    1
 -2      1069      6836      6853      4325      6849      9888      6862      9890      9889      9891
 -1      7089    6    0    1
 -2      5182      5158      6367      6918      5194      9855      9716      9543      8819      9717
 -1      7090    6    0    1
 -2      5153       678      4042      4022      5299      4309      8578      9476      4307      4310
 -1      7091    6    0    1
 -2      5606      4030      4010      6924      9519      4216      9588      9521      9408      9509
 -1      7092    6    0    1
 -2      5638      5561      5584      6895      5900      5902      5903      7632      8569      8449
 -1      7093    6    0    1
 -2      5083      5160      5106      6895      5421      5425      5424      8872      8980      9366
 -1      7094    6    0    1
 -2      5018      5601      5021      6906      9484      9811      5047      9421      9384      9396
 -1      7095    6    0    1
 -2      1508      1123      1112       216      9405      1266      9375      1866      1133      1353
 -1      7096    6    0    1
 -2      5103      6381       870      5132      9339      6415      5335      5336      8228      5330
 -1      7097    6    0    1
 -2      2903      2789      4746       509      3364      9310      9354      3361      3363      4979
 -1      7098    6    0    1
 -2       315       316      1673      6930       322      1916      1915      8559      8367      9435
 -1      7099    6    0    1
 -2       450      2966       451      6930      3209      3208       457      8562      9316      8365
 -1      7100    6    0    1
 -2       361      1588      1684      4749      2026      2028      2024      4849      8573      8517
 -1      7101    6    0    1
 -2       496      4749      2977      2881      4952      8518      3316      3320      9094      3321
 -1      7102    6    0    1
 -2      5581       894      6382      5610      5814      6447      8596      5813      5808      7407
 -1      7103    6    0    1
 -2      6377      6358       868      5134      6413      6412      6409      8633      9613      5322
 -1      7104    6    0    1
 -2       731      6099      4354      6817      6153      9726      4492      9892      9731      9729
 -1      7105    6    0    1
 -2      4020      5649      4044      6946      9843      9884      4132      9560      9284      9757
 -1      7106    6    0    1
 -2      2862      2884        78      1122      3029      3028      3003      8943      8882      1128
 -1      7107    6    0    1
 -2      4349       988      6563      6580      9893      6578      9879      9881      6591      9882
 -1      7108    6    0    1
 -2       978      4331      6545      6546      9895      9894      6551      6557      9896      6558
 -1      7109    6    0    1
 -2      4353      1058      6819      6817      9898      6829      9897      9899      6823      6830
 -1      7110    6    0    1
 -2       374      1610      1496      4746      2067      2071      2070      4892      9353      9309
 -1      7111    6    0    1
 -2      2878      4751      4748       490      8377      4836      8978      3302      4940      4941
 -1      7112    6    0    1
 -2      4751       355      1585      4748      4831      2008      9148      4836      4835      8977
 -1      7113    6    0    1
 -2      1687       355      1585      4751      2006      2008      2010      8327      4831      9148
 -1      7114    6    0    1
 -2      2878      2980      4751       490      3303      8329      8377      3302      3298      4940
 -1      7115    6    0    1
 -2      5103      5155      5147      6935      5453      5369      5550      9715      9376      9738
 -1      7116    6    0    1
 -2      6580       989      4349      6581      6590      9880      9881      6593      6589      9900
 -1      7117    6    0    1
 -2      6632      1008      6649      4340      6646      6659      9901      9903      9902      9904
 -1      7118    6    0    1
 -2      4383       999      4375      6615      9905      9824      4511      9672      6623      9554
 -1      7119    6    0    1
 -2      4354      6802      1058      6800      9907      6816      9906      9728      6813      6805
 -1      7120    6    0    1
 -2      6834      1068      4372      6851      6839      9908      9845      9644      6857      9846
 -1      7121    6    0    1
 -2      4017       648      5171      4041      4248      5205      9467      4137      4249      9041
 -1      7122    6    0    1
 -2      4017      5649       574      4041      9463      5683      4134      4137      9282      4136
 -1      7123    6    0    1
 -2       998      4324      6614      6613      9910      9909      6619      6625      9911      6626
 -1      7124    6    0    1
 -2      1651      1356      1357       264      8724      1375      9073      1872      1374      1370
 -1      7125    6    0    1
 -2      1357      2944       276      1356      9072      3166      1381      1375      8723      1382
 -1      7126    6    0    1
 -2      4013       649      5126      4037      4250      5208      9499      4142      4252      9500
 -1      7127    6    0    1
 -2      4013      5604       575      4037      9292      5686      4140      4142      9497      4141
 -1      7128    6    0    1
 -2      1039       451      6734      6732      9691      9912      6741      6747      8364      6746
 -1      7129    6    0    1
 -2      1038      6732      6733       316      6748      6745      6737      9690      8363      9913
 -1      7130    6    0    1
 -2       175      1089      1113      1598      1271      1145      1274      1743      8662      9061
 -1      7131    6    0    1
 -2      1089      2891        81      1113      8660      3037      1141      1145      9060      1143
 -1      7132    6    0    1
 -2       968      4318      6495      6511      9915      9914      6500      6517      9916      9917
 -1      7133    6    0    1
 -2      5021       835      5651        24      5034      9348      9395      5035       838      5665
 -1      7134    6    0    1
 -2      6632      6649      1009      4340      9901      6658      6645      9903      9904      9918
 -1      7135    6    0    1
 -2        75      1122      1569      6934      1125      8942      9919      9920      9586      8646
 -1      7136    6    0    1
 -2      5017      5600      5646      6946      9533      5787      9859      8749      9535      8601
 -1      7137    6    0    1
 -2      5593       579      5623      4028      5698      5702      5703      9429      4161      9212
 -1      7138    6    0    1
 -2       653      5115      5145      4028      5220      5225      5224      4264      8644      7765
 -1      7139    6    0    1
 -2      6800      1058      4354      6817      6805      9906      9728      9730      6823      9729
 -1      7140    6    0    1
 -2      2887      2862      2761      6934      3862      3911      3910      7050      8647      7591
 -1      7141    6    0    1
 -2      1569      1594      1468      6934      2569      2617      2618      8646      7038      7593
 -1      7142    6    0    1
 -2      5610      5621      5571      6915      5936      5821      5981      7410      7787      8524
 -1      7143    6    0    1
 -2      4983      6682        10      1018      9616      9921      4988      9617      6687      9922
 -1      7144    6    0    1
 -2        14      4984      1019      6683      4993      9614      9923      9924      9615      6691
 -1      7145    6    0    1
 -2      4023       646      5122      5020      4241      5203      9422      9423      9925      9424
 -1      7146    6    0    1
 -2      4727      2962      4711       468      8983      7998      4770      4897      3234      4896
 -1      7147    6    0    1
 -2      5019       572       842      4056      9926      5662      5030      9154      4127      9737
 -1      7148    6    0    1
 -2      6900      5645      6885      6943      9397      9753      9752      7373      8609      9417
 -1      7149    6    0    1
 -2      4354      1058      4353      6817      9906      9898      4494      9729      6823      9899
 -1      7150    6    0    1
 -2       667      5178      4045      5125      5266      8435      4276      5262      5267      8741
 -1      7151    6    0    1
 -2       593      5603      4045      5656      5740      8743      4179      5744      5745      8742
 -1      7152    6    0    1
 -2       110      2819      2863      6893      3122      3127      3126      9561      9096      9138
 -1      7153    6    0    1
 -2       204      1570      1526      6893      1832      1834      1830      9564      8475      8494
 -1      7154    6    0    1
 -2      1389      6768         8      1049      9624      9927      1402      9625      6775      9928
 -1      7155    6    0    1
 -2      4740       364      1590      4716      4858      2035      9302      4863      4862      8999
 -1      7156    6    0    1
 -2       499      4716      4740      2883      4959      4863      4958      3329      9002      8955
 -1      7157    6    0    1
 -2      5628      6359       895      6374      9434      6459      5811      9081      6458      6457
 -1      7158    6    0    1
 -2       276      2809      2944      1357      3162      3167      3166      1381      7718      9072
 -1      7159    6    0    1
 -2      1516      1651      1357       264      1874      9073      7717      1870      1872      1370
 -1      7160    6    0    1
 -2      4711       333      1669      4727      4765      1940      7997      4770      4769      8985
 -1      7161    6    0    1
 -2      4034      5136      4009      6923      9742      9751      4147      9683      9380      9606
 -1      7162    6    0    1
 -2      5590      4018      4039      6926      9656      4191      9929      8856      9576      9103
 -1      7163    6    0    1
 -2       671      4012      5137      6933      4284      9783      5274      9876      9612      7829
 -1      7164    6    0    1
 -2      1522      1635       335      4728      1950      1944      1948      8248      8247      4775
 -1      7165    6    0    1
 -2      2928      4728      2815       470      8249      8695      3243      3236      4901      3242
 -1      7166    6    0    1
 -2      6598       998      6613      4376      6612      6625      9930      9886      9887      9931
 -1      7167    6    0    1
 -2      4342      4321      1009      6648      4565      9932      9812      9575      9782      6656
 -1      7168    6    0    1
 -2       964      6494      6496      4317      6505      6508      6504      9934      9933      9935
 -1      7169    6    0    1
 -2      4360      6547      6528        57      9772      9769      9771      9719      6553      6536
 -1      7170    6    0    1
 -2      5150       871      6359      6373      5333      6426      9404      8967      6425      6427
 -1      7171    6    0    1
 -2      1068      6853      6836      4325      6863      9888      6850      9936      9891      9889
 -1      7172    6    0    1
 -2      2908      4662      2999      6920      9829      8804      3205      9937      8801      8805
 -1      7173    6    0    1
 -2      1615      1706      4662      6920      1912      8799      9830      9938      8800      8801
 -1      7174    6    0    1
 -2      5590      4039       595      6926      9929      4189      5746      8856      9103      9866
 -1      7175    6    0    1
 -2      5122       646       851      5020      5203      5184      5204      9424      9925      5027
 -1      7176    6    0    1
 -2      6039      5119      6040      6932      8637      9939      6071      9218      9681      9761
 -1      7177    6    0    1
 -2      5628      6374       895      5605      9081      6457      5811      5818      7150      5817
 -1      7178    6    0    1
 -2      5628      5568      5625      6908      5964      5962      5967      9203      8849      7884
 -1      7179    6    0    1
 -2       604      5589      4042      4055      5773      9844      4234      4232      9792      4236
 -1      7180    6    0    1
 -2      5141      5129      5089      6919      5237      5482      5478      9481      9454      9271
 -1      7181    6    0    1
 -2      6358       892      6372      6942      6443      6436      6444      9449      9746      9741
 -1      7182    6    0    1
 -2      6247       776      4346      6242      6348      4512      9804      6271      6346      9805
 -1      7183    6    0    1
 -2      4365      6494      4344       968      9940      9789      4566      9941      6509      9809
 -1      7184    6    0    1
 -2      1069      6853      4363      4325      6862      9942      9943      9890      9891      4595
 -1      7185    6    0    1
 -2      6243      6869      6246      4359      9944      9723      6298      9718      9945      9946
 -1      7186    6    0    1
 -2      5142      5119      5083      6932      5318      5428      5423      9413      9681      9220
 -1      7187    6    0    1
 -2      6885      5556      5645      6907      8306      5840      9753      9347      7499      9398
 -1      7188    6    0    1
 -2      6035      6037      6036      6925      6097      6077      6096      9346      9222      8900
 -1      7189    6    0    1
 -2      6372       892      5612      6942      6436      5800      9740      9741      9746      9676
 -1      7190    6    0    1
 -2      5661      5560      5609      6936      5889      5894      5895      8549      8770      7454
 -1      7191    6    0    1
 -2      1468      1581      1682      6934      2620      1882      2619      7593      7691      9708
 -1      7192    6    0    1
 -2      2761      2975      2874      6934      3912      3175      3913      7591      9706      7692
 -1      7193    6    0    1
 -2      6530      4362      6546       979      9949      9947      9948      6543      9950      6556
 -1      7194    6    0    1
 -2      5593      5657       578      4025      5700      5693      5699      9767      9766      4156
 -1      7195    6    0    1
 -2      5115       652      5179      4025      5221      5215      5222      9602      4261      9603
 -1      7196    6    0    1
 -2      4343      4323      6647      1008      4500      9791      9582      9818      9951      6653
 -1      7197    6    0    1
 -2       825      4984      1019        14      4995      9614      9635       826      4993      9923
 -1      7198    6    0    1
 -2      1018        10      4983       825      9922      4988      9617      9636       827      4989
 -1      7199    6    0    1
 -2         9      5129       304      6919      9536      9952       313      9451      9454      9480
 -1      7200    6    0    1
 -2      4371      6852      4328      1069      9599      9777      4550      9828      6861      9953
 -1      7201    6    0    1
 -2       906        26      5620      5584       909      5674      9528      8874      5678      5679
 -1      7202    6    0    1
 -2      6598      6613       999      4376      9930      6624      6611      9886      9931      9954
 -1      7203    6    0    1
 -2      1389         8       294      1049      1402       295      1403      9625      9928      9647
 -1      7204    6    0    1
 -2      6044      6043      6034      4022      6060      6094      6095      9780      9955      9371
 -1      7205    6    0    1
 -2       504      2790      4717      2968      3346      9233      4968      3340      3347      9433
 -1      7206    6    0    1
 -2      1675       369      1497      4717      2048      2052      2054      9432      4873      9231
 -1      7207    6    0    1
 -2      6649      1008      4323      4340      6659      9951      9956      9904      9902      4587
 -1      7208    6    0    1
 -2      2900      2902      4744       508      3359      9005      9146      3358      3354      4976
 -1      7209    6    0    1
 -2      1607      4744      1609       373      9007      9006      2066      2064      4885      2062
 -1      7210    6    0    1
 -2      1671      1386      1387       314      9473      1409      9957      1888      9475      9773
 -1      7211    6    0    1
 -2      1387      2964       449      1386      9958      3181      9774      1409      9470      9471
 -1      7212    6    0    1
 -2       422      1661      1504      4664      2076      2078      2074      4682      8754      9959
 -1      7213    6    0    1
 -2      4019      4040      5589       603      4231      9478      9768      4227      4229      5774
 -1      7214    6    0    1
 -2      4019      4040       677      5111      4231      4306      4305      9600      9300      5296
 -1      7215    6    0    1
 -2       572      5600       842      4056      5681      5682      5662      4127      9534      9737
 -1      7216    6    0    1
 -2      5585      5651      5565      6906      5671      5941      5940      8202      9349      7964
 -1      7217    6    0    1
 -2      2954      2797      4664       557      3371      8406      8405      3370      3366      4698
 -1      7218    6    0    1
 -2       825      1014      6664      4341      9960      6675      9842      4405      9961      9962
 -1      7219    6    0    1
 -2        75      2862      1122      6934      9963      8943      1125      9920      8647      9586
 -1      7220    6    0    1
 -2      5660      6368      6365       896      7381      6400      7380      5666      6388      6461
 -1      7221    6    0    1
 -2      6613       998      4324      4376      6625      9910      9911      9931      9887      4505
 -1      7222    6    0    1
 -2       715         9      4666      6919       716      4670      4672      8117      9451      9662
 -1      7223    6    0    1
 -2      2889      4662      2908       559      8803      9829      3377      3372      4704      3376
 -1      7224    6    0    1
 -2      4662      1596      1615       424      8798      2084      9830      4692      2080      2083
 -1      7225    6    0    1
 -2      1388      1048         7      6767      9626      9964      1398      9628      6771      9965
 -1      7226    6    0    1
 -2      4375      6598       999      4376      9966      6611      9824      4660      9886      9954
 -1      7227    6    0    1
 -2      5024      5020      4023      5012      5039      9423      9785      5068      5066      9269
 -1      7228    6    0    1
 -2      4340      6649      1009      4321      9904      6658      9918      4586      9967      9932
 -1      7229    6    0    1
 -2      6368      5636       835        24      7325      7123      6386      6387      5670       838
 -1      7230    6    0    1
 -2       867      5165      5108      6375      5319      5326      5325      6402      9131      7098
 -1      7231    6    0    1
 -2       969      4317      6494      4344      9968      9933      6510      9787      4567      9789
 -1      7232    6    0    1
 -2      5111      4019      4042       678      9600      4235      8577      5295      4304      4309
 -1      7233    6    0    1
 -2      5660      6374      5605       896      9969      7150      5819      5666      6456      5816
 -1      7234    6    0    1
 -2      5016      5015      5168      5014      5060      8665      9566      5076      5075      9279
 -1      7235    6    0    1
 -2      2895      4753      2952       467      7436      7435      3232      3019      4762      3231
 -1      7236    6    0    1
 -2      2952      4711      2962       468      7999      7998      3235      3230      4896      3234
 -1      7237    6    0    1
 -2       825      6664      1013      4341      9842      6676      9970      4405      9962      9971
 -1      7238    6    0    1
 -2      4351      4374      6801      1059      4558      9817      9621      9832      9972      6809
 -1      7239    6    0    1
 -2      5141       304      5129      6919      9482      9952      5237      9481      9480      9454
 -1      7240    6    0    1
 -2       502      2898      4720      2973      3338      8587      4964      3334      3339      8588
 -1      7241    6    0    1
 -2      1680      4720       367      1605      8675      4867      2042      2046      8586      2044
 -1      7242    6    0    1
 -2       559      4662      4661      2889      4704      4693      4703      3372      8803      9045
 -1      7243    6    0    1
 -2      4662      1596       424      4661      8798      2080      4692      4693      9047      4688
 -1      7244    6    0    1
 -2      6511      4318      6495        50      9916      9914      9917      6514      9973      6498
 -1      7245    6    0    1
 -2      6698       318      6716      1028      9976      9974      9975      6703      8627      6721
 -1      7246    6    0    1
 -2       453      6717      1029      6699      9977      6725      8626      9979      9978      6707
 -1      7247    6    0    1
 -2      4025      5657      4005      6921      9766      9980      4158      9604      8829      9254
 -1      7248    6    0    1
 -2      2926      2713      2773      6903      3419      3418      3420      9030      9028      9320
 -1      7249    6    0    1
 -2      6907      5078      6885      6935      9872      9981      9347      8670      9833      8254
 -1      7250    6    0    1
 -2      2975         2        75      6934      3006        77      9982      9706      9983      9920
 -1      7251    6    0    1
 -2        75         2      2862      6934        77      3004      9963      9920      9983      8647
 -1      7252    6    0    1
 -2      1043      6750       315      6930      6765      8556      9984      9507      8558      8559
 -1      7253    6    0    1
 -2      6750      1044       450      6930      6764      9985      8561      8558      9504      8562
 -1      7254    6    0    1
 -2      6926      4018      4039      6938      9576      4191      9103      8325      9577      9399
 -1      7255    6    0    1
 -2      6513       974      6512      4344      6527      6520      6525      9788      9986      9987
 -1      7256    6    0    1
 -2      4324      6614      4322       998      9909      9699      4447      9910      6619      9883
 -1      7257    6    0    1
 -2      1659       333      1669      4711      1938      1940      1942      8294      4765      7997
 -1      7258    6    0    1
 -2      1590      1683       364      4740      2037      2033      2035      9302      8605      4858
 -1      7259    6    0    1
 -2      2883      4740       499      2976      8955      4958      3329      3330      8607      3325
 -1      7260    6    0    1
 -2      2956      2905        83      1091      3046      3045      3039      8986      8835      1149
 -1      7261    6    0    1
 -2      1663      1612      1091       177      1753      8836      8837      1747      1751      1278
 -1      7262    6    0    1
 -2      6664      1013        10       825      6676      9988      9989      9842      9970       827
 -1      7263    6    0    1
 -2       825      6664      1014        14      9842      6675      9960       826      9990      9991
 -1      7264    6    0    1
 -2      6785         8       294      1054      9992       295      9839      6798      9993      9994
 -1      7265    6    0    1
 -2      5154      5088      5117      6929      5473      5471      5352      9322      8996      9361
 -1      7266    6    0    1
 -2      5583      5657      5560      6921      5697      5885      5884      8533      8829      9120
 -1      7267    6    0    1
 -2      6563      4366       988      4349      9996      9995      6578      9879      4583      9893
 -1      7268    6    0    1
 -2      6513       973      4318      6511      6526      9997      9998      6524      6516      9916
 -1      7269    6    0    1
 -2      2958       556      4669      6931      3024      4680      9455      9246      9999      9456
 -1      7270    6    0    1
 -2      4669       556      4664      6931      4680      4697      4699      9456      9999      8408
 -1      7271    6    0    1
 -2      4376      6613       999      6615      9931      6624      9954     10000      6627      6623
 -1      7272    6    0    1
 -2      6040       860      5119      6039      6052      5315      9939      6071      6067      8637
 -1      7273    6    0    1
 -2       450      2793      2966      6930      3212      3213      3209      8562      9197      9316
 -1      7274    6    0    1
 -2      1500       315      1673      6930      1919      1915      1920      9198      8559      9435
 -1      7275    6    0    1
 -2      6547       979      4319      4360      6555     10001     10002      9772      9770      4525
 -1      7276    6    0    1
 -2      1358        75      1682      6934      1360     10003      9707      9517      9920      9708
 -1      7277    6    0    1
 -2      1358      2975        75      6934      9705      9982      1360      9517      9706      9920
 -1      7278    6    0    1
 -2      4328      6852      4363      1069      9777     10004      4619      9953      6861      9943
 -1      7279    6    0    1
 -2      4342      1009      6632      6631      9812      6645     10005      9571      6640      6644
 -1      7280    6    0    1
 -2       463      4982       462      2963      5006      5005       465      3228     10006      3225
 -1      7281    6    0    1
 -2       328      1670       327      4982      1935      1933       330      4999     10007      5000
 -1      7282    6    0    1
 -2      4352      4338      4335       959      4631      4543      4632     10008      9825      9822
 -1      7283    6    0    1
 -2      5588      4027      4007       598      8905      4206      9436      5755      4204      4197
 -1      7284    6    0    1
 -2      6040      6033      6039      6932      6088      6084      6071      9761      9217      9218
 -1      7285    6    0    1
 -2      5174      5135      5106      6917      5511      5199      5553      8361      9166      9369
 -1      7286    6    0    1
 -2      1048         7       294      1388      9964       296      9648      9626      1398      1400
 -1      7287    6    0    1
 -2      4020       647      5122      4044      4243      5202      9559      4132      4245      9756
 -1      7288    6    0    1
 -2       729      4339       728      6100      4480      4479       754      6143      9640      6136
 -1      7289    6    0    1
 -2       421      4668      4664      6931      4673      4684      4683     10009      9447      8408
 -1      7290    6    0    1
 -2      1112      2801       122      1123      9374      3158      1264      1266      9363      1129
 -1      7291    6    0    1
 -2      1665      4668       421      6931      9446      4673      1732      9262      9447     10009
 -1      7292    6    0    1
 -2      6358      6361      6371      6928      6468      6467      6411      9713      7882      7315
 -1      7293    6    0    1
 -2       998      4322      4324      4376      9883      4447      9910      9887      4591      4505
 -1      7294    6    0    1
 -2       770      6632      1003      1004     10011      6642     10010     10012      6641      1006
 -1      7295    6    0    1
 -2      6110         7      1053      6783      9838     10013     10014     10016     10015      6788
 -1      7296    6    0    1
 -2      1598       175      1089      1592      1743      1271      8662      1745      1741      8663
 -1      7297    6    0    1
 -2      2885      2891        81      1089      3038      3037      3033      8746      8660      1141
 -1      7298    6    0    1
 -2      6247      4346       776      6581      9804      4512      6348      9808      9806     10017
 -1      7299    6    0    1
 -2      4328       785      6230      4371      4546      6302      9778      4550      4548      9598
 -1      7300    6    0    1
 -2       314      1043      6766      6767      9694      6778      9802      9803      6772      6779
 -1      7301    6    0    1
 -2      6683      6681      1024       454      6695      6696      6690      9797      9798     10018
 -1      7302    6    0    1
 -2      5144       655      4011      4036      5226      4265      9826      9495      4269      4171
 -1      7303    6    0    1
 -2      5622      4011       581      4036      9799      4165      5704      9293      4171      4170
 -1      7304    6    0    1
 -2      5593      5560      5657      6921      5891      5885      5700      9139      9120      8829
 -1      7305    6    0    1
 -2      1013        10      6666      6664      9988     10019      6670      6676      9989      6677
 -1      7306    6    0    1
 -2      6665      1014      6664        14      6674      6675      6678     10020      9991      9990
 -1      7307    6    0    1
 -2      6785      6784         8      1054      6797     10021      9992      6798      6792      9993
 -1      7308    6    0    1
 -2      1008      6630      4343      6632      6635      9581      9818      6646      6643     10022
 -1      7309    6    0    1
 -2      4323       742      6098       741      4497      6191      9790      4498       767      6185
 -1      7310    6    0    1
 -2        52      6228       798      6631      6257      6260      6259      6637      9572      9860
 -1      7311    6    0    1
 -2      6630      6098       742        42      9578      6191      9858      6634      6183      6192
 -1      7312    6    0    1
 -2        53       774      6231      6615      6264      6263      6262      6620      9776      9553
 -1      7313    6    0    1
 -2      6101        44      6614       718      6195      6616      9698      6196      6197      9854
 -1      7314    6    0    1
 -2      6229      6818        65       787      9619      6825      6310      6311      9856      6312
 -1      7315    6    0    1
 -2        32      6099       731      6817      6152      6153      6154      6820      9731      9892
 -1      7316    6    0    1
 -2        30       729      6100      6834      6144      6143      6134      6838      9853      9641
 -1      7317    6    0    1
 -2      6230        63      6835       785      6292      6842      9596      6302      6301      9837
 -1      7318    6    0    1
 -2       503      4717      4742      2968      4967      4875      4966      3341      9433      8620
 -1      7319    6    0    1
 -2      4742       368      1675      4717      4870      2047      8906      4875      4874      9432
 -1      7320    6    0    1
 -2      6117      6579      4320      6112     10025     10023     10024      6204     10026     10027
 -1      7321    6    0    1
 -2      4374      6802      6801      1059     10028      6814      9817      9972      6815      6809
 -1      7322    6    0    1
 -2      6580      4349       994      6581      9881     10029      6594      6593      9900      6588
 -1      7323    6    0    1
 -2      5156      5100      5172      6938      5540      5443      5380      9513      8283      9099
 -1      7324    6    0    1
 -2      4364       958      6479      6477     10031      6489     10030     10032      6482      6490
 -1      7325    6    0    1
 -2      6870      6869      4338       959      6882      9720     10033      6879      6877      9825
 -1      7326    6    0    1
 -2       867      5108      5134      6371      5325      5324      5323      6407      7314      9547
 -1      7327    6    0    1
 -2      4317       964      6494      4365      9934      6505      9933      4568     10034      9940
 -1      7328    6    0    1
 -2      5134      6358       868      6371      9613      6412      5322      9547      6411      6406
 -1      7329    6    0    1
 -2      4023      5122       647      4044      9422      5202      4240      4246      9756      4245
 -1      7330    6    0    1
 -2       968      6513      4318      6511      6523      9998      9915      6517      6524      9916
 -1      7331    6    0    1
 -2       825      1019      6664        14      9635      6679      9842       826      9923      9990
 -1      7332    6    0    1
 -2      6664        10      1018       825      9989      9922      6680      9842       827      9636
 -1      7333    6    0    1
 -2      6785       294         8      1049      9839       295      9992      6794      9647      9928
 -1      7334    6    0    1
 -2      6247       776      4382      6581      6348      4516     10035      9808     10017     10036
 -1      7335    6    0    1
 -2      1653      1043       315      6930      9505      9984      1914      9506      9507      8559
 -1      7336    6    0    1
 -2      2946       450      1044      6930      3206      9985      9501      9502      8562      9504
 -1      7337    6    0    1
 -2      6785       294         7      1053      9839       296     10037      6799     10038     10013
 -1      7338    6    0    1
 -2      1619      1123      1508       216      9364      9405      1868      1715      1133      1866
 -1      7339    6    0    1
 -2       797      6228      4321       798      6341      9781      4563       823      6260      4562
 -1      7340    6    0    1
 -2       732         7      4370      6110      4388      4390      4391      6160      9838     10039
 -1      7341    6    0    1
 -2      1602       831      1517        11      6952      6951      1728      1726       832      1725
 -1      7342    6    0    1
 -2      4341      1014      6649      4321      9961      6662     10040      4590     10041      9967
 -1      7343    6    0    1
 -2      4322       718      6614      4324      4446      9854      9699      4447      4415      9909
 -1      7344    6    0    1
 -2      2952      4753      4711       467      7435      4767      7999      3231      4762      4895
 -1      7345    6    0    1
 -2      4038       602      4014      5591      4224      4218      4225      9286      5767      9673
 -1      7346    6    0    1
 -2      5113      4014      4038       676      9675      4225      9285      5289      4298      4303
 -1      7347    6    0    1
 -2      5651      5601      5565      6906      5782      5943      5941      9349      9384      7964
 -1      7348    6    0    1
 -2      6546       978      4362      6530      6557     10042      9947      9948      6544      9949
 -1      7349    6    0    1
 -2      1652       318      1023      6927      1927      9877      9677      9679      7619      9491
 -1      7350    6    0    1
 -2        75      1569         1      6934      9919      1710        76      9920      8646     10043
 -1      7351    6    0    1
 -2      1682        75         1      6934     10003        76      1713      9708      9920     10043
 -1      7352    6    0    1
 -2       978      4362      4331      6546     10042      4609      9895      6557      9947      9896
 -1      7353    6    0    1
 -2      6380      6364      6359      6940      6453      6472      6460      9205      9068      9355
 -1      7354    6    0    1
 -2      2773      2713      2911      6903      3418      3417      3416      9320      9028      8650
 -1      7355    6    0    1
 -2      1480      1618      1420      6903      2124      2123      2125      9526      8649      9745
 -1      7356    6    0    1
 -2      4371      4328      4363      1069      4550      4619      4600      9828      9953      9943
 -1      7357    6    0    1
 -2      4319       979      4333      4360     10001      9851      4578      4525      9770      4529
 -1      7358    6    0    1
 -2      1003      6614      4324      6613      6618      9909     10044      6629      6626      9911
 -1      7359    6    0    1
 -2      6649      4323      1013      4341      9956     10045      6663     10040      4589      9971
 -1      7360    6    0    1
 -2      5566      5586      5612      6928      5945      5802      5946      6996      8855      9540
 -1      7361    6    0    1
 -2      2945      1024       453      6927      9685      9878      3221      9686      9490      7626
 -1      7362    6    0    1
 -2      5575      5622      5653      6941      6006      6007      6002      8519      9294      7860
 -1      7363    6    0    1
 -2       729      4372      4339      6834      4486      4488      4480      9853      9845      9642
 -1      7364    6    0    1
 -2      4383      4376       999      6615      4508      9954      9905      9672     10000      6623
 -1      7365    6    0    1
 -2      5137      5110       671      6933      5279      5278      5274      7829      8156      9876
 -1      7366    6    0    1
 -2      6868      6116      4337      4358      9862      9861      9863     10047     10046      4478
 -1      7367    6    0    1
 -2      1018      6666        10      6664      6669     10019      9922      6680      6677      9989
 -1      7368    6    0    1
 -2      6665      6664      1019        14      6678      6679      6673     10020      9990      9923
 -1      7369    6    0    1
 -2      6785         8      6784      1049      9992     10021      6797      6794      9928      6793
 -1      7370    6    0    1
 -2      4364      4337       958      6477      4628     10048     10031     10032     10049      6482
 -1      7371    6    0    1
 -2      1574        12      1665       828      1730      1731      1733      8895       829      9261
 -1      7372    6    0    1
 -2      6228      4342      4321       798      9570      4565      9781      6260      4426      4562
 -1      7373    6    0    1
 -2      6529      4331      6545       978     10051      9894     10050      6533      9895      6551
 -1      7374    6    0    1
 -2      1053         7      6785      6783     10013     10037      6799      6788     10015      6796
 -1      7375    6    0    1
 -2       598      4007      5588       597      4197      9436      5755       632      4198      5756
 -1      7376    6    0    1
 -2       671      4007      5110       672      4286      9875      5278       706      4287      5277
 -1      7377    6    0    1
 -2      4017      5126       649      4037      9466      5208      4247      4143      9500      4252
 -1      7378    6    0    1
 -2      4017       575      5604      4037      4135      5686      9464      4143      4141      9497
 -1      7379    6    0    1
 -2      5019      4047       572      4056      9668      4088      9926      9154      4128      4127
 -1      7380    6    0    1
 -2       979      4362      6546      4319      9950      9947      6556     10001      4577     10052
 -1      7381    6    0    1
 -2      6749      1038      6733       315      6755      6737     10053     10054      9010     10055
 -1      7382    6    0    1
 -2      6751       450      6734      1039     10058     10056     10057      6759      9011      6741
 -1      7383    6    0    1
 -2      5017      5016      5012      6946      5063      5065      5064      8749      9567      8751
 -1      7384    6    0    1
 -2      4046      5631      4055      6042     10059      9793      4237      9702     10060      9703
 -1      7385    6    0    1
 -2      5646      5600      5576      6946      5787      6010      6009      8601      9535      8600
 -1      7386    6    0    1
 -2      4029      5179       651      4005      9593      5216      4258      4152      9255      4256
 -1      7387    6    0    1
 -2      4029       577      5657      4005      4151      5694      9337      4152      4150      9980
 -1      7388    6    0    1
 -2       998      6596      4322      6598      6601      9701      9883      6612      6609      9885
 -1      7389    6    0    1
 -2      4323      6098       742      4343      9790      6191      4497      4500      9583      4418
 -1      7390    6    0    1
 -2       580      5623      4008      6941      5701      9834      4159     10061      8350      9794
 -1      7391    6    0    1
 -2      1391      2946      1386      6930     10062      9472      1413      9630      9502      9503
 -1      7392    6    0    1
 -2      6870      4338      6869      1074     10033      9720      6882      6883     10063      6878
 -1      7393    6    0    1
 -2      5615      4032      4012       597      9161      4201      9611      5752      4199      4192
 -1      7394    6    0    1
 -2      6716        38       318      6698      6718     10064      9974      9975      6702      9976
 -1      7395    6    0    1
 -2      6699       453      6717        71      9979      9977      9978      6706     10065      6723
 -1      7396    6    0    1
 -2      6785         7       294      1048     10037       296      9839      6795      9964      9648
 -1      7397    6    0    1
 -2      4018      4043       668      5112      4185      4279      4277      9849      9870      5269
 -1      7398    6    0    1
 -2      5590      4018      4043       594      9656      4185      8719      5747      4183      4184
 -1      7399    6    0    1
 -2      5622       580      4011      6941      5705      4164      9799      9294     10061      9800
 -1      7400    6    0    1
 -2      6632      4343      1008      4340     10022      9818      6646      9903      4506      9902
 -1      7401    6    0    1
 -2      4373      4374      6802      1054      4656     10028     10066     10068     10067      6811
 -1      7402    6    0    1
 -2       318      1517      1658      6927      1929      1931      1925      7619      8497      8498
 -1      7403    6    0    1
 -2      1653      1390      1386      6930     10069      1407      9474      9506      9638      9503
 -1      7404    6    0    1
 -2      6235      1004      4383      6615     10072     10070     10071     10073      6622      9672
 -1      7405    6    0    1
 -2       575      5604       574      4017      5686      5687       609      4135      9464      4134
 -1      7406    6    0    1
 -2      5126       649       648      4017      5208       683      5209      9466      4247      4248
 -1      7407    6    0    1
 -2      1008      4343      4323      4340      9818      4500      9951      9902      4506      4587
 -1      7408    6    0    1
 -2      6379      6359      6364      6940      6428      6472      6422      8878      9355      9068
 -1      7409    6    0    1
 -2      4317      6496      6512       969      9935     10074     10075      9968      6503      6521
 -1      7410    6    0    1
 -2      6363      6358      6377      6942      6469      6413      6416      9442      9449      7160
 -1      7411    6    0    1
 -2      4374      6229       787      4351      9816      6311      4556      4558      9622      4552
 -1      7412    6    0    1
 -2      6236      6247      4382      6581      6274     10035     10076     10077      9808     10036
 -1      7413    6    0    1
 -2      4349      6579       988      6580     10078      6585      9893      9881      6592      6591
 -1      7414    6    0    1
 -2      4324      6105      6614      1003     10080     10079      9909     10044     10081      6618
 -1      7415    6    0    1
 -2       600      4006      4030      5659      4207      4215      4214      5761      9221      9520
 -1      7416    6    0    1
 -2      5181      4006      4030       674      8968      4215      9406      5283      4293      4297
 -1      7417    6    0    1
 -2      4340      4323      6649      4321      4587      9956      9904      4586      4588      9967
 -1      7418    6    0    1
 -2       725      6495      4318        50     10082      9914      4464      6131      6498      9973
 -1      7419    6    0    1
 -2      5159      4003      4026       673      9393      4210      7318      5280      4289      4294
 -1      7420    6    0    1
 -2      5637      4026      4003       599      7322      4210      9391      5758      4209      4203
 -1      7421    6    0    1
 -2        11       831      1517      4985       832      6951      1725      4990      4992      9755
 -1      7422    6    0    1
 -2      6362       834      6365      6918      6397      6395      6398      7218      7943      8038
 -1      7423    6    0    1
 -2      4348      1058      6819      4353     10084      6829     10083      4651      9898      9897
 -1      7424    6    0    1
 -2      4321      1009      4340      4342      9932      9918      4586      4565      9812      4507
 -1      7425    6    0    1
 -2       453      2951      2810      6927      3217      3224      3223      7626      8785      8499
 -1      7426    6    0    1
 -2      2867      4754       828        16      9297      4760      8894      3023      4764       830
 -1      7427    6    0    1
 -2      6372      6361      6358      6928      6438      6468      6444      9680      7882      9713
 -1      7428    6    0    1
 -2      2876      2797      2760      6931      3608      3906      3905      7304      8407      7303
 -1      7429    6    0    1
 -2      6245      6784      6240      4378     10086     10085      6320     10088     10087      9744
 -1      7430    6    0    1
 -2       671      4032      4012      6933      4288      4201      4284      9876      9162      9612
 -1      7431    6    0    1
 -2      4662      4663       304      6920      4695      9661     10089      8801      8919      9483
 -1      7432    6    0    1
 -2       439      4663      4662      6920      9327      4695     10090      9155      8919      8801
 -1      7433    6    0    1
 -2      5123       848      5173      5022      5303      5186      5304      8927      5033      9112
 -1      7434    6    0    1
 -2      2810        15       831      2895      3018       833      7087      3021      3020      6955
 -1      7435    6    0    1
 -2       785       786      6233      4371       811      6308      6303      4548      4549     10091
 -1      7436    6    0    1
 -2       979      6530      4362      4333      6543      9949      9950      9851     10092      4579
 -1      7437    6    0    1
 -2        74        73      6244      6665       956      6339      6338      6671      6672     10093
 -1      7438    6    0    1
 -2      6666      6114        41        40     10094      6180      6667      6668      6181       923
 -1      7439    6    0    1
 -2      6245      6784        67        66     10086      6790      6314      6315      6791       949
 -1      7440    6    0    1
 -2      6115        33        34      6783      6157       916      6156     10095      6787      6786
 -1      7441    6    0    1
 -2      6246        61      6869        62      6290      6876      9723      6289       944      6875
 -1      7442    6    0    1
 -2        29      6868      6116        27      6871      9862      6127       911      6872      6128
 -1      7443    6    0    1
 -2        46        45      6579      6117       928      6583      6582      6198      6199     10025
 -1      7444    6    0    1
 -2        54      6247        55      6581      6266      6265       937      6587      9808      6586
 -1      7445    6    0    1
 -2      1569      1122        75         1      8942      1125      9919      1710      1124        76
 -1      7446    6    0    1
 -2      4025       578      5593      4004      4156      5699      9767      4157      4154      9850
 -1      7447    6    0    1
 -2      4025      5115       652      4004      9602      5221      4261      4157      9688      4260
 -1      7448    6    0    1
 -2      4343      6630      6104      1003      9581     10096     10097     10098      6636     10099
 -1      7449    6    0    1
 -2      5087      5105      5136      6923      5460      5218      5459      7904      7951      9380
 -1      7450    6    0    1
 -2      6103       729      4329       730      6145      4484     10100      6150       755      4485
 -1      7451    6    0    1
 -2      5660      6365      6374       896      7380      6462      9969      5666      6461      6456
 -1      7452    6    0    1
 -2      1386       289      2946      1391      1411      3179      9472      1413      1394     10062
 -1      7453    6    0    1
 -2      4376       999      4375      4383      9954      9824      4660      4508      9905      4511
 -1      7454    6    0    1
 -2        13       583      5607       439      4077      5710      7835       448      4078      7695
 -1      7455    6    0    1
 -2       657      5129       304         9      5232      9952      4071      4072      9536       313
 -1      7456    6    0    1
 -2      6234      4342      1004      6631     10103     10101     10102     10104      9571      6639
 -1      7457    6    0    1
 -2      4007      4032       671      6933      4200      4288      4286      9437      9162      9876
 -1      7458    6    0    1
 -2      1504      1583      1467      6931      2316      2612      2613      9325      7734      7302
 -1      7459    6    0    1
 -2      4340      1009      6632      4342      9918      6645      9903      4507      9812     10005
 -1      7460    6    0    1
 -2      1048      6785         7      6783      6795     10037      9964      6789      6796     10015
 -1      7461    6    0    1
 -2      5020       851      5122      5016      5027      5204      9424      5062      5061      9608
 -1      7462    6    0    1
 -2      4341      6649      4323      4321     10040      9956      4589      4590      9967      4588
 -1      7463    6    0    1
 -2      5614       575       576      4013      5689       610      5690      8613      4140      4139
 -1      7464    6    0    1
 -2      5136       650       649      4013      5212       684      5211      9743      4251      4250
 -1      7465    6    0    1
 -2      4383       770      1004      6235      4423     10012     10070     10071     10105     10072
 -1      7466    6    0    1
 -2       959      6870      6479      4347      6879     10106      6488     10108     10107     10109
 -1      7467    6    0    1
 -2      5651       839      5601      5021      5664      5781      5782      9395      5036      9811
 -1      7468    6    0    1
 -2      6231      4375       774       775      9552      4510      6263      6268      4509       800
 -1      7469    6    0    1
 -2      5624      5570      5590      6926      5974      5973      5751      9144      7308      8856
 -1      7470    6    0    1
 -2       284      1390      1386      1653      1397      1407      1406      1886     10069      9474
 -1      7471    6    0    1
 -2      4365      4344      4318       968      4566      4571      4470      9941      9809      9915
 -1      7472    6    0    1
 -2      1659      1602       332      4753      1939      1727      1937      7963      7434      4755
 -1      7473    6    0    1
 -2      1122         2      2862        75      1127      3004      8943      1125        77      9963
 -1      7474    6    0    1
 -2      5615      4012      4035       596      9611      4195      9142      5753      4193      4194
 -1      7475    6    0    1
 -2       670      4012      4035      5137      4283      4195      4285      5275      9783      8278
 -1      7476    6    0    1
 -2      5649      5576      5600      6946      6011      6010      5685      9284      8600      9535
 -1      7477    6    0    1
 -2       775      6231      4375      6597      6268      9552      4509     10110      9557      9555
 -1      7478    6    0    1
 -2       453      1029      6700      6699      8626      6713      7625      9979      6707      6712
 -1      7479    6    0    1
 -2      1028      6698       318      6700      6703      9976      8627      6714      6711      7615
 -1      7480    6    0    1
 -2      4342      6632      1004      6631     10005      6641     10101      9571      6644      6639
 -1      7481    6    0    1
 -2       989      4382      4349      6581     10111      4644      9880      6589     10036      9900
 -1      7482    6    0    1
 -2      5643       891      5586      6376      5797      5803      5804      7650      6432      8854
 -1      7483    6    0    1
 -2      1581      1358       266      1682      9516      1362      1881      1882      9707      1712
 -1      7484    6    0    1
 -2      2874      2975       278      1358      3175      3005      3174      9515      9705      1364
 -1      7485    6    0    1
 -2      6496      6512        59      4317     10074      6519      6501      9935     10075     10112
 -1      7486    6    0    1
 -2      6853      4363      6852      1069      9942     10004      6865      6862      9943      6861
 -1      7487    6    0    1
 -2       718        21      6105      4324       743      6122      6123      4415      4416     10080
 -1      7488    6    0    1
 -2       317      6716       318      1028      9873      9974       324      9511      6721      8627
 -1      7489    6    0    1
 -2       453      1029      6717       452      8626      6725      9977       459      9512      9874
 -1      7490    6    0    1
 -2       774      4383      6235        22      4425     10071      6253       799      4424      6252
 -1      7491    6    0    1
 -2      6103      4372       729      6834     10113      4486      6145     10114      9845      9853
 -1      7492    6    0    1
 -2        16       828      2867      2958       830      8894      3023      3025      9245      3026
 -1      7493    6    0    1
 -2      5119      5142      6040      6932      5318      9760      9939      9681      9413      9761
 -1      7494    6    0    1
 -2       787      6232       786      4351      6313      6306       812      4552     10115      4551
 -1      7495    6    0    1
 -2      4375       999      6598      6597      9824      6611      9966      9555      6605      6610
 -1      7496    6    0    1
 -2       656      5104      5129         9      5229      5234      5233      4073      9450      9536
 -1      7497    6    0    1
 -2      5607      5582       582        13      5712      5707      5711      7835      8197      4079
 -1      7498    6    0    1
 -2        12      4668      1665       828      4674      9446      1731       829      4675      9261
 -1      7499    6    0    1
 -2      6613      4324      1003      4376      9911     10044      6629      9931      4505     10116
 -1      7500    6    0    1
 -2      4365      4318      6495       968      4470      9914     10117      9941      9915      6500
 -1      7501    6    0    1
 -2      4352      4335      6478       959      4632      9868     10118     10008      9822      6487
 -1      7502    6    0    1
 -2         3       169      2947      1391       171      9459      3011      1393      1392      9629
 -1      7503    6    0    1
 -2      4317      6494      6496       969      9933      6508      9935      9968      6510      6503
 -1      7504    6    0    1
 -2       993      4322      6596      6598     10119      9701      6602      6608      9885      6609
 -1      7505    6    0    1
 -2      5624      4015      4039       595      9835      4190      9867      5750      4188      4189
 -1      7506    6    0    1
 -2       669      4015      4039      5146      4280      4190      4282      5272      9342      9102
 -1      7507    6    0    1
 -2      6870      4345      4338      1074     10120      4638     10033      6883     10121     10063
 -1      7508    6    0    1
 -2       882      5627      5589      6036      5790      5791      5792      6072      9821      9488
 -1      7509    6    0    1
 -2      6598      4361      4322      4376     10122      4592      9885      9886      4594      4591
 -1      7510    6    0    1
 -2      5112      5178      5100      6938      5270      5541      5539      9130      8282      8283
 -1      7511    6    0    1
 -2      6649      1013      1014      4341      6663      1016      6662     10040      9971      9961
 -1      7512    6    0    1
 -2      4369      6512       974      4344     10124      6520     10123      4569      9987      9986
 -1      7513    6    0    1
 -2      6104        21       742      4343      6119       768      6124     10097      4417      4418
 -1      7514    6    0    1
 -2      1003      4343      6630      6632     10098      9581      6636      6642     10022      6643
 -1      7515    6    0    1
 -2      5564      5594      5592      6943      5933      5912      5934      9175      8303      9098
 -1      7516    6    0    1
 -2      4326      6545      4331      6546     10125      9894      4608     10126      6558      9896
 -1      7517    6    0    1
 -2      1574      4754        12       828      9296      4758      1730      8895      4760       829
 -1      7518    6    0    1
 -2      4351      6818      6819      1059      9623      6831     10127      9832      6827      6828
 -1      7519    6    0    1
 -2      5128      4010       675       674      9508      4295      5286      5287      4296       709
 -1      7520    6    0    1
 -2       601       600      4010      5606       635      4212      4213      5764      5765      9588
 -1      7521    6    0    1
 -2       774      6235      4383      6615      6253     10071      4425      9776     10073      9672
 -1      7522    6    0    1
 -2      4370         7      1053      6110      4390     10013     10128     10039      9838     10014
 -1      7523    6    0    1
 -2      2947      2912       169         3      3012      9403      9459      3011      3009       171
 -1      7524    6    0    1
 -2      4344      4317      6494      4365      4567      9933      9789      4566      4568      9940
 -1      7525    6    0    1
 -2        15       831      4986      2810       833      4998      4997      3018      7087      9754
 -1      7526    6    0    1
 -2      5569      5589      5627      6925      5968      5791      5969      8566      9479      9584
 -1      7527    6    0    1
 -2       798      6234      4342        22      6254     10103      4426       824      6248      4422
 -1      7528    6    0    1
 -2      4711      1659       332      4753      8294      1937      4766      4767      7963      4755
 -1      7529    6    0    1
 -2       718      6105      6614      4324      6123     10079      9854      4415     10080      9909
 -1      7530    6    0    1
 -2      6512       780        59      4317     10129      6281      6519     10075      4531     10112
 -1      7531    6    0    1
 -2       289      2946      2964      1386      3179      3180      3177      1411      9472      9470
 -1      7532    6    0    1
 -2      1671       284      1386      1653      1883      1406      9473      1887      1886      9474
 -1      7533    6    0    1
 -2      5158      6367       834        23      9855      6383      8817      5192      6384       836
 -1      7534    6    0    1
 -2       974      4333      6528      4369     10130      9852      6538     10123      4530     10131
 -1      7535    6    0    1
 -2      4020      5649       573      4044      9843      5684      4130      4132      9884      4131
 -1      7536    6    0    1
 -2      1069      4363      4371      4325      9943      4600      9828      9890      4595      4601
 -1      7537    6    0    1
 -2      4352      6478      6479       959     10118      6491     10132     10008      6487      6488
 -1      7538    6    0    1
 -2      6246      6869      4338      4359      9723      9720      9724      9946      9945      4544
 -1      7539    6    0    1
 -2       959      6479      4352      4347      6488     10132     10008     10108     10109      4639
 -1      7540    6    0    1
 -2      1387       290      2964      1386      1414      3176      9958      1409      1412      9470
 -1      7541    6    0    1
 -2      1386      1387       285      1671      1409      1408      1405      9473      9957      1884
 -1      7542    6    0    1
 -2       598      4027      4003      5637      4204      4205      4202      5759      8904      9391
 -1      7543    6    0    1
 -2      5159      4027      4003       672      8083      4205      9393      5281      4291      4290
 -1      7544    6    0    1
 -2      4325      6836      1068      6834      9889      6850      9936     10133      6847      6839
 -1      7545    6    0    1
 -2      6246      4338      6237       783      9724      9721      6291      6351      4542      6349
 -1      7546    6    0    1
 -2       122      2801      2912      1123      3158      3161      3008      1129      9363      9362
 -1      7547    6    0    1
 -2       654      4008      5145      4031      4263      9733      5223      4267      4167      9734
 -1      7548    6    0    1
 -2      4352      6479      6478       964     10132      6491     10118     10134      6493      6486
 -1      7549    6    0    1
 -2      4019      5589       604       603      9768      5773      4228      4227      5774       638
 -1      7550    6    0    1
 -2      1069      4371      6836      4325      9828     10135      6849      9890      4601      9889
 -1      7551    6    0    1
 -2      4344      6513      4318       968      9788      9998      4571      9809      6523      9915
 -1      7552    6    0    1
 -2      5128      4030      4010       674      9407      4216      9508      5287      4297      4296
 -1      7553    6    0    1
 -2       600      4030      4010      5606      4214      4216      4212      5765      9519      9588
 -1      7554    6    0    1
 -2      5111       677      4019       678      5296      4305      9600      5295       712      4304
 -1      7555    6    0    1
 -2      4664       556      2797      6931      4697      3367      8406      8408      9999      8407
 -1      7556    6    0    1
 -2      1003      4324      6105       769     10044     10080     10081     10136      4419     10137
 -1      7557    6    0    1
 -2       958      6479      6870      4347      6489     10106      6880     10138     10109     10107
 -1      7558    6    0    1
 -2      5170       868      5134      6377      5328      5322      5329      7158      6409      8633
 -1      7559    6    0    1
 -2      4004       579      5593      4028      4155      5698      9850      4162      4161      9429
 -1      7560    6    0    1
 -2      4004      5115       653      4028      9688      5220      4259      4162      8644      4264
 -1      7561    6    0    1
 -2      6106      6579      4320      6117     10140     10023     10139      6207     10025     10024
 -1      7562    6    0    1
 -2       793      6717       453        71     10141      9977      4442      6330      6723     10065
 -1      7563    6    0    1
 -2       318       737        38      6716      4433      6173     10064      9974     10142      6718
 -1      7564    6    0    1
 -2      6041      6033      6045      6932      6087      6089      6083      9377      9217      9379
 -1      7565    6    0    1
 -2       315      6733      6749        36     10055     10053     10054     10143      6736      6752
 -1      7566    6    0    1
 -2      6734        69       450      6751      6740     10144     10056     10057      6756     10058
 -1      7567    6    0    1
 -2      5144      5175      5104      6939      5529      5552      5231      9514      9224      9419
 -1      7568    6    0    1
 -2      1504       421      4664      6931      2073      4683      9959      9325     10009      8408
 -1      7569    6    0    1
 -2      6111      6114      6666      4380      6189     10094     10145      9820     10146     10147
 -1      7570    6    0    1
 -2      5112      4018      4039       669      9849      4191      9101      5268      4278      4282
 -1      7571    6    0    1
 -2      5590      4039      4018       595      9929      4191      9656      5746      4189      4182
 -1      7572    6    0    1
 -2      2947      2946      1391      6930      3178     10062      9629      9460      9502      9630
 -1      7573    6    0    1
 -2      6683        14      4984       454      9924      4993      9615      9797       461      9796
 -1      7574    6    0    1
 -2        10       319      6682      4983       326     10148      9921      4988      9814      9616
 -1      7575    6    0    1
 -2      5113      4033      4014       675      9190      4221      9675      5290      4300      4299
 -1      7576    6    0    1
 -2       601      4033      4014      5591      4219      4221      4217      5768      9266      9673
 -1      7577    6    0    1
 -2      5590      5570      5634      6926      5973      5976      5975      8856      7308      8324
 -1      7578    6    0    1
 -2      6715       317      6716      1033      7566      9873      6728      6730      6949      6720
 -1      7579    6    0    1
 -2       452      6715      6717      1034      7565      6729      9874      7142      6731      6724
 -1      7580    6    0    1
 -2      6564      4366      4357      6106     10150      4585     10149     10152     10151     10153
 -1      7581    6    0    1
 -2      6513      4318       973      4344      9998      9997      6526      9788      4571     10154
 -1      7582    6    0    1
 -2       422      1504       421      4664      2074      2073       427      4682      9959      4683
 -1      7583    6    0    1
 -2      6666      6114      6109        10     10094      6182     10155     10019     10156     10157
 -1      7584    6    0    1
 -2      6665      6239      6244        14     10158      6340     10093     10020     10159     10160
 -1      7585    6    0    1
 -2      6245      6784         8      6238     10086     10021     10161      6323     10162     10163
 -1      7586    6    0    1
 -2      6102       731      4353      6817      6155      4490     10164     10165      9892      9899
 -1      7587    6    0    1
 -2       275       432      1357      1359      3013      7412      1380      1369      7008      1372
 -1      7588    6    0    1
 -2      1359       297      1357       263      7014      7413      1372      1365      1720      1371
 -1      7589    6    0    1
 -2       604      4042      5589      4019      4234      9844      5773      4228      4235      9768
 -1      7590    6    0    1
 -2      4055       605      5631      4046      4233      5776      9793      4237      4089     10059
 -1      7591    6    0    1
 -2      6238         8      6768      1049     10163      9927     10166     10167      9928      6775
 -1      7592    6    0    1
 -2        10      6682      6109      1018      9921     10168     10157      9922      6687     10169
 -1      7593    6    0    1
 -2         8       449      6768      1389       455     10170      9927      1402      9819      9624
 -1      7594    6    0    1
 -2      1654      1390      1653      6930      9637     10069      1885      9462      9638      9506
 -1      7595    6    0    1
 -2      6036      6038      6035      6925      6091      6068      6096      8900      8758      9346
 -1      7596    6    0    1
 -2      4342      1004       770      6234     10101     10012      4421     10103     10102     10171
 -1      7597    6    0    1
 -2      4664      2797       556       557      8406      3367      4697      4698      3366       562
 -1      7598    6    0    1
 -2        13      5582       582      4051      8197      5707      4079      4081      8196      4080
 -1      7599    6    0    1
 -2         9       656      5104      4052      4073      5229      9450      4075      4074      9176
 -1      7600    6    0    1
 -2      5149      5111      6038       858      5313      8812      9711      5312      5314      6063
 -1      7601    6    0    1
 -2      4333       979      6530      6528      9851      6543     10092      9852      6537      6542
 -1      7602    6    0    1
 -2      4375      6598       994      6597      9966      6607     10172      9555      6610      6606
 -1      7603    6    0    1
 -2       659       303      5109       302      4108      9326      5238      4107       311      9657
 -1      7604    6    0    1
 -2      5587       437       438       585      9431       446      9128      5716      4121      4120
 -1      7605    6    0    1
 -2      6238      6784         8      1049     10162     10021     10163     10167      6793      9928
 -1      7606    6    0    1
 -2        10      6109      6666      1018     10157     10155     10019      9922     10169      6669
 -1      7607    6    0    1
 -2      4982      1670       327      4981     10007      1933      5000      5001     10173      5002
 -1      7608    6    0    1
 -2       462      4982      4981      2963      5005      5001      5007      3225     10006     10174
 -1      7609    6    0    1
 -2      6102      4353       731       730     10164      4490      6155      6148      4489       756
 -1      7610    6    0    1
 -2      4349      4330      6579       993      4581     10175     10078     10177     10176      6584
 -1      7611    6    0    1
 -2      4365      6495      4318       725     10117      9914      4470      4471     10082      4464
 -1      7612    6    0    1
 -2      5096      5183      5158      6918      5521      5523      5522      9172      7579      8819
 -1      7613    6    0    1
 -2      6785       294      4373      1054      9839      4384     10178      6798      9994     10068
 -1      7614    6    0    1
 -2      4320       988      6579      6106     10179      6585     10023     10139     10180     10140
 -1      7615    6    0    1
 -2      1059      6819      4351      4348      6828     10127      9832     10181     10083      4647
 -1      7616    6    0    1
 -2      4353      4348      1058      4354      4651     10084      9898      4494      4652      9906
 -1      7617    6    0    1
 -2       860      5119      5142      6040      5315      5318      5196      6052      9939      9760
 -1      7618    6    0    1
 -2      6716       318       737       317      9974      4433     10142      9873       324      4431
 -1      7619    6    0    1
 -2       452      6717       453       793      9874      9977       459      4441     10141      4442
 -1      7620    6    0    1
 -2      4320      4366      6564      6106      4584     10150     10182     10139     10151     10152
 -1      7621    6    0    1
 -2       724      4318      6511        50      4463      9916     10183      6214      9973      6514
 -1      7622    6    0    1
 -2      4325      1068      6853      4327      9936      6863      9891      4596     10184     10185
 -1      7623    6    0    1
 -2        52       798      6234      6631      6259      6254      6255      6637      9860     10104
 -1      7624    6    0    1
 -2        42       742      6630      6104      6192      9858      6634      6190      6124     10096
 -1      7625    6    0    1
 -2        53      6235       774      6615      6256      6253      6264      6620     10073      9776
 -1      7626    6    0    1
 -2        44      6105      6614       718      6193     10079      6616      6197      6123      9854
 -1      7627    6    0    1
 -2      6233      6835        63       785     10186      6842      6300      6303      9837      6301
 -1      7628    6    0    1
 -2        30      6103       729      6834      6142      6145      6144      6838     10114      9853
 -1      7629    6    0    1
 -2      6232        65      6818       787      6304      6825     10187      6313      6312      9856
 -1      7630    6    0    1
 -2        32       731      6102      6817      6154      6155      6146      6820      9892     10165
 -1      7631    6    0    1
 -2      6112      6579      4320      4330     10026     10023     10027      9831     10175      4453
 -1      7632    6    0    1
 -2      4320      6564       988      6106     10182      6567     10179     10139     10152     10180
 -1      7633    6    0    1
 -2      4354      4370      6802      6800      4495     10188      9907      9728     10189      6813
 -1      7634    6    0    1
 -2      4333      4362       979      4319      4579      9950      9851      4578      4577     10001
 -1      7635    6    0    1
 -2       798      4342      6234      6631      4426     10103      6254      9860      9571     10104
 -1      7636    6    0    1
 -2        16      4669       828      2958      4679      4681       830      3025      9455      9245
 -1      7637    6    0    1
 -2      4349      6563      4366      4356      9879      9996      4583      4657     10190      4611
 -1      7638    6    0    1
 -2      4330      6101      6596      4322     10192      9697     10191      4450      9700      9701
 -1      7639    6    0    1
 -2      6104       742      6630      4343      6124      9858     10096     10097      4418      9581
 -1      7640    6    0    1
 -2       670      4035      4015      5146      4285      4196      4281      5271      7485      9342
 -1      7641    6    0    1
 -2      5624      4035      4015       596      9143      4196      9835      5749      4194      4187
 -1      7642    6    0    1
 -2       439      4662      2908      6920     10090      9829      3204      9155      8801      9937
 -1      7643    6    0    1
 -2      4662       304      1615      6920     10089      1911      9830      8801      9483      9938
 -1      7644    6    0    1
 -2      1059      6802      6819      4348      6815     10193      6828     10181     10194     10083
 -1      7645    6    0    1
 -2      5093      5134      5154      6929      5505      5474      5345      8689      8634      9322
 -1      7646    6    0    1
 -2      5574      5661      5609      6936      5999      5895      5860      8763      8549      7454
 -1      7647    6    0    1
 -2      1654         4       169      1619      1717       170      9461      1719      1716      9298
 -1      7648    6    0    1
 -2      1605       368      1675      4742      2045      2047      2049      8618      4870      8906
 -1      7649    6    0    1
 -2       503      4742      2898      2968      4966      8619      3337      3341      8620      3342
 -1      7650    6    0    1
 -2      6749      6750      1038       315      6762      6761      6755     10054      8556      9010
 -1      7651    6    0    1
 -2      1039      6751       450      6750      6759     10058      9011      6760      6763      8561
 -1      7652    6    0    1
 -2       958      6868      4337      4347      6873      9863     10048     10138     10195      4635
 -1      7653    6    0    1
 -2      2862         2      2975      6934      3004      3006      3007      8647      9983      9706
 -1      7654    6    0    1
 -2      6545        48      4331      6529      6548     10196      9894     10050      6532     10051
 -1      7655    6    0    1
 -2      4356       989      6563      6562     10197      6577     10190     10198      6571      6576
 -1      7656    6    0    1
 -2         4       169      1390      1654       170      1396      1395      1717      9461      9637
 -1      7657    6    0    1
 -2      6785      4373       294      1053     10178      4384      9839      6799     10199     10038
 -1      7658    6    0    1
 -2      6362      6367       834      6918      6399      6383      6397      7218      9717      7943
 -1      7659    6    0    1
 -2      4034      5614       576      4013      9682      5690      4146      4148      8613      4139
 -1      7660    6    0    1
 -2      4034       650      5136      4013      4255      5212      9742      4148      4251      9743
 -1      7661    6    0    1
 -2      6836      6835      4371      1069      6848      9597     10135      6849      6843      9828
 -1      7662    6    0    1
 -2      4985      1652      4982      6927     10200      9678      5004      9750      9679      9492
 -1      7663    6    0    1
 -2      4341       825      1014        14      4405      9960      9961      4413       826      9991
 -1      7664    6    0    1
 -2      6043       679      5153      4022     10202      5298     10201      9955      4308      9476
 -1      7665    6    0    1
 -2      6632      1003      4343      4340      6642     10098     10022      9903     10203      4506
 -1      7666    6    0    1
 -2      4982      2945      4986      6927      9684     10204      5009      9492      9686      9749
 -1      7667    6    0    1
 -2      1615       424       425      4662      2083       430      1910      9830      4692      4691
 -1      7668    6    0    1
 -2       559       560      4662      2908       565      4705      4704      3376      3203      9829
 -1      7669    6    0    1
 -2       825      1013        10      4341      9970      9988       827      4405      9971      4406
 -1      7670    6    0    1
 -2      2797       556      2958      6931      3367      3024      3368      8407      9999      9246
 -1      7671    6    0    1
 -2       964      6496      4368      4317      6504     10205     10206      9934      9935      4536
 -1      7672    6    0    1
 -2      5085      5117      5118      6937      5447      5446      5445      9468      9550      8913
 -1      7673    6    0    1
 -2       718      6101       719      4322      6196      6200       744      4446      9700      4445
 -1      7674    6    0    1
 -2      6647      4323      6098       741      9791      9790      9579     10207      4498      6185
 -1      7675    6    0    1
 -2      5614       576       577      4009      5690       611      5692      9650      4144      4145
 -1      7676    6    0    1
 -2      5136       651       650      4009      5214       685      5212      9751      4253      4254
 -1      7677    6    0    1
 -2      1059      4374      6802      4348      9972     10028      6815     10181      4650     10194
 -1      7678    6    0    1
 -2      6563       988      4366      6564      6578      9995      9996      6575      6567     10150
 -1      7679    6    0    1
 -2      4046       605      5631      6042      4089      5776     10059      9702     10208     10060
 -1      7680    6    0    1
 -2      2786      4745       507       506      8582      4974      3351      3352      4973       551
 -1      7681    6    0    1
 -2       371       372      1493      4745       416      2059      2058      4883      4882      8220
 -1      7682    6    0    1
 -2       314      1388         7      6767      9801      1398       320      9803      9628      9965
 -1      7683    6    0    1
 -2       974      6528        58      4369      6538      6535       977     10123     10131     10209
 -1      7684    6    0    1
 -2      6040      5142        25       905      9760      5195      6053      6054      9400       907
 -1      7685    6    0    1
 -2       597      4012      5615       596      4192      9611      5752       631      4193      5753
 -1      7686    6    0    1
 -2       671      4012       670      5137      4284      4283       705      5274      9783      5275
 -1      7687    6    0    1
 -2       667      4045      4024      5125      4276      4181      4271      5262      8741      8218
 -1      7688    6    0    1
 -2      4024      5603      4045       593      8214      8743      4181      4174      5740      4179
 -1      7689    6    0    1
 -2      5575      5623      5622      6941      6005      5706      6006      8519      8350      9294
 -1      7690    6    0    1
 -2       779      4360      6528        57      4521      9771     10210      6280      9719      6536
 -1      7691    6    0    1
 -2      6115      6108         7      6783      6165     10211     10212     10095     10213     10015
 -1      7692    6    0    1
 -2      1034      6734       451      6732      6742      9912      6957      6743      6746      8364
 -1      7693    6    0    1
 -2      1033      6733      6732       316      6738      6745      6744      7332      9913      8363
 -1      7694    6    0    1
 -2      4352      6478      4335       964     10118      9868      4632     10134      6486     10214
 -1      7695    6    0    1
 -2      1073      4327      4347      4345     10216      4612     10215     10217      4614      4613
 -1      7696    6    0    1
 -2      6235       770      1004        51     10105     10012     10072      6251     10218      1007
 -1      7697    6    0    1
 -2      6234      1004       770        51     10102     10012     10171      6249      1007     10218
 -1      7698    6    0    1
 -2      4372      4377      4325      6834      4606      4604      4599      9845     10219     10133
 -1      7699    6    0    1
 -2      1615       304      1706      6920      1911      1907      1912      9938      9483      8800
 -1      7700    6    0    1
 -2      2908      2999       439      6920      3205      3200      3204      9937      8805      9155
 -1      7701    6    0    1
 -2       993      6579      4349      6580      6584     10078     10177      6595      6592      9881
 -1      7702    6    0    1
 -2      1003      6104      4343       769     10099     10097     10098     10136     10220      4420
 -1      7703    6    0    1
 -2      6853      6852      4363      1074      6865     10004      9942      6866      6860     10221
 -1      7704    6    0    1
 -2       787       788      6229      4374       813      6317      6311      4556      4557      9816
 -1      7705    6    0    1
 -2      1058      6819      6802      4348      6829     10193      6816     10084     10083     10194
 -1      7706    6    0    1
 -2       672      4003      5159       673      4290      9393      5281       707      4289      5280
 -1      7707    6    0    1
 -2      5637      4003       598       599      9391      4202      5759      5758      4203       633
 -1      7708    6    0    1
 -2      1357      2809       432       275      7718      3164      7412      1380      3163      3013
 -1      7709    6    0    1
 -2       297      1516      1357       263      1871      7717      7413      1720      1869      1371
 -1      7710    6    0    1
 -2      1665       421      1504      6931      1732      2073      2075      9262     10009      9325
 -1      7711    6    0    1
 -2       599      4026      4006      5659      4209      4211      4208      5762      7321      9221
 -1      7712    6    0    1
 -2      5181      4026      4006       673      7319      4211      8968      5284      4294      4292
 -1      7713    6    0    1
 -2      4985      1517      1652      6927      9755      1930     10200      9750      8497      9679
 -1      7714    6    0    1
 -2      4348      6802      1058      4354     10194      6816     10084      4652      9907      9906
 -1      7715    6    0    1
 -2      4375      4361      6598      4376      4645     10122      9966      4660      4594      9886
 -1      7716    6    0    1
 -2      4372      4325      1068      6834      4599      9936      9908      9845     10133      6839
 -1      7717    6    0    1
 -2      5015       848      5123      5022      5056      5303      9358      5057      5033      8927
 -1      7718    6    0    1
 -2      6107        27      6868      6477      6126      6872      9865     10222      6480     10223
 -1      7719    6    0    1
 -2      6581      6236        55      6562     10077      6273      6586     10225     10224      6570
 -1      7720    6    0    1
 -2      6665        73      6239      6683      6672      6334     10158     10226      6688     10227
 -1      7721    6    0    1
 -2      6783        34      6108      6767      6786      6164     10213     10228      6770     10229
 -1      7722    6    0    1
 -2       797      4321      6228      6648      4563      9781      6341     10230      9782      9573
 -1      7723    6    0    1
 -2       840      5018       841      5646      5045      5048       845      5784      9250      5783
 -1      7724    6    0    1
 -2      5631       882      5589      6036      5788      5792      5778      9487      6072      9488
 -1      7725    6    0    1
 -2      6614      6105        43      1003     10079      6121      6617      6618     10081      1005
 -1      7726    6    0    1
 -2        51      1004      6235      6615      1007     10072      6251      6621      6622     10073
 -1      7727    6    0    1
 -2      6104      6630        43      1003     10096      6633      6118     10099      6636      1005
 -1      7728    6    0    1
 -2        51      6234      1004      6631      6249     10102      1007      6638     10104      6639
 -1      7729    6    0    1
 -2      4986      2945      2810      6927     10204      3222      9754      9749      9686      8499
 -1      7730    6    0    1
 -2        36       315      6733       736     10143     10055      6736      6170      4430     10231
 -1      7731    6    0    1
 -2       450       792        69      6734      4438      6329     10144     10056     10232      6740
 -1      7732    6    0    1
 -2       601      4014       602      5591      4217      4218       636      5768      9673      5767
 -1      7733    6    0    1
 -2       676      5113      4014       675      5289      9675      4298       710      5290      4299
 -1      7734    6    0    1
 -2      4325      6853      4363      4327      9891      9942      4595      4596     10185      4597
 -1      7735    6    0    1
 -2      4326      4331      4362      6546      4608      4609      4576     10126      9896      9947
 -1      7736    6    0    1
 -2      1023       318      6698      6700      9877      9976      6704      6710      7615      6711
 -1      7737    6    0    1
 -2       453      6700      1024      6699      7625      6709      9878      9979      6712      6708
 -1      7738    6    0    1
 -2      4321      6649      1009      6648      9967      6658      9932      9782      6661      6656
 -1      7739    6    0    1
 -2       787      6818      6232      4351      9856     10187      6313      4552      9623     10115
 -1      7740    6    0    1
 -2      1064      6818      6819      4351      6826      6831      6833     10233      9623     10127
 -1      7741    6    0    1
 -2      4364      6479       958      4347     10030      6489     10031      4636     10109     10138
 -1      7742    6    0    1
 -2       959      4338      6870      4347      9825     10033      6879     10108      4637     10107
 -1      7743    6    0    1
 -2      4381      6835      6233      4371     10235     10186     10234      4555      9597     10091
 -1      7744    6    0    1
 -2      4372      4329      4377      6834      4487      4620      4606      9845     10236     10219
 -1      7745    6    0    1
 -2      1059      4351      4374      4348      9832      4558      9972     10181      4647      4650
 -1      7746    6    0    1
 -2      5109      5141       303       658      5240      9389      9326      5239      5235      4109
 -1      7747    6    0    1
 -2      5587       438      5619       584      9128      9386      5718      5717      4123      5713
 -1      7748    6    0    1
 -2       316      6733      1038       315      9913      6737      9690       322     10055      9010
 -1      7749    6    0    1
 -2      6734       450       451      1039     10056       457      9912      6741      9011      9691
 -1      7750    6    0    1
 -2      4334      6495      4365       725     10237     10117      4472      4468     10082      4471
 -1      7751    6    0    1
 -2        48       723      4331      6529      6213      4457     10196      6532     10238     10051
 -1      7752    6    0    1
 -2      4020      5171       648      4041      9558      5205      4244      4138      9041      4249
 -1      7753    6    0    1
 -2      4020       574      5649      4041      4129      5683      9843      4138      4136      9282
 -1      7754    6    0    1
 -2       725      4318       724        50      4464      4463       750      6131      9973      6214
 -1      7755    6    0    1
 -2      4378         8      6784      1054      4397     10021     10087     10239      9993      6792
 -1      7756    6    0    1
 -2       674      5181      4006       673      5283      8968      4293       708      5284      4292
 -1      7757    6    0    1
 -2       600       599      4006      5659       634      4208      4207      5761      5762      9221
 -1      7758    6    0    1
 -2      5151      4038      4016       676      9241      4226      8243      5293      4303      4301
 -1      7759    6    0    1
 -2      4016       602      4038      5629      4223      4224      4226      8471      5771      9243
 -1      7760    6    0    1
 -2      5112       668      4018       669      5269      4277      9849      5268       703      4278
 -1      7761    6    0    1
 -2       595      4018      5590       594      4182      9656      5746       629      4183      5747
 -1      7762    6    0    1
 -2       653       652      5115      4004       687      5221      5220      4259      4260      9688
 -1      7763    6    0    1
 -2      5593       578       579      4004      5699       613      5698      9850      4154      4155
 -1      7764    6    0    1
 -2      6647        41      6098        42      6651      6184      9579      6650       924      6183
 -1      7765    6    0    1
 -2        52        74      6228      6648       957      6258      6257      6655      6654      9573
 -1      7766    6    0    1
 -2        32        33      6099      6800       915      6151      6152      6804      6803      9727
 -1      7767    6    0    1
 -2        66      6801        65      6229      6807      6808       948      6309      9620      6310
 -1      7768    6    0    1
 -2        63      6852        62      6230      6858      6859       945      6292      9595      6293
 -1      7769    6    0    1
 -2        29        30      6100      6851       912      6134      6135      6855      6854      9645
 -1      7770    6    0    1
 -2        44      6596        45      6101      6600      6599       927      6195      9697      6194
 -1      7771    6    0    1
 -2        54        53      6231      6597       936      6262      6261      6603      6604      9557
 -1      7772    6    0    1
 -2      6496        59       781      4317      6501      6284     10240      9935     10112      4532
 -1      7773    6    0    1
 -2      4346       994      4349      6581     10241     10029      4642      9806      6588      9900
 -1      7774    6    0    1
 -2      5581      6380       894      5628      9228      6452      5814      5815      9204      5812
 -1      7775    6    0    1
 -2      4353      6819      1063      6817      9897      6832     10242      9899      6830      6822
 -1      7776    6    0    1
 -2      6715      1028      6700      1029      6727      6714      7617      6726      1031      6713
 -1      7777    6    0    1
 -2      6530      6546       978       979      9948      6557      6544      6543      6556       981
 -1      7778    6    0    1
 -2      6513      6494       969       968      9786      6510      6522      6523      6509       971
 -1      7779    6    0    1
 -2      6750      6732      1039      1038      8557      6747      6760      6761      6748      1041
 -1      7780    6    0    1
 -2      6649      1009      1008      6632      6658      1011      6659      9901      6645      6646
 -1      7781    6    0    1
 -2      1059      6819      6802      1058      6828     10193      6815      1061      6829      6816
 -1      7782    6    0    1
 -2      6613       999       998      6598      6624      1001      6625      9930      6611      6612
 -1      7783    6    0    1
 -2      1069      6853      6836      1068      6862      9888      6849      1071      6863      6850
 -1      7784    6    0    1
 -2       959      6479      6870       958      6488     10106      6879       961      6489      6880
 -1      7785    6    0    1
 -2       989      6563       988      6580      6577      6578       991      6590      9882      6591
 -1      7786    6    0    1
 -2      1019      1018      6681      6664      1021      6693      6692      6679      6680      9841
 -1      7787    6    0    1
 -2      1049      6785      6766      1048      6794      9840      6782      1051      6795      6781
 -1      7788    6    0    1
 -2      4016       677      4040      5151      4302      4306      4230      8243      5292      9299
 -1      7789    6    0    1
 -2      5629      4040      4016       603      9477      4230      8471      5770      4229      4222
 -1      7790    6    0    1
 -2       858      5111      6038      5153      5314      8812      6063      5310      5300      8811
 -1      7791    6    0    1
 -2       468      2952      4711       467      3230      7999      4896       512      3231      4895
 -1      7792    6    0    1
 -2      6037      5627       882      6036      9712      5790      6076      6077      9821      6072
 -1      7793    6    0    1
 -2      4317      4368       964      4365      4536     10206      9934      4568      4570     10034
 -1      7794    6    0    1
 -2       731      4354      4353      6817      4492      4494      4490      9892      9729      9899
 -1      7795    6    0    1
 -2      5112      5100      5156      6938      5539      5540      5498      9130      8283      9513
 -1      7796    6    0    1
 -2       596      4015      5624       595      4187      9835      5749       630      4188      5750
 -1      7797    6    0    1
 -2       669       670      4015      5146       704      4281      4280      5272      5271      9342
 -1      7798    6    0    1
 -2       784       785      6230      4328       810      6302      6294      4545      4546      9778
 -1      7799    6    0    1
 -2      4982      4986      2945       463      5009     10204      9684      5006      4996      3229
 -1      7800    6    0    1
 -2       785      6233      6835      4371      6303     10186      9837      4548     10091      9597
 -1      7801    6    0    1
 -2      6665      4379      1014        14     10244     10243      6674     10020      4412      9991
 -1      7802    6    0    1
 -2      1008      4323      6647      6649      9951      9791      6653      6659      9956      6660
 -1      7803    6    0    1
 -2      2903      4754      2867       510      9323      9297      3365      3360      4763      3022
 -1      7804    6    0    1
 -2       574      5649       573      4020      5683      5684       608      4129      9843      4130
 -1      7805    6    0    1
 -2      6564       988      4366      4320      6567      9995     10150     10182     10179      4584
 -1      7806    6    0    1
 -2         1      1569      1682      6934      1710      1714      1713     10043      8646      9708
 -1      7807    6    0    1
 -2      4985      1652       328      4982     10200      1936      4991      5004      9678      4999
 -1      7808    6    0    1
 -2       653      5145      4008      4028      5224      9733      4262      4264      7765      4163
 -1      7809    6    0    1
 -2       579      4008      5623      4028      4160      9834      5702      4161      4163      9212
 -1      7810    6    0    1
 -2      5018      5601       839      5021      9484      5781      5046      5047      9811      5036
 -1      7811    6    0    1
 -2       870      5150      6379      5103      5334      8875      6420      5335      5337      9537
 -1      7812    6    0    1
 -2      4365      6495      6494       968     10117      6507      9940      9941      6500      6509
 -1      7813    6    0    1
 -2      1659       332       333      4711      1937       377      1938      8294      4766      4765
 -1      7814    6    0    1
 -2      4365      4368       964       963      4570     10206     10034     10246     10245       966
 -1      7815    6    0    1
 -2      5171       648       647      4020      5205       682      5206      9558      4244      4243
 -1      7816    6    0    1
 -2      4009      5614       576      4034      9650      5690      4144      4147      9682      4146
 -1      7817    6    0    1
 -2      4009       650      5136      4034      4254      5212      9751      4147      4255      9742
 -1      7818    6    0    1
 -2      6235      4383       770        22     10071      4423     10105      6252      4424       773
 -1      7819    6    0    1
 -2      1653       284      1390      1654      1886      1397     10069      1885      1718      9637
 -1      7820    6    0    1
 -2      6529      4362      4331       978     10247      4609     10051      6533     10042      9895
 -1      7821    6    0    1
 -2      4022      6044      6043      4049      9780      6060      9955      4311     10248     10249
 -1      7822    6    0    1
 -2       959      4352      4338      4347     10008      4631      9825     10108      4639      4637
 -1      7823    6    0    1
 -2      4380        10      6666      1013      4403     10019     10147     10250      9988      6670
 -1      7824    6    0    1
 -2       289      2947      2946      1391      3010      3178      3179      1394      9629     10062
 -1      7825    6    0    1
 -2      4320      6579       988      4349     10023      6585     10179      4582     10078      9893
 -1      7826    6    0    1
 -2      1074      4345      6853      1073     10121     10251      6866      1076     10217      6867
 -1      7827    6    0    1
 -2      4365       964      6494       963     10034      6505      9940     10246       966      6506
 -1      7828    6    0    1
 -2      4358      4327      4347      1073      4483      4612      4616     10252     10216     10215
 -1      7829    6    0    1
 -2      5168       850       849      5016      5305       854      5306      9566      5058      5059
 -1      7830    6    0    1
 -2      6037       884      5597      6041      6078      5793      9667      6079      6056      9486
 -1      7831    6    0    1
 -2      4333      6530      4350       974     10092     10253      4626     10130      6539     10254
 -1      7832    6    0    1
 -2      4664      4668      4669      6931      4684      4709      4699      8408      9447      9456
 -1      7833    6    0    1
 -2      5020      4023      4050      5024      9423      4242     10255      5039      9785     10256
 -1      7834    6    0    1
 -2       439       583      5607      5619      4078      5710      7695      8617      5714      5715
 -1      7835    6    0    1
 -2       657       304      5129      5141      4071      9952      5232      5236      9482      5237
 -1      7836    6    0    1
 -2       580      4008      4031      6941      4159      4167      4166     10061      9794      9795
 -1      7837    6    0    1
 -2      4374      6801      6802      1054      9817      6814     10028     10067      6810      6811
 -1      7838    6    0    1
 -2      2885        81        80      1089      3033       126      3034      8746      1141      1140
 -1      7839    6    0    1
 -2       175       174      1089      1592       220      1272      1271      1741      1740      8663
 -1      7840    6    0    1
 -2      5127       871      5150      6373      5339      5333      5340      7226      6425      8967
 -1      7841    6    0    1
 -2      5096      5158      5182      6918      5522      5194      5520      9172      8819      9543
 -1      7842    6    0    1
 -2      4317      6512      4369      4344     10075     10124      4533      4567      9987      4569
 -1      7843    6    0    1
 -2      4364       958      4337      4347     10031     10048      4628      4636     10138      4635
 -1      7844    6    0    1
 -2      4327      4325      1068      4372      4596      9936     10184      4598      4599      9908
 -1      7845    6    0    1
 -2       580      4011       581      5622      4164      4165       615      5705      9799      5704
 -1      7846    6    0    1
 -2      5144      4011       655       654      9826      4265      5226      5227      4266       689
 -1      7847    6    0    1
 -2       666       667      4024      5125       701      4271      4272      5263      5262      8218
 -1      7848    6    0    1
 -2       592      5603      4024       593      5741      8214      4173       627      5740      4174
 -1      7849    6    0    1
 -2      5137      5161      5110      6933      5502      5398      5279      7829      9274      8156
 -1      7850    6    0    1
 -2      5149      6038       859       858      9711      6065      5311      5312      6063       863
 -1      7851    6    0    1
 -2        15      4753       831      2895      4761      4757       833      3020      7436      6955
 -1      7852    6    0    1
 -2      1591       173      1088       172      1735      1267      8884      1734       218      1268
 -1      7853    6    0    1
 -2      5122       647       646      4023      5202       681      5203      9422      4240      4241
 -1      7854    6    0    1
 -2      4348      6819      4367      4353     10083     10257      4648      4651      9897      4653
 -1      7855    6    0    1
 -2       963      6495      4365      4334      6499     10117     10246     10258     10237      4472
 -1      7856    6    0    1
 -2       769      1003      4324      4376     10136     10044      4419      4504     10116      4505
 -1      7857    6    0    1
 -2       963      4368       964      4364     10245     10206       966     10259      4659     10260
 -1      7858    6    0    1
 -2      4346      4349      4382      6581      4642      4644      4517      9806      9900     10036
 -1      7859    6    0    1
 -2       781        59       780      4317      6284      6281       806      4532     10112      4531
 -1      7860    6    0    1
 -2      2863      2749      2937      6893      3815      3821      3822      9138      7612      8240
 -1      7861    6    0    1
 -2      1570      1644      1456      6893      2529      2528      2522      8475      8239      7611
 -1      7862    6    0    1
 -2      1003      6105        21       769     10081      6122     10261     10136     10137       771
 -1      7863    6    0    1
 -2      1003        21      6104       769     10261      6119     10099     10136       771     10220
 -1      7864    6    0    1
 -2       328      1517      1652      4985      1724      1930      1936      4991      9755     10200
 -1      7865    6    0    1
 -2      2815      4728       471       470      8695      4902      3241      3242      4901       515
 -1      7866    6    0    1
 -2      1522       335       336      4728      1948       380      1949      8248      4775      4774
 -1      7867    6    0    1
 -2      4370      1053      6802      6800     10128      6812     10188     10189      6806      6813
 -1      7868    6    0    1
 -2      4320       988      4366      4349     10179      9995      4584      4582      9893      4583
 -1      7869    6    0    1
 -2       779      6528      4333      4369     10210      9852      4528      4526     10131      4530
 -1      7870    6    0    1
 -2       463      4986      2945      2810      4996     10204      3229      3017      9754      3222
 -1      7871    6    0    1
 -2      5085      5162      5117      6937      5448      5354      5447      9468      8932      9550
 -1      7872    6    0    1
 -2       315       316      6733       736       322      9913     10055      4430      4429     10231
 -1      7873    6    0    1
 -2       451       792       450      6734      4439      4438       457      9912     10232     10056
 -1      7874    6    0    1
 -2      4368      6496       781      4317     10205     10240      4535      4536      9935      4532
 -1      7875    6    0    1
 -2       328      1652      1670      4982      1936      1934      1935      4999      9678     10007
 -1      7876    6    0    1
 -2       463      2945      4982      2963      3229      9684      5006      3228      3227     10006
 -1      7877    6    0    1
 -2      4373      6802      4374      4348     10066     10028      4656      4655     10194      4650
 -1      7878    6    0    1
 -2        27      6868      6116      6107      6872      9862      6128      6126      9865      6129
 -1      7879    6    0    1
 -2        61      6869      6237      6246      6876      9722      6285      6290      9723      6291
 -1      7880    6    0    1
 -2      6666      6109      6114        40     10155      6182     10094      6668      6176      6181
 -1      7881    6    0    1
 -2        73      6239      6244      6665      6334      6340      6339      6672     10158     10093
 -1      7882    6    0    1
 -2      6236        55      6247      6581      6273      6265      6274     10077      6586      9808
 -1      7883    6    0    1
 -2      6106        46      6579      6117      6206      6582     10140      6207      6198     10025
 -1      7884    6    0    1
 -2      6115        34      6108      6783      6156      6164      6165     10095      6786     10213
 -1      7885    6    0    1
 -2      6245        67      6784      6238      6314      6790     10086      6323      6322     10162
 -1      7886    6    0    1
 -2      4011      4031      6939      6941      4168      9736      9827      9800      9795      9247
 -1      7887    6    0    1
 -2      2884        79        78      1088      3027       124      3028      8881      1135      1134
 -1      7888    6    0    1
 -2       841      5600      5646      5017      5786      5787      5783      5050      9533      9859
 -1      7889    6    0    1
 -2       741      6647      4323      1013     10207      9791      4498     10262      6652     10045
 -1      7890    6    0    1
 -2       883      5627       882      6037      5789      5790       887      6075      9712      6076
 -1      7891    6    0    1
 -2      4046        19       605      6042      4090       640      4089      9702      6046     10208
 -1      7892    6    0    1
 -2       994       993      4349      6580       996     10177     10029      6594      6595      9881
 -1      7893    6    0    1
 -2       290      2964       449      1387      3176      3181      3014      1414      9958      9774
 -1      7894    6    0    1
 -2      1671      1387       285       314      9957      1408      1884      1888      9773      1721
 -1      7895    6    0    1
 -2      4381      6232      6818      4351     10264     10187     10263      4553     10115      9623
 -1      7896    6    0    1
 -2        64      6835      6233      4381      6841     10186      6299     10265     10235     10234
 -1      7897    6    0    1
 -2      6546      4362      4326      4319      9947      4576     10126     10052      4577      4574
 -1      7898    6    0    1
 -2      4371      1064      6835      6836     10266      6844      9597     10135      6845      6848
 -1      7899    6    0    1
 -2       978      6529      4362      6530      6533     10247     10042      6544      6541      9949
 -1      7900    6    0    1
 -2       866      5165       867      6375      5320      5319       874      6401      9131      6402
 -1      7901    6    0    1
 -2        21        43      6105      1003      6120      6121      6122     10261      1005     10081
 -1      7902    6    0    1
 -2      6104        43        21      1003      6118      6120      6119     10099      1005     10261
 -1      7903    6    0    1
 -2        16      2867      4754       510      3023      9297      4764       555      3022      4763
 -1      7904    6    0    1
 -2       797      1014      4321      6648     10267     10041      4563     10230      6657      9782
 -1      7905    6    0    1
 -2      6529       973      4362      6530      6534     10268     10247      6541      6540      9949
 -1      7906    6    0    1
 -2      4324        21      6105       769      4416      6122     10080      4419       771     10137
 -1      7907    6    0    1
 -2       983      6545      4326      6546      6550     10125     10269      6560      6558     10126
 -1      7908    6    0    1
 -2      4351      6819      4367      4348     10127     10257      4649      4647     10083      4648
 -1      7909    6    0    1
 -2       579      5623      4008       580      5702      9834      4160       614      5701      4159
 -1      7910    6    0    1
 -2       654      5145      4008       653      5223      9733      4263       688      5224      4262
 -1      7911    6    0    1
 -2       210      1107      1532       209      1341      8870      1848       255      1342      1847
 -1      7912    6    0    1
 -2       116       115      2825      1107       161      3141      3140      1246      1245      8869
 -1      7913    6    0    1
 -2        75         2      2975      1358        77      3006      9982      1360      1363      9705
 -1      7914    6    0    1
 -2       114      2864      1120       113      3134      8847      1240       159      3135      1239
 -1      7915    6    0    1
 -2       207      1120       208      1571      1338      1337       253      1841      8848      1842
 -1      7916    6    0    1
 -2       180       179      1114      1553       225      1282      1281      1758      1757      8235
 -1      7917    6    0    1
 -2      2846        86        85      1114      3050       131      3051      8233      1156      1155
 -1      7918    6    0    1
 -2      6528      6530      4333       974      6542     10092      9852      6538      6539     10130
 -1      7919    6    0    1
 -2      4375       994      4346      6597     10172     10241      4514      9555      6606     10270
 -1      7920    6    0    1
 -2      5619       438       439       584      9386       447      8617      5713      4123      4122
 -1      7921    6    0    1
 -2      5141       304       303       658      9482       312      9389      5235      4110      4109
 -1      7922    6    0    1
 -2      4379      4341      1014        14      4414      9961     10243      4412      4413      9991
 -1      7923    6    0    1
 -2      6749      1043      6750       315      6754      6765      6762     10054      9984      8556
 -1      7924    6    0    1
 -2      1044       450      6751      6750      9985     10058      6758      6764      8561      6763
 -1      7925    6    0    1
 -2      6237      4338      4335       783      9721      4543      9765      6349      4542      4537
 -1      7926    6    0    1
 -2      1013      4380        10      4341     10250      4403      9988      9971      4407      4406
 -1      7927    6    0    1
 -2         8      6768       449      6238      9927     10170       455     10163     10166     10271
 -1      7928    6    0    1
 -2      6683      6239        14       454     10227     10159      9924      9797     10272       461
 -1      7929    6    0    1
 -2      6682      6109       319        10     10168     10273     10148      9921     10157       326
 -1      7930    6    0    1
 -2      5017      5646       841      5014      9859      5783      5050      5051      9646      5052
 -1      7931    6    0    1
 -2       433       590      5616       432      4111      5731      8981       441      4066      7136
 -1      7932    6    0    1
 -2       298      5138       664       297      8982      5253      4098       306      7135      4060
 -1      7933    6    0    1
 -2      4360      6528      4333       779      9771      9852      4529      4521     10210      4528
 -1      7934    6    0    1
 -2      4005      5179       652      4025      9255      5215      4257      4158      9603      4261
 -1      7935    6    0    1
 -2      4005       578      5657      4025      4149      5693      9980      4158      4156      9766
 -1      7936    6    0    1
 -2      2819      2921      2749      6893      3817      3818      3816      9096      8393      7612
 -1      7937    6    0    1
 -2      1628      1526      1456      6893      2524      2523      2525      8394      8494      7611
 -1      7938    6    0    1
 -2        27       958      6868      6477       960      6873      6872      6480      6482     10223
 -1      7939    6    0    1
 -2      6581        55       989      6562      6586       992      6589     10225      6570      6571
 -1      7940    6    0    1
 -2      6665      1019        73      6683      6673      1022      6672     10226      6691      6688
 -1      7941    6    0    1
 -2      6783      1048        34      6767      6789      1050      6786     10228      6771      6770
 -1      7942    6    0    1
 -2        42      6630      6647      1008      6634      9580      6650      1010      6635      6653
 -1      7943    6    0    1
 -2      6631      1009        52      6648      6640      1012      6637      9574      6656      6655
 -1      7944    6    0    1
 -2      6800        32      1058      6817      6804      1060      6805      9730      6820      6823
 -1      7945    6    0    1
 -2        65      6818      6801      1059      6825      9618      6808      1062      6827      6809
 -1      7946    6    0    1
 -2        44      6596      6614       998      6600      9696      6616      1000      6601      6619
 -1      7947    6    0    1
 -2      6615        53       999      6597      6620      1002      6623      9556      6604      6605
 -1      7948    6    0    1
 -2      6834        30      1068      6851      6838      1070      6839      9644      6854      6857
 -1      7949    6    0    1
 -2        63      6852      6835      1069      6858      9594      6842      1072      6861      6843
 -1      7950    6    0    1
 -2      6099      4354       732       731      9726      4493      6158      6153      4492       757
 -1      7951    6    0    1
 -2       505      4718      2899       506      4971      7856      3349       550      4972      3348
 -1      7952    6    0    1
 -2       371      4718      1606       370      4879      7857      2056       415      4880      2055
 -1      7953    6    0    1
 -2      2824       120       119      1110      3152       165      3153      8004      1258      1257
 -1      7954    6    0    1
 -2       214      1110      1531       213      1349      8006      1860       259      1350      1859
 -1      7955    6    0    1
 -2      4330      6579      4320      4349     10175     10023      4453      4581     10078      4582
 -1      7956    6    0    1
 -2       584      5587       438       585      5717      9128      4123       619      5716      4120
 -1      7957    6    0    1
 -2       658       303      5109       659      4109      9326      5239       693      4108      5238
 -1      7958    6    0    1
 -2      5149       859      6038      6035      5311      6065      9711      9345      6069      6068
 -1      7959    6    0    1
 -2       277       276      2944      1356       281      3166      3165      1383      1382      8723
 -1      7960    6    0    1
 -2      1651       265      1356       264      1873      1373      8724      1872       269      1374
 -1      7961    6    0    1
 -2       341      1573       340      4722      1964      1963       385      4789      8951      4790
 -1      7962    6    0    1
 -2      4722       476      2866       475      4912      3256      8950      4911       520      3257
 -1      7963    6    0    1
 -2       338       339      1520      4729       383      1958      1957      4784      4783      8332
 -1      7964    6    0    1
 -2      2813      4729       474       473      8334      4908      3250      3251      4907       518
 -1      7965    6    0    1
 -2      5179       652       651      4005      5215       686      5216      9255      4257      4256
 -1      7966    6    0    1
 -2      5657       577       578      4005      5694       612      5693      9980      4150      4149
 -1      7967    6    0    1
 -2        93        92      2849      1084       138      3072      3071      1177      1176      8868
 -1      7968    6    0    1
 -2       187      1084      1556       186      1295      8867      1779       232      1296      1778
 -1      7969    6    0    1
 -2        96        95      2852      1095       141      3081      3080      1186      1185      8865
 -1      7970    6    0    1
 -2       190      1095      1559       189      1301      8866      1788       235      1302      1787
 -1      7971    6    0    1
 -2      1564      1097       192       193      8864      1308      1796      1797      1307       238
 -1      7972    6    0    1
 -2      2857        99        98      1097      3089       144      3090      8863      1195      1194
 -1      7973    6    0    1
 -2        11      1602       831      4753      1726      6952       832      4756      7434      4757
 -1      7974    6    0    1
 -2      6043        20       679      4049      6050       714     10202     10249      4093      4094
 -1      7975    6    0    1
 -2       216      1112      1508       215      1353      9375      1866       261      1354      1865
 -1      7976    6    0    1
 -2      2902       507      4744       508      3355      4975      9005      3354       552      4976
 -1      7977    6    0    1
 -2       373      4744      1609       372      4885      9006      2062       417      4886      2061
 -1      7978    6    0    1
 -2       327      1670       319      4981      1933      1932      1723      5002     10173      9815
 -1      7979    6    0    1
 -2       454       462      4981      2963      3016      5007     10274      3226      3225     10174
 -1      7980    6    0    1
 -2      6853      4363      4345      1074      9942      4615     10251      6866     10221     10121
 -1      7981    6    0    1
 -2       993      4349      4361       994     10177      4622     10275       996     10029     10276
 -1      7982    6    0    1
 -2        90      2845      1082        89      3062      8887      1168       135      3063      1167
 -1      7983    6    0    1
 -2       184      1082      1552       183      1289      8888      1770       229      1290      1769
 -1      7984    6    0    1
 -2      4359      6869      4338      1074      9945      9720      4544     10277      6878     10063
 -1      7985    6    0    1
 -2      2819      2749      2863      6893      3816      3815      3127      9096      7612      9138
 -1      7986    6    0    1
 -2      1526      1570      1456      6893      1834      2522      2523      8494      8475      7611
 -1      7987    6    0    1
 -2       111       110      2863      1080       156      3126      3125      1231      1230      9758
 -1      7988    6    0    1
 -2      1080       204      1570       205      1332      1832      9759      1331       250      1833
 -1      7989    6    0    1
 -2       196      1100      1566       195      1313      8850      1806       241      1314      1805
 -1      7990    6    0    1
 -2      2859       102       101      1100      3098       147      3099      8851      1204      1203
 -1      7991    6    0    1
 -2       201      1104       202      1568      1326      1325       247      1823      8859      1824
 -1      7992    6    0    1
 -2       108       107      2861      1104       153      3117      3116      1222      1221      8860
 -1      7993    6    0    1
 -2        58      6528       779      4369      6535     10210      6279     10209     10131      4526
 -1      7994    6    0    1
 -2      4663       304       425      4662      9661      1722      4694      4695     10089      4691
 -1      7995    6    0    1
 -2      4662       560      4663       439      4705      4706      4695     10090      3015      9327
 -1      7996    6    0    1
 -2       199      1102      1567       198      1319      8861      1815       244      1320      1814
 -1      7997    6    0    1
 -2      2860       105       104      1102      3107       150      3108      8862      1213      1212
 -1      7998    6    0    1
 -2      4364      4352      6479      4347      4646     10132     10030      4636      4639     10109
 -1      7999    6    0    1
 -2       294         8      4373      1054       295      4393      4384      9994      9993     10068
 -1      8000    6    0    1
 -2      5151      4016       677       676      8243      4302      5292      5293      4301       711
 -1      8001    6    0    1
 -2      5629      4016       602       603      8471      4223      5771      5770      4222       637
 -1      8002    6    0    1
 -2      2834      2736      2854      6887      3708      3707      3706      7458     10278      7709
 -1      8003    6    0    1
 -2       859      5149      5119      6039      5311      5317      5316      6066      8638      8637
 -1      8004    6    0    1
 -2       186      1083      1537       185      1293      8070      1776       231      1294      1775
 -1      8005    6    0    1
 -2        92        91      2830      1083       137      3069      3068      1174      1173      8068
 -1      8006    6    0    1
 -2       195      1099      1530       194      1311      8140      1803       240      1312      1802
 -1      8007    6    0    1
 -2      2823       101       100      1099      3095       146      3096      8138      1201      1200
 -1      8008    6    0    1
 -2      6035      5149       859      6039      9345      5311      6069      6070      8638      6066
 -1      8009    6    0    1
 -2      4043      4021       668      5178      4186      4274      4279      9847      9452      5265
 -1      8010    6    0    1
 -2       594      4021      4043      5656      4178      4186      4184      5743      9334      8718
 -1      8011    6    0    1
 -2      5178      4045      4021       667      8435      4180      9452      5266      4276      4275
 -1      8012    6    0    1
 -2       593      4045      4021      5656      4179      4180      4177      5744      8742      9334
 -1      8013    6    0    1
 -2       188      1535      1085       189      1784      8090      1300       234      1785      1299
 -1      8014    6    0    1
 -2        94      2828        95      1085      3078      3077       140      1182      8088      1183
 -1      8015    6    0    1
 -2      4360       778      6547        57      4522     10279      9772      9719      6275      6553
 -1      8016    6    0    1
 -2      6836      4371      1064      4325     10135     10266      6845      9889      4601     10280
 -1      8017    6    0    1
 -2      1533       192      1116       191      1794      1305      8126      1793       237      1306
 -1      8018    6    0    1
 -2      2826        98        97      1116      3086       143      3087      8124      1192      1191
 -1      8019    6    0    1
 -2      6036      5631       881      6042      9487      5779      6073      6074     10060      6048
 -1      8020    6    0    1
 -2       343       344      1575      4710       388      1973      1972      4799      4798      8998
 -1      8021    6    0    1
 -2       479      4710       478      2868      4918      4917       523      3265      8997      3266
 -1      8022    6    0    1
 -2       346       347      1577      4735       391      1982      1981      4808      4807      9013
 -1      8023    6    0    1
 -2       481      4735      2870       482      4923      9014      3275       526      4924      3274
 -1      8024    6    0    1
 -2       338       337      4730      1578       382      4781      4780      1955      1954      8907
 -1      8025    6    0    1
 -2       473      2871      4730       472      3247      8908      4906       517      3248      4905
 -1      8026    6    0    1
 -2       212      1529      1109       213      1856      8901      1348       258      1857      1347
 -1      8027    6    0    1
 -2      2822       119       118      1109      3149       164      3150      8902      1255      1254
 -1      8028    6    0    1
 -2      2903      4746      4754       510      9354      4894      9323      3360      4980      4763
 -1      8029    6    0    1
 -2       180      1093       181      1576      1284      1283       226      1760      8923      1761
 -1      8030    6    0    1
 -2      2869        87        86      1093      3053       132      3054      8922      1159      1158
 -1      8031    6    0    1
 -2      6234       770      4342        22     10171      4421     10103      6248       773      4422
 -1      8032    6    0    1
 -2       121      2801       122      1112      3159      3158       167      1263      9374      1264
 -1      8033    6    0    1
 -2      4327      1068      6853      6851     10184      6863     10185     10281      6857      6864
 -1      8034    6    0    1
 -2      4347      6868      4337      4358     10195      9863      4635      4616     10047      4478
 -1      8035    6    0    1
 -2      1357       276      2809       275      1381      3162      7718      1380       280      3163
 -1      8036    6    0    1
 -2       264      1357      1516       263      1370      7717      1870       268      1371      1869
 -1      8037    6    0    1
 -2      4011       580      4031      6941      4164      4166      4168      9800     10061      9795
 -1      8038    6    0    1
 -2      4346      4382       776      6581      4517      4516      4512      9806     10036     10017
 -1      8039    6    0    1
 -2      1391      1386      1390      6930      1413      1407      1404      9630      9503      9638
 -1      8040    6    0    1
 -2      1580       349       350      4724      1990       394      1991      9048      4817      4816
 -1      8041    6    0    1
 -2       484      4724      2873       485      4929      9050      3284       529      4930      3283
 -1      8042    6    0    1
 -2      6232      6818        64      4381     10187      6824      6305     10264     10263     10265
 -1      8043    6    0    1
 -2      4332      4331       723      6529      4462      4457      4461     10282     10051     10238
 -1      8044    6    0    1
 -2       958      6870      6868      4347      6880      6881      6873     10138     10107     10195
 -1      8045    6    0    1
 -2      5622      5623       580      6941      5706      5701      5705      9294      8350     10061
 -1      8046    6    0    1
 -2       201       200      1118      1527       246      1324      1323      1821      1820      8182
 -1      8047    6    0    1
 -2       106      2820       107      1118      3114      3113       152      1218      8180      1219
 -1      8048    6    0    1
 -2      2821       104       103      1117      3104       149      3105      8167      1210      1209
 -1      8049    6    0    1
 -2       198      1117      1528       197      1317      8169      1812       243      1318      1811
 -1      8050    6    0    1
 -2        19       881       605      6042       885      5663       640      6046      6048     10208
 -1      8051    6    0    1
 -2       109      2819       110      1078      3123      3122       155      1227      9762      1228
 -1      8052    6    0    1
 -2       203      1078       204      1526      1330      1329       249      1829      9763      1830
 -1      8053    6    0    1
 -2         1      1569      1122       172      1710      8942      1124       217      1711      1126
 -1      8054    6    0    1
 -2      1074      6870      4345      1073      6883     10120     10121      1076      6884     10217
 -1      8055    6    0    1
 -2       585      5587       437      5641      5716      9431      4121      5720      5721      9739
 -1      8056    6    0    1
 -2       659      5109      5163       302      5238      5243      5242      4107      9657      9871
 -1      8057    6    0    1
 -2        22       770      6235        51       773     10105      6252      6250     10218      6251
 -1      8058    6    0    1
 -2        22      6234       770        51      6248     10171       773      6250      6249     10218
 -1      8059    6    0    1
 -2      4319      6546       979      6547     10052      6556     10001     10002      6559      6555
 -1      8060    6    0    1
 -2      4334        28      6495       725     10283      6497     10237      4468      6130     10082
 -1      8061    6    0    1
 -2       341       342      1519      4731       386      1967      1966      4793      4792      8425
 -1      8062    6    0    1
 -2       477      4731       476      2812      4914      4913       521      3259      8427      3260
 -1      8063    6    0    1
 -2      5599       592         6       591      5737      4069      9428      5738       626      4068
 -1      8064    6    0    1
 -2      5121         5       666       665      9427      4062      5259      5260      4061       700
 -1      8065    6    0    1
 -2       210      1534      1121       211      1850      8043      1344       256      1851      1343
 -1      8066    6    0    1
 -2      2827       117       116      1121      3143       162      3144      8044      1249      1248
 -1      8067    6    0    1
 -2       113       112      2818      1105       158      3132      3131      1237      1236      8146
 -1      8068    6    0    1
 -2       207       206      1105      1525       252      1336      1335      1839      1838      8148
 -1      8069    6    0    1
 -2        89        88      2832      1094       134      3060      3059      1165      1164      8053
 -1      8070    6    0    1
 -2      1539      1094       182       183      8055      1288      1766      1767      1287       228
 -1      8071    6    0    1
 -2       314         7      6108      6767       320     10211     10284      9803      9965     10229
 -1      8072    6    0    1
 -2      1582       352       353      4738      1999       397      2000      9032      4826      4825
 -1      8073    6    0    1
 -2       487      4738      2875       488      4935      9034      3293       532      4936      3292
 -1      8074    6    0    1
 -2        33      6110      1053      6783      6161     10014      1055      6787     10016      6788
 -1      8075    6    0    1
 -2      6242        54       994      6581      6269       997     10285      9807      6587      6588
 -1      8076    6    0    1
 -2      5631       605       881      6042      5776      5663      5779     10060     10208      6048
 -1      8077    6    0    1
 -2      6229        66      6801      4374      6309      6807      9620      9816     10286      9817
 -1      8078    6    0    1
 -2       491      4752      2804       492      4943      8781      3305       536      4944      3304
 -1      8079    6    0    1
 -2      1511       356       357      4752      2011       401      2012      8779      4838      4837
 -1      8080    6    0    1
 -2       362      4747       363      1514      4856      4855       407      2029      9133      2030
 -1      8081    6    0    1
 -2       497       498      4747      2807       542      4956      4955      3323      3322      9135
 -1      8082    6    0    1
 -2        56       984      4336      6547       987     10287     10288      6552      6554     10289
 -1      8083    6    0    1
 -2      4022      4046      6044      4049      4314      9779      9780      4311      4239     10248
 -1      8084    6    0    1
 -2      4023      4047      4050      5024      4316      4125      4242      9785      9784     10256
 -1      8085    6    0    1
 -2       500       501      4741      2814       545      4962      4961      3332      3331      9277
 -1      8086    6    0    1
 -2      1521       365       366      4741      2038       410      2039      9276      4865      4864
 -1      8087    6    0    1
 -2      5079      5157      5180      6944      5370      5381      5379      9383      7988      7866
 -1      8088    6    0    1
 -2       494       495      4726      2806       539      4950      4949      3314      3313      8936
 -1      8089    6    0    1
 -2      1513       359       360      4726      2020       404      2021      8934      4847      4846
 -1      8090    6    0    1
 -2        64        65      6818      6232       947      6825      6824      6305      6304     10187
 -1      8091    6    0    1
 -2        32      6102        31      6817      6146      6147       914      6820     10165      6821
 -1      8092    6    0    1
 -2        52      6234        51      6631      6255      6249       934      6637     10104      6638
 -1      8093    6    0    1
 -2        42      6630        43      6104      6634      6633       925      6190     10096      6118
 -1      8094    6    0    1
 -2      6233        63      6835        64      6300      6842     10186      6299       946      6841
 -1      8095    6    0    1
 -2        30        31      6103      6834       913      6141      6142      6838      6837     10114
 -1      8096    6    0    1
 -2        53        51      6235      6615       935      6251      6256      6620      6621     10073
 -1      8097    6    0    1
 -2      6614        43      6105        44      6617      6121     10079      6616       926      6193
 -1      8098    6    0    1
 -2         2       278      2975      1358       283      3005      3006      1363      1364      9705
 -1      8099    6    0    1
 -2       479       480      4733      2811       524      4920      4919      3269      3268      8399
 -1      8100    6    0    1
 -2      1518      4733       344       345      8397      4802      1975      1976      4801       389
 -1      8101    6    0    1
 -2       840      5646      5601      5018      5784      5785      5780      5045      9250      9484
 -1      8102    6    0    1
 -2       505      2877      4743       504      3343      9065      4970       549      3344      4969
 -1      8103    6    0    1
 -2       370      1584       369      4743      2051      2050       414      4876      9064      4877
 -1      8104    6    0    1
 -2      6045      6033      6040      6932      6089      6088      6082      9379      9217      9761
 -1      8105    6    0    1
 -2      4373         8      4378      1054      4393      4397      4399     10068      9993     10239
 -1      8106    6    0    1
 -2      6237      4335       782       783      9765      4538      6288      6349      4537       808
 -1      8107    6    0    1
 -2       294      4373         7      1053      4384      4385       296     10038     10199     10013
 -1      8108    6    0    1
 -2       850      5122       851      5016      5308      5204       855      5058      9608      5061
 -1      8109    6    0    1
 -2       884      5620      5597      6041      5673      5796      5793      6056      9527      9486
 -1      8110    6    0    1
 -2       857      5153      6038      6043      5301      8811      6062      6051     10201      6064
 -1      8111    6    0    1
 -2      6363      6378      6358      6942      6449      6445      6469      9442      9453      9449
 -1      8112    6    0    1
 -2       482       483      4734      2808       527      4926      4925      3278      3277      8447
 -1      8113    6    0    1
 -2       348      1515       347      4734      1985      1984       392      4810      8445      4811
 -1      8114    6    0    1
 -2      1682        75      1358         1     10003      1360      9707      1713        76      1361
 -1      8115    6    0    1
 -2      1605       367       368      4742      2044       412      2045      8618      4871      4870
 -1      8116    6    0    1
 -2       502      4742      2898       503      4965      8619      3338       547      4966      3337
 -1      8117    6    0    1
 -2        29       728      1073      6851      6137     10290      1075      6855     10291      6856
 -1      8118    6    0    1
 -2        74      1014       797      6648      1017     10267      6342      6654      6657     10230
 -1      8119    6    0    1
 -2       741        41      6647      1013      6186      6651     10207     10262      1015      6652
 -1      8120    6    0    1
 -2      6699      6717      1029        71      9978      6725      6707      6706      6723      1032
 -1      8121    6    0    1
 -2      6698      6716        38      1028      9975      6718      6702      6703      6721      1030
 -1      8122    6    0    1
 -2      6528      6547       979        57      9769      6555      6537      6536      6553       982
 -1      8123    6    0    1
 -2      6529      6545        48       978     10050      6548      6532      6533      6551       980
 -1      8124    6    0    1
 -2      6496        59      6512       969      6501      6519     10074      6503       972      6521
 -1      8125    6    0    1
 -2      6511      6495       968        50      9917      6500      6517      6514      6498       970
 -1      8126    6    0    1
 -2      6749      6733      1038        36     10053      6737      6755      6752      6736      1040
 -1      8127    6    0    1
 -2      6751      6734        69      1039     10057      6740      6756      6759      6741      1042
 -1      8128    6    0    1
 -2      5015      5168       849      5016      8665      5306      5055      5060      9566      5059
 -1      8129    6    0    1
 -2      4364      6479       963      6477     10030      6492     10259     10032      6490      6483
 -1      8130    6    0    1
 -2      5178      4021       668       667      9452      4274      5265      5266      4275       702
 -1      8131    6    0    1
 -2       594       593      4021      5656       628      4177      4178      5743      5744      9334
 -1      8132    6    0    1
 -2        12       375      4754      1574       420      4759      4758      1730      1729      9296
 -1      8133    6    0    1
 -2      4320      4357      4366      6106      4456      4585      4584     10139     10153     10151
 -1      8134    6    0    1
 -2       375      1610      4754      1574      2068      9295      4759      1729      2072      9296
 -1      8135    6    0    1
 -2      4376       770      1004      4383      4503     10012     10292      4508      4423     10070
 -1      8136    6    0    1
 -2       769      4343      1003      4340      4420     10098     10136      4502      4506     10203
 -1      8137    6    0    1
 -2      4022      6043       679      4049      9955     10202      4308      4311     10249      4094
 -1      8138    6    0    1
 -2      4054         5       666      5121      4058      4062      4063      8061      9427      5259
 -1      8139    6    0    1
 -2      4053       592         6      5599      4070      4069      4065      8057      5737      9428
 -1      8140    6    0    1
 -2      5616       590      5647       432      5731      5735      5736      7136      4066      7025
 -1      8141    6    0    1
 -2       664      5138      5169       297      5253      5258      5257      4060      7135      7024
 -1      8142    6    0    1
 -2      5571      5612      5648      6942      5983      5807      5982      8526      9676      9747
 -1      8143    6    0    1
 -2       775      4375      4346      6597      4509      4514      4513     10110      9555     10270
 -1      8144    6    0    1
 -2       450      2947      2793      6930      3211      3210      3212      8562      9460      9197
 -1      8145    6    0    1
 -2      1654       315      1500      6930      1917      1919      1918      9462      8559      9198
 -1      8146    6    0    1
 -2      6041        26      5620       906      6055      5674      9527      6057       909      9528
 -1      8147    6    0    1
 -2       488      4715      2802       489      4937      8513      3296       533      4938      3295
 -1      8148    6    0    1
 -2       353      4715       354      1509      4829      4828       398      2002      8511      2003
 -1      8149    6    0    1
 -2       722       723      4331        48       748      4457      4458      6208      6213     10196
 -1      8150    6    0    1
 -2       993      4361      4322      6598     10275      4592     10119      6608     10122      9885
 -1      8151    6    0    1
 -2       963      4365      4368      4364     10246      4570     10245     10259      4630      4659
 -1      8152    6    0    1
 -2      4343      6104        21       769     10097      6119      4417      4420     10220       771
 -1      8153    6    0    1
 -2      5607       582       583        13      5711       617      5710      7835      4079      4077
 -1      8154    6    0    1
 -2       656      5129       657         9      5233      5232       691      4073      9536      4072
 -1      8155    6    0    1
 -2       883      5597      5627      6037      5794      5795      5789      6075      9667      9712
 -1      8156    6    0    1
 -2        54      6231       775      6597      6261      6268      6267      6603      9557     10110
 -1      8157    6    0    1
 -2        29      6100       728      6851      6135      6136      6137      6855      9645     10291
 -1      8158    6    0    1
 -2      6647      6098        41       741      9579      6184      6651     10207      6185      6186
 -1      8159    6    0    1
 -2        74       797      6228      6648      6342      6341      6258      6654     10230      9573
 -1      8160    6    0    1
 -2      5646      5018       841      5014      9250      5048      5783      9646      5053      5052
 -1      8161    6    0    1
 -2      6564      4366      6563       983     10150      9996      6575      6568     10293      6574
 -1      8162    6    0    1
 -2      4329      1063      4377      6834     10295     10294      4620     10236      6840     10219
 -1      8163    6    0    1
 -2      4355      4318       973      6511      4465      9997     10296     10297      9916      6516
 -1      8164    6    0    1
 -2      6115         7      6110      6783     10212      9838      6162     10095     10015     10016
 -1      8165    6    0    1
 -2       793       453       794        71      4442      4443       819      6330     10065      6333
 -1      8166    6    0    1
 -2        38       738       737       318      6174       763      6173     10064      4435      4433
 -1      8167    6    0    1
 -2        20       679       857      6043       714      5185       861      6050     10202      6051
 -1      8168    6    0    1
 -2       984      4319      4336      6547     10298      4524     10287      6554     10002     10289
 -1      8169    6    0    1
 -2       589       590      5616       433       624      5731      5732      4113      4111      8981
 -1      8170    6    0    1
 -2       664       663      5138       298       698      5254      5253      4098      4099      8982
 -1      8171    6    0    1
 -2      4349      4361      4330       993      4622      4593      4581     10177     10275     10176
 -1      8172    6    0    1
 -2        60      6496       781      4368      6502     10240      6283     10299     10205      4535
 -1      8173    6    0    1
 -2       661       300      5124      5133      4103      7209      5244      5248      9141      5249
 -1      8174    6    0    1
 -2      5611      5602       587       435      5727      5722      5726      9410      7233      4117
 -1      8175    6    0    1
 -2      5168      5122       850      5016      5309      5308      5305      9566      9608      5058
 -1      8176    6    0    1
 -2       486      2805      4736       485      3286      8490      4932       530      3287      4931
 -1      8177    6    0    1
 -2       350      4736       351      1512      4820      4819       395      1993      8488      1994
 -1      8178    6    0    1
 -2      1073      6868      6870      4347      6874      6881      6884     10215     10195     10107
 -1      8179    6    0    1
 -2      5153       679       678      4022      5298       713      5299      9476      4308      4307
 -1      8180    6    0    1
 -2      4356      4382       989      6562      4634     10111     10197     10198     10300      6571
 -1      8181    6    0    1
 -2      1612       178      1091       177      1752      1277      8836      1751       223      1278
 -1      8182    6    0    1
 -2        84        83      2905      1091       129      3045      3044      1150      1149      8835
 -1      8183    6    0    1
 -2      4369       780      6512      4317      4527     10129     10124      4533      4531     10075
 -1      8184    6    0    1
 -2      2760      2797      2958      6931      3906      3368      3907      7303      8407      9246
 -1      8185    6    0    1
 -2      5557      5658      5635      6945      5857      5859      5849      9357      8225      8693
 -1      8186    6    0    1
 -2      4380       741      4323      1013      4496      4498      4499     10250     10262     10045
 -1      8187    6    0    1
 -2      6107      4337       726      6477      9864      4473      6133     10222     10049     10301
 -1      8188    6    0    1
 -2       726       727      4337      6107       752      4474      4473      6133      6219      9864
 -1      8189    6    0    1
 -2      4326      4357      6545       983      4607     10302     10125     10269     10303      6550
 -1      8190    6    0    1
 -2      6513       973      4350      4344      6526     10304     10305      9788     10154      4640
 -1      8191    6    0    1
 -2      4379      1014      4321       797     10243     10041      4564      4561     10267      4563
 -1      8192    6    0    1
 -2      2909      2831      2713      6903      3426      3427      3421      8630      8585      9028
 -1      8193    6    0    1
 -2      1420      1538      1616      6903      2134      2133      2129      9745      8423      8631
 -1      8194    6    0    1
 -2       300       662       299      5133      4102      4101       308      9141      5247      9252
 -1      8195    6    0    1
 -2       434      5611       588       435      9510      5725      4115       443      9410      4114
 -1      8196    6    0    1
 -2      4321      1014      6649      6648     10041      6662      9967      9782      6657      6661
 -1      8197    6    0    1
 -2       660      5163      5124       301      5241      5246      5245      4105      9303      7365
 -1      8198    6    0    1
 -2      5602       436      5641       586      7366      9076      5724      5723      4119      5719
 -1      8199    6    0    1
 -2      5154      5134      5088      6929      5474      5468      5473      9322      8634      8996
 -1      8200    6    0    1
 -2      4381      6233       786      4371     10234      6308      4554      4555     10091      4549
 -1      8201    6    0    1
 -2       560        13      4667       439       566      4677      4676      3015       448      7694
 -1      8202    6    0    1
 -2       425         9       304      4666       431       313      1722      4671      4670      9660
 -1      8203    6    0    1
 -2      5571      5632      5612      6942      5823      5952      5983      8526      8119      9676
 -1      8204    6    0    1
 -2      5097      5175      5144      6939      5524      5529      5528      8537      9224      9514
 -1      8205    6    0    1
 -2      1064      6835      4381      4371      6844     10235     10306     10266      9597      4555
 -1      8206    6    0    1
 -2       722      4331      4357      6545      4458      4459      4454     10307      9894     10302
 -1      8207    6    0    1
 -2      4328      4363      6852      1074      4619     10004      9777     10308     10221      6860
 -1      8208    6    0    1
 -2      1615       425       304      4662      1910      1722      1911      9830      4691     10089
 -1      8209    6    0    1
 -2      2908       560      4662       439      3203      4705      9829      3204      3015     10090
 -1      8210    6    0    1
 -2      1467      1665      1504      6931      2614      2075      2613      7302      9262      9325
 -1      8211    6    0    1
 -2      2895        15      4753       467      3020      4761      7436      3019       511      4762
 -1      8212    6    0    1
 -2      6496       781        59        60     10240      6284      6501      6502      6283       942
 -1      8213    6    0    1
 -2      6547       778        56        57     10279      6276      6552      6553      6275       939
 -1      8214    6    0    1
 -2      6545       722        48        47     10307      6208      6548      6549      6209       930
 -1      8215    6    0    1
 -2        28        27      6107      6477       910      6126      6125      6481      6480     10222
 -1      8216    6    0    1
 -2      6236        56        55      6562      6272       938      6273     10224      6569      6570
 -1      8217    6    0    1
 -2      6106      6564        46        47     10152      6566      6206      6205      6565       929
 -1      8218    6    0    1
 -2        60      6478      6237        61      6484      9869      6286       943      6485      6285
 -1      8219    6    0    1
 -2        34        35      6108      6767       917      6163      6164      6770      6769     10229
 -1      8220    6    0    1
 -2      6768        67        68      6238      6773       950      6774     10166      6322      6321
 -1      8221    6    0    1
 -2        73        72      6239      6683       955      6335      6334      6688      6689     10227
 -1      8222    6    0    1
 -2        40      6682      6109        39      6684     10168      6176       922      6685      6177
 -1      8223    6    0    1
 -2       857       679      5153      6043      5185      5298      5301      6051     10202     10201
 -1      8224    6    0    1
 -2      6513      4350       974      4344     10305     10254      6527      9788      4640      9986
 -1      8225    6    0    1
 -2       725        28      6495        50      6130      6497     10082      6131       933      6498
 -1      8226    6    0    1
 -2      4986      4985      4982      6927      5011      5004      5009      9749      9750      9492
 -1      8227    6    0    1
 -2        23      5158      6367      5182      5192      9855      6384      5188      5194      9716
 -1      8228    6    0    1
 -2      1682      1358       266         1      9707      1362      1712      1713      1361       271
 -1      8229    6    0    1
 -2      5135        25      6369       866      5198      6390      9709      5197       873      6389
 -1      8230    6    0    1
 -2      4381        64      6835      1064     10265      6841     10235     10306      1067      6844
 -1      8231    6    0    1
 -2       789         8       790      6238      4396      4394       815      6353     10163      6327
 -1      8232    6    0    1
 -2       796       795        14      6239       821      4409      4410      6355      6337     10159
 -1      8233    6    0    1
 -2       740        10       739      6109      4402      4400       765      6225     10157      6179
 -1      8234    6    0    1
 -2       375      4754      1610      4746      4759      9295      2068      4891      4894      9353
 -1      8235    6    0    1
 -2      1013      6647      4323      6649      6652      9791     10045      6663      6660      9956
 -1      8236    6    0    1
 -2      4350      4362      6530      4333      4625      9949     10253      4626      4579     10092
 -1      8237    6    0    1
 -2      4330       719      6101      4322      4449      6200     10192      4450      4445      9700
 -1      8238    6    0    1
 -2       859      5119       860      6039      5316      5315       864      6066      8637      6067
 -1      8239    6    0    1
 -2      5643       890       891      6376      5798       898      5797      7650      6431      6432
 -1      8240    6    0    1
 -2       974       973      4350      6513       976     10304     10254      6527      6526     10305
 -1      8241    6    0    1
 -2      4374        66      6801      1054     10286      6807      9817     10067      1057      6810
 -1      8242    6    0    1
 -2       964      4352      6479      4364     10134     10132      6493     10260      4646     10030
 -1      8243    6    0    1
 -2      4374      4378        66      1054      4560     10309     10286     10067     10239      1057
 -1      8244    6    0    1
 -2        50      6511       724        49      6514     10183      6214       932      6515      6215
 -1      8245    6    0    1
 -2        59        58       780      6512       941      6282      6281      6519      6518     10129
 -1      8246    6    0    1
 -2      6529        48       723        49      6532      6213     10238      6531       931      6212
 -1      8247    6    0    1
 -2        57      6528       779        58      6536     10210      6280       940      6535      6279
 -1      8248    6    0    1
 -2      5016      5017      5014      6946      5063      5051      5076      9567      8749      9280
 -1      8249    6    0    1
 -2       115       114      2989      1106       160      3138      3137      1243      1242      8134
 -1      8250    6    0    1
 -2       208      1106       209      1696      1340      1339       254      1844      8135      1845
 -1      8251    6    0    1
 -2      2862        78         2      1122      3003       123      3004      8943      1128      1127
 -1      8252    6    0    1
 -2      1635       334       335      4712      1943       379      1944      8765      4772      4771
 -1      8253    6    0    1
 -2      2928       469      4712       470      3237      4899      8767      3236       514      4900
 -1      8254    6    0    1
 -2      6242       994      4346      6581     10285     10241      9805      9807      6588      9806
 -1      8255    6    0    1
 -2       453      1024        72      6699      9878      1027     10310      9979      6708      6705
 -1      8256    6    0    1
 -2        39       318      6698      1023     10311      9976      6701      1025      9877      6704
 -1      8257    6    0    1
 -2        56      4336      4319      6547     10288      4524     10312      6552     10289     10002
 -1      8258    6    0    1
 -2      6530       973      4362      4350      6540     10268      9949     10253     10304      4625
 -1      8259    6    0    1
 -2      6545      4357       722        47     10302      4454     10307      6549     10313      6209
 -1      8260    6    0    1
 -2      4332      4362      4331      6529      4623      4609      4462     10282     10247     10051
 -1      8261    6    0    1
 -2      6598       994      4361      4375      6607     10276     10122      9966     10172      4645
 -1      8262    6    0    1
 -2       572        18      4047      5019       606      4087      4088      9926      5029      9668
 -1      8263    6    0    1
 -2       333       334      1669      4727       378      1941      1940      4769      4768      8985
 -1      8264    6    0    1
 -2       468      4727      2962       469      4897      8983      3234       513      4898      3233
 -1      8265    6    0    1
 -2      5613        26       890      6370      5676       897      5675      7597      6393      6392
 -1      8266    6    0    1
 -2        54      4346       994      6597     10314     10241       997      6603     10270      6606
 -1      8267    6    0    1
 -2      1053      6802      4373      4370      6812     10066     10199     10128     10188      4392
 -1      8268    6    0    1
 -2       589      5616      5655       433      5732      5733      5728      4113      8981      7252
 -1      8269    6    0    1
 -2      5138       663      5177       298      5254      5250      5255      8982      4099      7093
 -1      8270    6    0    1
 -2        56      4319       778      6547     10312      4523      6276      6552     10002     10279
 -1      8271    6    0    1
 -2      5605      6374       895       896      7150      6457      5817      5816      6456       903
 -1      8272    6    0    1
 -2        17       646      4050      5020       680      4085      4084      5026      9925     10255
 -1      8273    6    0    1
 -2      4365      6494      6495       963      9940      6507     10117     10246      6506      6499
 -1      8274    6    0    1
 -2      6100      4339      4327      6851      9640      4482     10315      9645      9643     10281
 -1      8275    6    0    1
 -2      2991      1086        80        79      7401      1138      3030      3031      1137       125
 -1      8276    6    0    1
 -2       174       173      1086      1698       219      1270      1269      1738      1737      7403
 -1      8277    6    0    1
 -2      2992       474      4721       475      3254      4909      8299      3253       519      4910
 -1      8278    6    0    1
 -2       339       340      1699      4721       384      1961      1960      4787      4786      8297
 -1      8279    6    0    1
 -2       736        36       315       735      6170     10143      4430       761      6167      4427
 -1      8280    6    0    1
 -2        69       791       792       450      6324       817      6329     10144      4437      4438
 -1      8281    6    0    1
 -2      1063      4367      6819      4353     10316     10257      6832     10242      4653      9897
 -1      8282    6    0    1
 -2       733       734         7      6108       759      4387      4389      6223      6169     10211
 -1      8283    6    0    1
 -2      4322      6596      4330       993      9701     10191      4450     10119      6602     10176
 -1      8284    6    0    1
 -2       572       573      5600      4056       607      5680      5681      4127      4126      9534
 -1      8285    6    0    1
 -2      4381       786      6232      4351      4554      6306     10264      4553      4551     10115
 -1      8286    6    0    1
 -2      4381      6818        64      1064     10263      6824     10265     10306      6826      1067
 -1      8287    6    0    1
 -2      6106      4320      4357       721     10139      4456     10153      6211      4451      4455
 -1      8288    6    0    1
 -2      1013      4323      4380      4341     10045      4499     10250      9971      4589      4407
 -1      8289    6    0    1
 -2      5123      5168       849      5015      5307      5306      5302      9358      8665      5055
 -1      8290    6    0    1
 -2        66      6240      6784      4378      6318     10085      6791     10309      9744     10087
 -1      8291    6    0    1
 -2      5155      5078      5147      6935      5360      5366      5369      9376      9833      9738
 -1      8292    6    0    1
 -2        85        84      2978      1092       130      3048      3047      1153      1152      7799
 -1      8293    6    0    1
 -2       178      1092       179      1685      1280      1279       224      1754      7801      1755
 -1      8294    6    0    1
 -2      4344      4318       973      4355      4571      9997     10154      4572      4465     10296
 -1      8295    6    0    1
 -2       423      1661       422      4665      2077      2076       428      4685      8753      4686
 -1      8296    6    0    1
 -2       558      2954      4665       557      3369      8755      4701       563      3370      4700
 -1      8297    6    0    1
 -2        90      3001        91      1081      3066      3065       136      1170      8101      1171
 -1      8298    6    0    1
 -2       184      1708      1081       185      1772      8103      1292       230      1773      1291
 -1      8299    6    0    1
 -2      2883       499      4716       500      3329      4959      9002      3328       544      4960
 -1      8300    6    0    1
 -2      1590       364       365      4716      2035       409      2036      8999      4862      4861
 -1      8301    6    0    1
 -2        93      3000        94      1087      3075      3074       139      1179      8105      1180
 -1      8302    6    0    1
 -2       188       187      1087      1707       233      1298      1297      1782      1781      8106
 -1      8303    6    0    1
 -2       727      4337      6116      4358      4474      9861      6221      4476      4478     10046
 -1      8304    6    0    1
 -2        96      2998        97      1096      3084      3083       142      1188      8108      1189
 -1      8305    6    0    1
 -2       191      1096      1705       190      1303      8107      1791       236      1304      1790
 -1      8306    6    0    1
 -2      1704       194      1098       193      1800      1309      8095      1799       239      1310
 -1      8307    6    0    1
 -2       100        99      2997      1098       145      3093      3092      1198      1197      8093
 -1      8308    6    0    1
 -2         4      1123       169      1619      1132      1131       170      1716      9364      9298
 -1      8309    6    0    1
 -2      1073      4345      6853      4327     10217     10251      6867     10216      4614     10185
 -1      8310    6    0    1
 -2       884      5597       883      6037      5793      5794       888      6078      9667      6075
 -1      8311    6    0    1
 -2      1702       336       337      4713      1951       381      1952      8159      4778      4777
 -1      8312    6    0    1
 -2      2995       471      4713       472      3245      4903      8162      3244       516      4904
 -1      8313    6    0    1
 -2       984      4336      4319      4356     10287      4524     10298     10317      4580      4573
 -1      8314    6    0    1
 -2       509      2900      4719       508      3357      9227      4978       553      3358      4977
 -1      8315    6    0    1
 -2       374      1607       373      4719      2065      2064       418      4888      9225      4889
 -1      8316    6    0    1
 -2      4328        62      4359      1074     10319     10318      4547     10308      1077     10277
 -1      8317    6    0    1
 -2      1064      4381      6818      4351     10306     10263      6826     10233      4553      9623
 -1      8318    6    0    1
 -2       361       362      1588      4750       406      2027      2026      4853      4852      8958
 -1      8319    6    0    1
 -2      2881       496      4750       497      3320      4953      8960      3319       541      4954
 -1      8320    6    0    1
 -2      4321      4341      1014      4379      4590      9961     10041      4564      4414     10243
 -1      8321    6    0    1
 -2      4328      6852        62      1074      9777      6859     10319     10308      6860      1077
 -1      8322    6    0    1
 -2      6870      4338      4345      4347     10033      4638     10120     10107      4637      4613
 -1      8323    6    0    1
 -2      4348      4373      6802      4370      4655     10066     10194      4654      4392     10188
 -1      8324    6    0    1
 -2      4370      6802      4348      4354     10188     10194      4654      4495      9907      4652
 -1      8325    6    0    1
 -2      4367      1064      6819      4351     10320      6833     10257      4649     10233     10127
 -1      8326    6    0    1
 -2       346      4714      1692       345      4804      8373      1979       390      4805      1978
 -1      8327    6    0    1
 -2       481      4714       480      2985      4922      4921       525      3271      8376      3272
 -1      8328    6    0    1
 -2      6110      1053      4370        33     10014     10128     10039      6161      1055     10321
 -1      8329    6    0    1
 -2       348       349      1691      4723       393      1988      1987      4814      4813      8543
 -1      8330    6    0    1
 -2       484      4723       483      2984      4928      4927       528      3280      8547      3281
 -1      8331    6    0    1
 -2        62      6869      6243      4359      6875      9944      6297     10318      9945      9718
 -1      8332    6    0    1
 -2      6230      6852        62      4328      9595      6859      6293      9778      9777     10319
 -1      8333    6    0    1
 -2      1693      1111       214       215      8389      1352      1862      1863      1351       260
 -1      8334    6    0    1
 -2       120      2986       121      1111      3156      3155       166      1260      8387      1261
 -1      8335    6    0    1
 -2         5      5121      5169       665      9427      5261      7266      4061      5260      5256
 -1      8336    6    0    1
 -2      5599         6      5647       591      9428      7263      5739      5738      4068      5734
 -1      8337    6    0    1
 -2      2761      2862      2975      6934      3911      3007      3912      7591      8647      9706
 -1      8338    6    0    1
 -2      1682      1569      1468      6934      1714      2618      2619      9708      8646      7593
 -1      8339    6    0    1
 -2       797      4379      1014        74      4561     10243     10267      6342     10322      1017
 -1      8340    6    0    1
 -2      1695       342       343      4732      1969       387      1970      8382      4796      4795
 -1      8341    6    0    1
 -2      2988      4732       478       477      8380      4916      3262      3263      4915       522
 -1      8342    6    0    1
 -2      1561      1443      1541      6887      2413      2415      2414      7710     10323      7457
 -1      8343    6    0    1
 -2        37        36      6733       736       919      6736      6735      6171      6170     10231
 -1      8344    6    0    1
 -2        69       792        70      6734      6329      6328       952      6740     10232      6739
 -1      8345    6    0    1
 -2      1063      6836      4367      4377      6846     10324     10316     10294     10325      4605
 -1      8346    6    0    1
 -2      4334      4337      4364      6477      4475      4628      4629     10326     10049     10032
 -1      8347    6    0    1
 -2       205      1119       206      1697      1334      1333       251      1835      8027      1836
 -1      8348    6    0    1
 -2       111      2990       112      1119      3129      3128       157      1233      8026      1234
 -1      8349    6    0    1
 -2       197       196      1101      1703       242      1316      1315      1809      1808      7993
 -1      8350    6    0    1
 -2       103       102      2996      1101       148      3102      3101      1207      1206      7990
 -1      8351    6    0    1
 -2      6853      4345      4363      4327     10251      4615      9942     10185      4614      4597
 -1      8352    6    0    1
 -2      1701       200      1103       199      1818      1321      8016      1817       245      1322
 -1      8353    6    0    1
 -2       106       105      2994      1103       151      3111      3110      1216      1215      8013
 -1      8354    6    0    1
 -2       202      1700      1079       203      1826      8019      1328       248      1827      1327
 -1      8355    6    0    1
 -2       109       108      2993      1079       154      3120      3119      1225      1224      8018
 -1      8356    6    0    1
 -2       572       842        18      5019      5662       847       606      9926      5030      5029
 -1      8357    6    0    1
 -2      6545      4331      4357      4326      9894      4459     10302     10125      4608      4607
 -1      8358    6    0    1
 -2      4368      4352      4335       964      4633      4632      4539     10206     10134     10214
 -1      8359    6    0    1
 -2       984       983      6563      4356       986      6574      6573     10317     10327     10190
 -1      8360    6    0    1
 -2       793        70      6717        71      6331      6722     10141      6330       953      6723
 -1      8361    6    0    1
 -2      6716       737        38        37     10142      6173      6718      6719      6172       920
 -1      8362    6    0    1
 -2       661       662       300      5133       696      4102      4103      5248      5247      9141
 -1      8363    6    0    1
 -2       588      5611       587       435      5725      5726       622      4114      9410      4117
 -1      8364    6    0    1
 -2      6836      1064      4367      4325      6845     10320     10324      9889     10280      4602
 -1      8365    6    0    1
 -2       504      4717       503      2968      4968      4967       548      3340      9433      3341
 -1      8366    6    0    1
 -2      1675       368       369      4717      2047       413      2048      9432      4874      4873
 -1      8367    6    0    1
 -2      4332       973      4362      6529     10328     10268      4623     10282      6534     10247
 -1      8368    6    0    1
 -2      4380        41       741      1013     10329      6186      4496     10250      1015     10262
 -1      8369    6    0    1
 -2       568      4047        18      5019      4086      4087       571      5028      9668      5029
 -1      8370    6    0    1
 -2       794      6699        72        71     10330      6705      6332      6333      6706       954
 -1      8371    6    0    1
 -2      6698        38       738        39      6702      6174     10331      6701       921      6175
 -1      8372    6    0    1
 -2        69        68       791      6751       951      6325      6324      6756      6757     10332
 -1      8373    6    0    1
 -2        36        35      6749       735       918      6753      6752      6167      6166     10333
 -1      8374    6    0    1
 -2      3002        88        87      1115      3056       133      3057      7885      1162      1161
 -1      8375    6    0    1
 -2       181      1115       182      1709      1286      1285       227      1763      7887      1764
 -1      8376    6    0    1
 -2      6100      4327       728      6851     10315      4481      6136      9645     10281     10291
 -1      8377    6    0    1
 -2       211      1108       212      1694      1346      1345       257      1853      8012      1854
 -1      8378    6    0    1
 -2       117      2987       118      1108      3147      3146       163      1251      8010      1252
 -1      8379    6    0    1
 -2      4666       304       425      4663      9660      1722      4671      4696      9661      4694
 -1      8380    6    0    1
 -2      4663       560      4667       439      4706      4676      4707      9327      3015      7694
 -1      8381    6    0    1
 -2       868       867      5134      6371       875      5323      5322      6406      6407      9547
 -1      8382    6    0    1
 -2       493       494      4739      2879       538      4948      4947      3311      3310      8989
 -1      8383    6    0    1
 -2       358       359      1586      4739       403      2018      2017      4844      4843      8987
 -1      8384    6    0    1
 -2      4356      6563       984      6562     10190      6573     10317     10198      6576      6572
 -1      8385    6    0    1
 -2       860      5142        25      6040      5196      5195       865      6052      9760      6053
 -1      8386    6    0    1
 -2      4350      6530       973       974     10253      6540     10304     10254      6539       976
 -1      8387    6    0    1
 -2      4023      4050       646      5020      4242      4085      4241      9423     10255      9925
 -1      8388    6    0    1
 -2        33      4370      6099      6800     10321     10334      6151      6803     10189      9727
 -1      8389    6    0    1
 -2        31      6102      4353      6817      6147     10164     10335      6821     10165      9899
 -1      8390    6    0    1
 -2       265      1355       266      1672      1377      1376       270      1875      9187      1876
 -1      8391    6    0    1
 -2       277       278      1355      2965       282      1385      1384      3169      3168      9186
 -1      8392    6    0    1
 -2      6042      4046        19       642      9702      4090      6046      6047      4091       645
 -1      8393    6    0    1
 -2       994      4349      4361      4346     10029      4622     10276     10241      4642      4643
 -1      8394    6    0    1
 -2        14       462      4984       454       464      4994      4993       461      3016      9796
 -1      8395    6    0    1
 -2        10       327       319      4983       329      1723       326      4988      4987      9814
 -1      8396    6    0    1
 -2       351      1689      4737       352      1996      8319      4823       396      1997      4822
 -1      8397    6    0    1
 -2      2982       486      4737       487      3290      4933      8321      3289       531      4934
 -1      8398    6    0    1
 -2      6478      4335       782      6237      9868      4538     10336      9869      9765      6288
 -1      8399    6    0    1
 -2      1073      6870      4345      4347      6884     10120     10217     10215     10107      4613
 -1      8400    6    0    1
 -2       963       964      6479      4364       966      6493      6492     10259     10260     10030
 -1      8401    6    0    1
 -2       290       449         8      1389      3014       455       293      1401      9819      1402
 -1      8402    6    0    1
 -2       721      6106      4320       720      6211     10139      4451       746      6217      4452
 -1      8403    6    0    1
 -2       489      4751      2980       490      4939      8329      3299       534      4940      3298
 -1      8404    6    0    1
 -2      1687       354       355      4751      2005       399      2006      8327      4832      4831
 -1      8405    6    0    1
 -2       720      6117      4320      6112      6218     10024      4452      6216      6204     10027
 -1      8406    6    0    1
 -2        74      6241      4379      6665      6344      9810     10322      6671     10337     10244
 -1      8407    6    0    1
 -2      6749        35      1043       315      6753      1045      6754     10054     10338      9984
 -1      8408    6    0    1
 -2      6751        68       450      1044      6757     10339     10058      6758      1047      9985
 -1      8409    6    0    1
 -2      5592      5562      5644      6943      5913      5915      5827      9098      9531      9518
 -1      8410    6    0    1
 -2       332      1602        11      4753      1727      1726       376      4755      7434      4756
 -1      8411    6    0    1
 -2       510      2903      4746       509      3360      9354      4980       554      3361      4979
 -1      8412    6    0    1
 -2      6511      4355      4318       724     10297      4465      9916     10183      4466      4463
 -1      8413    6    0    1
 -2       984      4319      4326      4356     10298      4574     10340     10317      4573      4575
 -1      8414    6    0    1
 -2      6112      4320       720      4330     10027      4452      6216      9831      4453      4448
 -1      8415    6    0    1
 -2         3      2912       169      1123      3009      9403       171      1130      9362      1131
 -1      8416    6    0    1
 -2      6103      4329      4372      6834     10100      4487     10113     10114     10236      9845
 -1      8417    6    0    1
 -2       840      5601       839      5018      5780      5781       844      5045      9484      5046
 -1      8418    6    0    1
 -2      5562      5594      5645      6943      5914      5839      5911      9531      8303      8609
 -1      8419    6    0    1
 -2       984      6546      4319      6547      6561     10052     10298      6554      6559     10002
 -1      8420    6    0    1
 -2      6111      6666        41      4380     10145      6667      6188      9820     10147     10329
 -1      8421    6    0    1
 -2      1053      4373         7      4370     10199      4385     10013     10128      4392      4390
 -1      8422    6    0    1
 -2      4345      4359      4338      1074      4617      4544      4638     10121     10277     10063
 -1      8423    6    0    1
 -2       374       375      1610      4746       419      2068      2067      4892      4891      9353
 -1      8424    6    0    1
 -2       790         8       449      6238      4394       455      4395      6327     10163     10271
 -1      8425    6    0    1
 -2        10       319       739      6109       326      4401      4400     10157     10273      6179
 -1      8426    6    0    1
 -2       795       454        14      6239      4408       461      4409      6337     10272     10159
 -1      8427    6    0    1
 -2      1054      6802      4373      1053      6811     10066     10068      1056      6812     10199
 -1      8428    6    0    1
 -2       842      5600       841      5017      5682      5786       846      5049      9533      5050
 -1      8429    6    0    1
 -2      2713      2831      2911      6903      3427      3428      3417      9028      8585      8650
 -1      8430    6    0    1
 -2      1538      1420      1618      6903      2134      2123      2135      8423      9745      8649
 -1      8431    6    0    1
 -2      2878      4748       491       490      8978      4942      3301      3302      4941       535
 -1      8432    6    0    1
 -2      1585       355       356      4748      2008       400      2009      8977      4835      4834
 -1      8433    6    0    1
 -2       656       655      5104      4052       690      5230      5229      4074      4268      9176
 -1      8434    6    0    1
 -2       582      5582       581      4051      5707      5708       616      4080      8196      4169
 -1      8435    6    0    1
 -2      5020      4050        17       567     10255      4084      5026      5025      4083       569
 -1      8436    6    0    1
 -2       358      1686       357      4725      2015      2014       402      4840      8432      4841
 -1      8437    6    0    1
 -2       492       493      4725      2979       537      4946      4945      3308      3307      8433
 -1      8438    6    0    1
 -2      4350       973      4362      4355     10304     10268      4625      4641     10296      4624
 -1      8439    6    0    1
 -2      4325      4367      6836      4377      4602     10324      9889      4604      4605     10325
 -1      8440    6    0    1
 -2        48      4331       722      6545     10196      4458      6208      6548      9894     10307
 -1      8441    6    0    1
 -2       794       453      6699        71      4443      9979     10330      6333     10065      6706
 -1      8442    6    0    1
 -2       318        38       738      6698     10064      6174      4435      9976      6702     10331
 -1      8443    6    0    1
 -2      4334       726      4337      6477      4469      4473      4475     10326     10301     10049
 -1      8444    6    0    1
 -2        31      4353      1063      6817     10335     10242      1065      6821      9899      6822
 -1      8445    6    0    1
 -2       360       361      1684      4749       405      2024      2023      4850      4849      8517
 -1      8446    6    0    1
 -2      2977       495      4749       496      3317      4951      8518      3316       540      4952
 -1      8447    6    0    1
 -2      6112        45      6579      4330      6203      6583     10026      9831     10341     10175
 -1      8448    6    0    1
 -2      4353      1063      4329        31     10242     10295      4491     10335      1065     10342
 -1      8449    6    0    1
 -2        29       728      6113      4358      6137      6138      6139     10343      4477      9848
 -1      8450    6    0    1
 -2       892      5612       891      6372      5800      5801       899      6436      9740      6437
 -1      8451    6    0    1
 -2      5022       848      5173        23      5033      5186      9112      5032       852      5187
 -1      8452    6    0    1
 -2      4382       777       776      6236      4515       802      4516     10076      6278      6347
 -1      8453    6    0    1
 -2      1598      1113       175       176      9061      1274      1743      1744      1273       221
 -1      8454    6    0    1
 -2      2891        82        81      1113      3036       127      3037      9060      1144      1143
 -1      8455    6    0    1
 -2        17       851       646      5020       856      5184       680      5026      5027      9925
 -1      8456    6    0    1
 -2      6229       788        66      4374      6317      6316      6309      9816      4557     10286
 -1      8457    6    0    1
 -2      4347      1073      6868      4358     10215      6874     10195      4616     10252     10047
 -1      8458    6    0    1
 -2       328        11      1517      4985       331      1725      1724      4991      4990      9755
 -1      8459    6    0    1
 -2      1388         7       285       314      1398       288      1399      9801       320      1721
 -1      8460    6    0    1
 -2       275         6       432      1359       279       440      3013      1369      1368      7008
 -1      8461    6    0    1
 -2         5       297      1359       263       305      7014      1366       267      1720      1365
 -1      8462    6    0    1
 -2       364      1683       363      4740      2033      2032       408      4858      8605      4859
 -1      8463    6    0    1
 -2       499      4740       498      2976      4958      4957       543      3325      8607      3326
 -1      8464    6    0    1
 -2      4368        60      6496       964     10299      6502     10205     10206       967      6504
 -1      8465    6    0    1
 -2        54       775      4346      6597      6267      4513     10314      6603     10110     10270
 -1      8466    6    0    1
 -2       502      4720       501      2973      4964      4963       546      3334      8588      3335
 -1      8467    6    0    1
 -2       366      4720       367      1680      4868      4867       411      2041      8675      2042
 -1      8468    6    0    1
 -2      6043       641        20      4049      6049       643      6050     10249      4092      4093
 -1      8469    6    0    1
 -2        28      6495       963      4334      6497      6499       965     10283     10237     10258
 -1      8470    6    0    1
 -2       314         7       734      6108       320      4387      4386     10284     10211      6169
 -1      8471    6    0    1
 -2        60       781       782      4368      6283       807      6287     10299      4535      4534
 -1      8472    6    0    1
 -2      4334      4364       963      6477      4629     10259     10258     10326     10032      6483
 -1      8473    6    0    1
 -2      4364       963      4365      4334     10259     10246      4630      4629     10258      4472
 -1      8474    6    0    1
 -2       559      4661       558      2889      4703      4702       564      3372      9045      3373
 -1      8475    6    0    1
 -2       423       424      1596      4661       429      2080      2079      4689      4688      9047
 -1      8476    6    0    1
 -2      6245         8      6784      4378     10161     10021     10086     10088      4397     10087
 -1      8477    6    0    1
 -2      6099      4370      4354      6800     10334      4495      9726      9727     10189      9728
 -1      8478    6    0    1
 -2      2946      2947       450      6930      3178      3211      3206      9502      9460      8562
 -1      8479    6    0    1
 -2      1654      1653       315      6930      1885      1914      1917      9462      9506      8559
 -1      8480    6    0    1
 -2       872       871      5127      6373       879      5339      5338      6424      6425      7226
 -1      8481    6    0    1
 -2      6547      4319       778      4360     10002      4523     10279      9772      4525      4522
 -1      8482    6    0    1
 -2       728      4327      1073      6851      4481     10216     10290     10291     10281      6856
 -1      8483    6    0    1
 -2      4378        66       788      4374     10309      6316      4559      4560     10286      4557
 -1      8484    6    0    1
 -2      4319       778      4336        56      4523      4518      4524     10312      6276     10288
 -1      8485    6    0    1
 -2       177      1090      1663       176      1275      9341      1747       222      1276      1746
 -1      8486    6    0    1
 -2      2956        83        82      1090      3039       128      3040      9340      1147      1146
 -1      8487    6    0    1
 -2        29      1073       728      4358      1075     10290      6137     10343     10252      4477
 -1      8488    6    0    1
 -2      4373      4378      4374      1054      4399      4560      4656     10068     10239     10067
 -1      8489    6    0    1
 -2      6236      4382      4336      6562     10076      4520     10344     10224     10300     10345
 -1      8490    6    0    1
 -2       297      5169       664         5      7024      5257      4060       305      7266      4059
 -1      8491    6    0    1
 -2       432       590      5647         6      4066      5735      7025       440      4067      7263
 -1      8492    6    0    1
 -2       727      6116      4337      6107      6221      9861      4474      6219      6129      9864
 -1      8493    6    0    1
 -2      6113      6116      6868      4358      6140      9862     10346      9848     10046     10047
 -1      8494    6    0    1
 -2       316       317      1033        37       323      6949      7332     10348     10347      1035
 -1      8495    6    0    1
 -2       451       452        70      1034       458     10349     10350      6957      7142      1037
 -1      8496    6    0    1
 -2       728      4339      4327      6100      4479      4482      4481      6136      9640     10315
 -1      8497    6    0    1
 -2       454      1024        72       453     10018      1027     10351       460      9878     10310
 -1      8498    6    0    1
 -2        39       319       318      1023     10352       325     10311      1025      9813      9877
 -1      8499    6    0    1
 -2        15      4986       463      2810      4997      4996       466      3018      9754      3017
 -1      8500    6    0    1
 -2        54       994      4346      6242       997     10241     10314      6269     10285      9805
 -1      8501    6    0    1
 -2      1388       285      1387       314      1399      1408      1410      9801      1721      9773
 -1      8502    6    0    1
 -2      1387       449       290      1389      9774      3014      1414      1415      9819      1401
 -1      8503    6    0    1
 -2      4371      4367      1064      4325      4603     10320     10266      4601      4602     10280
 -1      8504    6    0    1
 -2        36      6749       315       735      6752     10054     10143      6167     10333      4427
 -1      8505    6    0    1
 -2       450        69       791      6751     10144      6324      4437     10058      6756     10332
 -1      8506    6    0    1
 -2      5021      5651       839        24      9395      5664      5036      5035      5665       843
 -1      8507    6    0    1
 -2       301      5124       660       661      7365      5245      4105      4104      5244       695
 -1      8508    6    0    1
 -2       586      5602       436       587      5723      7366      4119       621      5722      4116
 -1      8509    6    0    1
 -2       869       870      6381      5132       877      6415      6414      5331      5330      8228
 -1      8510    6    0    1
 -2      4983       327       319      4981      4987      1723      9814      5003      5002      9815
 -1      8511    6    0    1
 -2       462      4981      4984       454      5007      5008      4994      3016     10274      9796
 -1      8512    6    0    1
 -2       893      6382       894      5610      6446      6447       901      5809      7407      5808
 -1      8513    6    0    1
 -2      5619       439       583       584      8617      4078      5714      5713      4122       618
 -1      8514    6    0    1
 -2      5141       657       304       658      5236      4071      9482      5235       692      4110
 -1      8515    6    0    1
 -2       724      6511      4355        49     10183     10297      4466      6215      6515     10353
 -1      8516    6    0    1
 -2        24      6368      5636      5660      6387      7325      5670      5667      7381      5672
 -1      8517    6    0    1
 -2      6511       973      4355        49      6516     10296     10297      6515       975     10353
 -1      8518    6    0    1
 -2        58       779       780      4369      6279       805      6282     10209      4526      4527
 -1      8519    6    0    1
 -2       568      4050      4047      5024      4124      4125      4086      5037     10256      9784
 -1      8520    6    0    1
 -2      6044      4046       642      4049      9779      4091      6058     10248      4239      4238
 -1      8521    6    0    1
 -2       663       299       662      5177      4100      4101       697      5250      7259      5251
 -1      8522    6    0    1
 -2       589      5655       588       434      5728      5729       623      4112      7605      4115
 -1      8523    6    0    1
 -2      1652      1517       318      6927      1930      1929      1927      9679      8497      7619
 -1      8524    6    0    1
 -2         5      5169       664       665      7266      5257      4059      4061      5256       699
 -1      8525    6    0    1
 -2         6       590      5647       591      4067      5735      7263      4068       625      5734
 -1      8526    6    0    1
 -2      4378      6784        66      1054     10087      6791     10309     10239      6792      1057
 -1      8527    6    0    1
 -2      4359        62      6869      1074     10318      6875      9945     10277      1077      6878
 -1      8528    6    0    1
 -2      6546      4326       983       984     10126     10269      6560      6561     10340       986
 -1      8529    6    0    1
 -2       300      5124       301       661      7209      7365       309      4103      5244      4104
 -1      8530    6    0    1
 -2       587      5602       436       435      5722      7366      4116      4117      7233       444
 -1      8531    6    0    1
 -2        31      1063      4329      6834      1065     10295     10342      6837      6840     10236
 -1      8532    6    0    1
 -2       568       567      4050      5024       570      4083      4124      5037      5038     10256
 -1      8533    6    0    1
 -2      6044       642       641      4049      6058       644      6059     10248      4238      4092
 -1      8534    6    0    1
 -2       314      1653      1043       315      1913      9505      9694       321      1914      9984
 -1      8535    6    0    1
 -2       449      2946       450      1044      3207      3206       456      9693      9501      9985
 -1      8536    6    0    1
 -2      4369       974      4350      4344     10123     10254      4627      4569      9986      4640
 -1      8537    6    0    1
 -2      2810      2945       453      6927      3222      3221      3223      8499      9686      7626
 -1      8538    6    0    1
 -2        10      6666      6114      4380     10019     10094     10156      4403     10147     10146
 -1      8539    6    0    1
 -2      4367      1064      4381      4371     10320     10306      4658      4603     10266      4555
 -1      8540    6    0    1
 -2        47      6545      4357       983      6549     10302     10313       985      6550     10303
 -1      8541    6    0    1
 -2      1619         4      1123       216      1716      1132      9364      1715       262      1133
 -1      8542    6    0    1
 -2        37       737       316       317      6172      4432     10348     10347      4431       323
 -1      8543    6    0    1
 -2        70       451       793       452     10350      4440      6331     10349       458      4441
 -1      8544    6    0    1
 -2      4319      4326      6546       984      4574     10126     10052     10298     10340      6561
 -1      8545    6    0    1
 -2      5153      6038       858       857      8811      6063      5310      5301      6062       862
 -1      8546    6    0    1
 -2      1033       317      6716        37      6949      9873      6720      1035     10347      6719
 -1      8547    6    0    1
 -2       452      6717        70      1034      9874      6722     10349      7142      6724      1037
 -1      8548    6    0    1
 -2      5660        24      6368       896      5667      6387      7381      5666       904      6388
 -1      8549    6    0    1
 -2      5177       663       299       298      5250      4100      7259      7093      4099       307
 -1      8550    6    0    1
 -2       433      5655       589       434      7252      5728      4113       442      7605      4112
 -1      8551    6    0    1
 -2       454      2945      1024       453      3220      9685     10018       460      3221      9878
 -1      8552    6    0    1
 -2       319      1652       318      1023      1928      1927       325      9813      9677      9877
 -1      8553    6    0    1
 -2       994      4361       993      6598     10276     10275       996      6607     10122      6608
 -1      8554    6    0    1
 -2      4334       726        28       725      4469      6132     10283      4468       751      6130
 -1      8555    6    0    1
 -2       983      4366      6563      4356     10293      9996      6574     10327      4611     10190
 -1      8556    6    0    1
 -2       974        58      6512      4369       977      6518      6520     10123     10209     10124
 -1      8557    6    0    1
 -2       884        26      5620      6041       889      5674      5673      6056      6055      9527
 -1      8558    6    0    1
 -2      5182      6367        23       872      9716      6384      5188      5189      6385       880
 -1      8559    6    0    1
 -2       984      4326       983      4356     10340     10269       986     10317      4575     10327
 -1      8560    6    0    1
 -2      4327      6853      1073      6851     10185      6867     10216     10281      6864      6856
 -1      8561    6    0    1
 -2      4330      6596        45       993     10191      6599     10341     10176      6602       995
 -1      8562    6    0    1
 -2      5631       881       882      6036      5779       886      5788      9487      6073      6072
 -1      8563    6    0    1
 -2      4344       973      4350      4355     10154     10304      4640      4572     10296      4641
 -1      8564    6    0    1
 -2      6664      1014      1013      4341      6675      1016      6676      9962      9961      9971
 -1      8565    6    0    1
 -2       314      1043        35       315      9694      1045     10354       321      9984     10338
 -1      8566    6    0    1
 -2       449       450        68      1044       456     10339     10355      9693      9985      1047
 -1      8567    6    0    1
 -2      5631       604       605      4055      5777       639      5776      9793      4232      4233
 -1      8568    6    0    1
 -2       792       451       793        70      4439      4440       818      6328     10350      6331
 -1      8569    6    0    1
 -2       736       737       316        37       762      4432      4429      6171      6172     10348
 -1      8570    6    0    1
 -2      2827      2926      2773      6886      3724      3420      3956     10356      9692      9524
 -1      8571    6    0    1
 -2       870      6379      5150       871      6420      8875      5334       878      6419      5333
 -1      8572    6    0    1
 -2       778       777      4336        56       803      4519      4518      6276      6277     10288
 -1      8573    6    0    1
 -2      5562      5592      5594      6943      5913      5912      5914      9531      9098      8303
 -1      8574    6    0    1
 -2       964      4368      4352      4364     10206      4633     10134     10260      4659      4646
 -1      8575    6    0    1
 -2       314       734       735        35      4386       760      4428     10354      6168      6166
 -1      8576    6    0    1
 -2       791       790       449        68       816      4395      4436      6325      6326     10355
 -1      8577    6    0    1
 -2       795       794       454        72       820      4444      4408      6336      6332     10351
 -1      8578    6    0    1
 -2       319       738       739        39      4434       764      4401     10352      6175      6178
 -1      8579    6    0    1
 -2        74      4379      1014      6665     10322     10243      1017      6671     10244      6674
 -1      8580    6    0    1
 -2      6836      4367      1064      1063     10324     10320      6845      6846     10316      1066
 -1      8581    6    0    1
 -2      4329      4377      1063      4353      4620     10294     10295      4491      4621     10242
 -1      8582    6    0    1
 -2      6564      4357      4366       983     10149      4585     10150      6568     10303     10293
 -1      8583    6    0    1
 -2      5123       849       848      5015      5302       853      5303      9358      5055      5056
 -1      8584    6    0    1
 -2      6512        58       780      4369      6518      6282     10129     10124     10209      4527
 -1      8585    6    0    1
 -2        64      6233       786      4381      6299      6308      6307     10265     10234      4554
 -1      8586    6    0    1
 -2       974      4350      4333      4369     10254      4626     10130     10123      4627      4530
 -1      8587    6    0    1
 -2       316      1033      6733        37      7332      6738      9913     10348      1035      6735
 -1      8588    6    0    1
 -2      6734       451        70      1034      9912     10350      6739      6742      6957      1037
 -1      8589    6    0    1
 -2      5133       662       299      5177      5247      4101      9252      5252      5251      7259
 -1      8590    6    0    1
 -2      5655      5611       588       434      5730      5725      5729      7605      9510      4115
 -1      8591    6    0    1
 -2       895       894      6380      5628       902      6452      6451      5811      5812      9204
 -1      8592    6    0    1
 -2      4380      6666        41      1013     10147      6667     10329     10250      6670      1015
 -1      8593    6    0    1
 -2      6529      4332       973        49     10282     10328      6534      6531     10357       975
 -1      8594    6    0    1
 -2      6236      4336       777      6562     10344      4519      6278     10224     10345     10358
 -1      8595    6    0    1
 -2      4332      4362       973      4355      4623     10268     10328      4467      4624     10296
 -1      8596    6    0    1
 -2        28      6107       726      6477      6125      6133      6132      6481     10222     10301
 -1      8597    6    0    1
 -2      6237       782      6478        60      6288     10336      9869      6286      6287      6484
 -1      8598    6    0    1
 -2      6236       777        56      6562      6278      6277      6272     10224     10358      6569
 -1      8599    6    0    1
 -2       728      1073      4327      4358     10290     10216      4481      4477     10252      4483
 -1      8600    6    0    1
 -2        72       794       454       453      6332      4444     10351     10310      4443       460
 -1      8601    6    0    1
 -2        39       319       738       318     10352      4434      6175     10311       325      4435
 -1      8602    6    0    1
 -2       784      6230        62      4328      6294      6293      6295      4545      9778     10319
 -1      8603    6    0    1
 -2      4359       784        62      4328      4541      6295     10318      4547      4545     10319
 -1      8604    6    0    1
 -2       730      4353      4329        31      4489      4491      4485      6149     10335     10342
 -1      8605    6    0    1
 -2        31      4329      6103      6834     10342     10100      6141      6837     10236     10114
 -1      8606    6    0    1
 -2      4330        45      6579       993     10341      6583     10175     10176       995      6584
 -1      8607    6    0    1
 -2       724      4332       723        49      4460      4461       749      6215     10357      6212
 -1      8608    6    0    1
 -2       724      4355      4332        49      4466      4467      4460      6215     10353     10357
 -1      8609    6    0    1
 -2      4322      4330      4361       993      4450      4593      4592     10119     10176     10275
 -1      8610    6    0    1
 -2        33      1053      4370      6800      1055     10128     10321      6803      6806     10189
 -1      8611    6    0    1
 -2      4346      4361       994      4375      4643     10276     10241      4514      4645     10172
 -1      8612    6    0    1
 -2      6232        64       786      4381      6305      6307      6306     10264     10265      4554
 -1      8613    6    0    1
 -2      1665       421      4668        12      1732      4673      9446      1731       426      4674
 -1      8614    6    0    1
 -2      6247      4382       776      6236     10035      4516      6348      6274     10076      6347
 -1      8615    6    0    1
 -2      4334       963        28      6477     10258       965     10283     10326      6483      6481
 -1      8616    6    0    1
 -2         3       122      2912      1123       168      3008      3009      1130      1129      9362
 -1      8617    6    0    1
 -2       730      6102      4353        31      6148     10164      4489      6149      6147     10335
 -1      8618    6    0    1
 -2      1633      1534      1480      6886      2432      2663      2127     10360     10359      9523
 -1      8619    6    0    1
 -2        47      4357       722       721     10313      4454      6209      6210      4455       747
 -1      8620    6    0    1
 -2      6666        41      6114      6111      6667      6180     10094     10145      6188      6189
 -1      8621    6    0    1
 -2        74      6244      6241      6665      6338      6345      6344      6671     10093     10337
 -1      8622    6    0    1
 -2      6243      6246      6869        62      6298      9723      9944      6297      6289      6875
 -1      8623    6    0    1
 -2      6113      6868      6116        29     10346      9862      6140      6139      6871      6127
 -1      8624    6    0    1
 -2      6245      6240      6784        66      6320     10085     10086      6315      6318      6791
 -1      8625    6    0    1
 -2      6117        45      6579      6112      6199      6583     10025      6204      6203     10026
 -1      8626    6    0    1
 -2      6115      6110        33      6783      6162      6161      6157     10095     10016      6787
 -1      8627    6    0    1
 -2      6242      6247        54      6581      6271      6266      6269      9807      9808      6587
 -1      8628    6    0    1
 -2      4345      4363      4328      1074      4615      4619      4618     10121     10221     10308
 -1      8629    6    0    1
 -2      5641       436       437       586      9076       445      9739      5719      4119      4118
 -1      8630    6    0    1
 -2       301       660      5163       302      4105      5241      9303       310      4106      9871
 -1      8631    6    0    1
 -2       289         3      2947      1391       291      3011      3010      1394      1393      9629
 -1      8632    6    0    1
 -2        35       735       314       315      6166      4428     10354     10338      4427       321
 -1      8633    6    0    1
 -2        68       449       791       450     10355      4436      6325     10339       456      4437
 -1      8634    6    0    1
 -2      4356       984      4336      6562     10317     10287      4580     10198      6572     10345
 -1      8635    6    0    1
 -2       734      6108        35      6767      6169      6163      6168     10361     10229      6769
 -1      8636    6    0    1
 -2       790      6768        68      6238     10362      6774      6326      6327     10166      6321
 -1      8637    6    0    1
 -2       739      6109      6682        39      6179     10168     10363      6178      6177      6685
 -1      8638    6    0    1
 -2      6239        72       795      6683      6335      6336      6337     10227      6689     10364
 -1      8639    6    0    1
 -2      4367      4381      1064      4351      4658     10306     10320      4649      4553     10233
 -1      8640    6    0    1
 -2        56      4336       984      6562     10288     10287       987      6569     10345      6572
 -1      8641    6    0    1
 -2      4334        28       726      6477     10283      6132      4469     10326      6481     10301
 -1      8642    6    0    1
 -2      6099       732      4370        33      6158      4391     10334      6151      6159     10321
 -1      8643    6    0    1
 -2      4345      4328      4359      1074      4618      4547      4617     10121     10308     10277
 -1      8644    6    0    1
 -2      6110      4370       732        33     10039      4391      6160      6161     10321      6159
 -1      8645    6    0    1
 -2        16       556      4669      2958       561      4680      4679      3025      3024      9455
 -1      8646    6    0    1
 -2      4367      6819      1064      1063     10257      6833     10320     10316      6832      1066
 -1      8647    6    0    1
 -2      1054      4373      6785      1053     10068     10178      6798      1056     10199      6799
 -1      8648    6    0    1
 -2      4356      4336      4382      6562      4580      4520      4634     10198     10345     10300
 -1      8649    6    0    1
 -2       983      4326      4366      4356     10269      4610     10293     10327      4575      4611
 -1      8650    6    0    1
 -2       314        35      1043      6767     10354      1045      9694      9803      6769      6772
 -1      8651    6    0    1
 -2       449        68      6768      1044     10355      6774     10170      9693      1047      6776
 -1      8652    6    0    1
 -2        39      6682       319      1023      6685     10148     10352      1025      6686      9813
 -1      8653    6    0    1
 -2      6683      1024        72       454      6690      1027      6689      9797     10018     10351
 -1      8654    6    0    1
 -2      4355       973      4332        49     10296     10328      4467     10353       975     10357
 -1      8655    6    0    1
 -2         4      1390       284      1654      1395      1397       286      1717      9637      1718
 -1      8656    6    0    1
 -2        47      4357      6564       983     10313     10149      6565       985     10303      6568
 -1      8657    6    0    1
 -2       660       659      5163       302       694      5242      5241      4106      4107      9871
 -1      8658    6    0    1
 -2      5641       437       585       586      9739      4121      5720      5719      4118       620
 -1      8659    6    0    1
 -2      6698       738       318        39     10331      4435      9976      6701      6175     10311
 -1      8660    6    0    1
 -2      6699        72       453       794      6705     10310      9979     10330      6332      4443
 -1      8661    6    0    1
 -2       729      4329      4372      6103      4484      4487      4486      6145     10100     10113
 -1      8662    6    0    1
 -2      4336       777      4382      6236      4519      4515      4520     10344      6278     10076
 -1      8663    6    0    1
 -2       314      6108       734      6767     10284      6169      4386      9803     10229     10361
 -1      8664    6    0    1
 -2       790       449      6768      6238      4395     10170     10362      6327     10271     10166
 -1      8665    6    0    1
 -2      6683       795      6239       454     10364      6337     10227      9797      4408     10272
 -1      8666    6    0    1
 -2      6682       319      6109       739     10148     10273     10168     10363      4401      6179
 -1      8667    6    0    1
 -2      5019       568      4047      5024      5028      4086      9668      5040      5037      9784
 -1      8668    6    0    1
 -2        56       777      4336      6562      6277      4519     10288      6569     10358     10345
 -1      8669    6    0    1
 -2      4377      4367      1063      4353      4605     10316     10294      4621      4653     10242
 -1      8670    6    0    1
 -2       796      6241      6244        14      6356      6345      6357      4410     10365     10160
 -1      8671    6    0    1
 -2        54      4346       775      6242     10314      4513      6267      6269      9805      6270
 -1      8672    6    0    1
 -2       642      6042      4046      6044      6047      9702      4091      6058      6061      9779
 -1      8673    6    0    1
 -2       732      4370      4354      6099      4391      4495      4493      6158     10334      9726
 -1      8674    6    0    1
 -2      6529       723      4332        49     10238      4461     10282      6531      6212     10357
 -1      8675    6    0    1
 -2       315      6749        35       735     10054      6753     10338      4427     10333      6166
 -1      8676    6    0    1
 -2       450       791        68      6751      4437      6325     10339     10058     10332      6757
 -1      8677    6    0    1
 -2       733         7      6110      6115      4389      9838      6222      6224     10212      6162
 -1      8678    6    0    1
 -2      5170       869       868      6377      5327       876      5328      7158      6410      6409
 -1      8679    6    0    1
 -2       893      5648       892      6378      5805      5806       900      6442     10366      6441
 -1      8680    6    0    1
 -2      6245         8       789      6238     10161      4396      6354      6323     10163      6353
 -1      8681    6    0    1
 -2        10      6114      6109       740     10156      6182     10157      4402      6227      6225
 -1      8682    6    0    1
 -2       796      6244      6239        14      6357      6340      6355      4410     10160     10159
 -1      8683    6    0    1
 -2       317       737      6716        37      4431     10142      9873     10347      6172      6719
 -1      8684    6    0    1
 -2       452        70      6717       793     10349      6722      9874      4441      6331     10141
 -1      8685    6    0    1
 -2       797      6241      4379        74      6343      9810      4561      6342      6344     10322
 -1      8686    6    0    1
 -2       741      6111        41      4380      6187      6188      6186      4496      9820     10329
 -1      8687    6    0    1
 -2       733      6108         7      6115      6223     10211      4389      6224      6165     10212
 -1      8688    6    0    1
 -2      4326      4366      4357       983      4610      4585      4607     10269     10293     10303
 -1      8689    6    0    1
 -2       788      6240        66      4378      6319      6318      6316      4559      9744     10309
 -1      8690    6    0    1
 -2        37      6733       316       736      6735      9913     10348      6171     10231      4429
 -1      8691    6    0    1
 -2       451        70       792      6734     10350      6328      4439      9912      6739     10232
 -1      8692    6    0    1
 -2       314       734        35      6767      4386      6168     10354      9803     10361      6769
 -1      8693    6    0    1
 -2       449      6768        68       790     10170      6774     10355      4395     10362      6326
 -1      8694    6    0    1
 -2      6683        72       795       454      6689      6336     10364      9797     10351      4408
 -1      8695    6    0    1
 -2       739      6682       319        39     10363     10148      4401      6178      6685     10352
 -1      8696    6    0    1
 -2       796      4379      6241        14      4411      9810      6356      4410      4412     10365
 -1      8697    6    0    1
 -2      6117      4320      6106       720     10024     10139      6207      6218      4452      6217
 -1      8698    6    0    1
 -2       727      6116      6113      4358      6221      6140      6220      4476     10046      9848
 -1      8699    6    0    1
 -2       567      5020      4050      5024      5025     10255      4083      5038      5039     10256
 -1      8700    6    0    1
 -2       784        62      6243      4359      6295      6297      6296      4541     10318      9718
 -1      8701    6    0    1
 -2      6044       641      6043      4049      6059      6049      6060     10248      4092     10249
 -1      8702    6    0    1
 -2       719        45      6112      4330      6201      6203      6202      4449     10341      9831
 -1      8703    6    0    1
 -2       730      4329      6103        31      4485     10100      6150      6149     10342      6141
 -1      8704    6    0    1
 -2      1633      2827      1534      6886      8341      8042      2432     10360     10356     10359
 -1      8705    6    0    1
 -2      1633      2926      2827      6886      7937      3724      8341     10360      9692     10356
 -1      8706    6    0    1
 -2      2854      2736      1443      6887      3707      8241      8338      7709     10278     10323
 -1      8707    6    0    1
 -2      1541      2736      2834      6887      7676      3708      7456      7457     10278      7458
 -1      8708    6    0    1
 -2      1541      1443      2736      6887      2415      8241      7676      7457     10323     10278
 -1      8709    6    0    1
 -2      1561      2854      1443      6887      7711      8338      2413      7710      7709     10323
 -1      8710    6    0    1
 -2      2827      2773      1534      6886      3956      9426      8042     10356      9524     10359
 -1      8711    6    0    1
 -2      1480      1534      2773      6886      2663      9426      9522      9523     10359      9524
 -1      8712    6    0    1
 -2      5145      6921      5176      6891      7766      8191      5530      7470      7768      7469
 -1      8713    6    0    1
 -2      5176      6921      5145      5115      8191      7766      5530      5413      8645      5225
 -1      8714    6    0    1
 -2      4048      6898      5121      5125      8216      7353      8062      8217      7354      5264
 -1      8715    6    0    1
 -2      5121      6898      4048      6894      7353      8216      8062      8064      7181      8059
 -1      8716    6    0    1
 -2      4048      5599      6898      5603      8058      7180      8216      8213      5742      7356
 -1      8717    6    0    1
 -2      5599      4048      6898      6894      8058      8216      7180      7178      8059      7181
 -1      8718    6    0    1
 -2      6899      6917      5572      6896      7054      7515      7442      7386      7516      7440
 -1      8719    6    0    1
 -2      5572      6917      6899      5652      7515      7054      7442      5985      7220      7219
 -1      8720    6    0    1
 -2      6374      6918      6890      6362      8037      7188      7152      6471      7218      7217
 -1      8721    6    0    1
 -2      6890      6918      6374      6909      7188      8037      7152      7154      7187      7153
 -1      8722    6    0    1
 -2      5636       835      6918      6365      7123      7527     10367      7324      6396      8038
 -1      8723    6    0    1
 -2      6918       835      5636      6936      7527      7123     10367      7529      7124      7125
 -1      8724    6    0    1
 -2      6918      5660      5636      6365     10368      5672     10367      8038      7380      7324
 -1      8725    6    0    1
 -2      5636      5660      6918      6936      5672     10368     10367      7125      8762      7529
 -1      8726    6    0    1
 -2       835      6906       834      5023      8203      8212       837      5041      8384      5042
 -1      8727    6    0    1
 -2       834      6906       835      6892      8212      8203       837      7942      7424      7121
 -1      8728    6    0    1
 -2      5609      6909      5653      5558      7452      6963      5869      5862      7563      5870
 -1      8729    6    0    1
 -2      5653      6909      5609      6891      6963      7452      5869      6961      6962      7453
 -1      8730    6    0    1
 -2      6904      6926      5639      6899      7754      7043     10369      7637      7042      7041
 -1      8731    6    0    1
 -2      5639      6926      6904      5570      7043      7754     10369      5978      7308      9332
 -1      8732    6    0    1
 -2      5639      5608      6904      6899      5877      8187     10369      7041      7443      7637
 -1      8733    6    0    1
 -2      6904      5608      5639      5570      8187      5877     10369      9332      5977      5978
 -1      8734    6    0    1
 -2      2862      1461      6934      2754     10370      7040      8647      3861      7036      7039
 -1      8735    6    0    1
 -2      1461      2862      6934      1569     10370      8647      7040      2568      8944      8646
 -1      8736    6    0    1
 -2      1461      2862      2884      2754     10370      3029      7647      7036      3861      3860
 -1      8737    6    0    1
 -2      2862      1461      2884      1569     10370      7647      3029      8944      2568      8314
 -1      8738    6    0    1
 -2       893      6378      6942      5648      6442      9453     10371      5805     10366      9747
 -1      8739    6    0    1
 -2      6942      6378       893      6915      9453      6442     10371      7161      9052      7409
 -1      8740    6    0    1
 -2      6942      5610       893      5648      9748      5809     10371      9747      5810      5805
 -1      8741    6    0    1
 -2       893      5610      6942      6915      5809      9748     10371      7409      7410      7161
 -1      8742    6    0    1
 -2      5119      6925      6932      6039      8639      9223      9681      8637      8641      9218
 -1      8743    6    0    1
 -2      6925      5119      6932      6911      8639      9681      9223      7745      8761      8572
 -1      8744    6    0    1
 -2      6929      5566      6905      5632      6999      8505      8688      7281      5951      8706
 -1      8745    6    0    1
 -2      5566      6929      6905      6888      6999      8688      8505      6997      6998      8506
 -1      8746    6    0    1
 -2      6374      6909      5660      5605      7153      7473      9969      7150      7155      5819
 -1      8747    6    0    1
 -2      5617      6914      5556      5598      8100      7501      5843      5841      8166      5842
 -1      8748    6    0    1
 -2      5556      6914      5617      6907      7501      8100      5843      7499      7500      8098
 -1      8749    6    0    1
 -2      4664      1504      2954      1661      9959      7841      8405      8754      2078      7843
 -1      8750    6    0    1
 -2      2954      1504      4664      6931      7841      9959      8405      8409      9325      8408
 -1      8751    6    0    1
 -2      1433      2954      6931      1504      7842      8409      8698      2315      7841      9325
 -1      8752    6    0    1
 -2      5643      6945      5586      5658     10372      9210      5804      5990      8225      6032
 -1      8753    6    0    1
 -2      6945      5643      5586      6896     10372      5804      9210      7464      7648      9152
 -1      8754    6    0    1
 -2      6945      5643      5572      5658     10372      5988      7646      8225      5990      5986
 -1      8755    6    0    1
 -2      5643      6945      5572      6896     10372      7646      5988      7648      7464      7440
 -1      8756    6    0    1
 -2      2954      6931      2726      1433      8409      8122      3604      7842      8698      8696
 -1      8757    6    0    1
 -2      2726      6931      2954      2797      8122      8409      3604      3609      8407      3371
 -1      8758    6    0    1
 -2      6904      6938      5092      5156      7763      9129      7752      9331      9513      5497
 -1      8759    6    0    1
 -2      5092      6938      6904      6926      9129      7763      7752      7229      8325      7754
 -1      8760    6    0    1
 -2      1484      1420      2948      1655      2130      8486      8481      2131      2132      7973
 -1      8761    6    0    1
 -2      1420      1484      2948      6903      2130      8481      8486      9745      8482      8483
 -1      8762    6    0    1
 -2      5120      5147      6890      5090      5367      9532      8787      5483      5484      8786
 -1      8763    6    0    1
 -2      6890      5147      5120      6935      9532      5367      8787      8111      9738      8671
 -1      8764    6    0    1
 -2      4013      6923      5126      5136      8614      8700      9499      9743      9380      5213
 -1      8765    6    0    1
 -2      5126      6923      4013      6913      8700      8614      9499      8699      7968      8612
 -1      8766    6    0    1
 -2      2926      2855      1420      1562      3429      8487     10373      7935      7466      2137
 -1      8767    6    0    1
 -2      1420      2855      2926      6903      8487      3429     10373      9745      9029      9030
 -1      8768    6    0    1
 -2      1420      1633      2926      1562      2126      7937     10373      2137      2136      7935
 -1      8769    6    0    1
 -2      6898      6937      5121      5085      7727      9546      7353      7355      9468      5449
 -1      8770    6    0    1
 -2      5121      6937      6898      6894      9546      7727      7353      8064      8322      7181
 -1      8771    6    0    1
 -2      6919      5619      6920       439      8210      9387      8920      7699      8617      9155
 -1      8772    6    0    1
 -2      5619      6919      6920      6901      8210      8920      9387      8208      7898      8593
 -1      8773    6    0    1
 -2      5183      6918      5107      5158      7579      8818      5410      5523      8819      5191
 -1      8774    6    0    1
 -2      5107      6918      5183      6892      8818      7579      5410      7774      7528      7164
 -1      8775    6    0    1
 -2      6945      6928      6944      6896      8692      7244      9430      7464      7102      7243
 -1      8776    6    0    1
 -2      6928      6945      6944      6888      8692      9430      7244      6995      7134      7274
 -1      8777    6    0    1
 -2      4007      6933      5159      4027      9437      8087     10374      4206      8085      8083
 -1      8778    6    0    1
 -2      5159      6933      4007      5110      8087      9437     10374      5282      8156      9875
 -1      8779    6    0    1
 -2      5159       672      4007      4027      5281      4287     10374      8083      4291      4206
 -1      8780    6    0    1
 -2      4007       672      5159      5110      4287      5281     10374      9875      5277      5282
 -1      8781    6    0    1
 -2        23      5022      5107      5173      5032      8914      5190      5187      9112      5193
 -1      8782    6    0    1
 -2      5107      5022        23       834      8914      5032      5190      8211      5031       836
 -1      8783    6    0    1
 -2      5597      6932      6925      6037      9373      9223      9457      9667      9219      9222
 -1      8784    6    0    1
 -2      6925      6932      5597      6911      9223      9373      9457      7745      8572      9372
 -1      8785    6    0    1
 -2      5615      6933      4035      4012      7058      7486      9142      9611      9612      4195
 -1      8786    6    0    1
 -2      4035      6933      5615      6926      7486      7058      9142      7484      7045      7057
 -1      8787    6    0    1
 -2       905      6932       906      6045      9414      9378       908      6080      9379      6081
 -1      8788    6    0    1
 -2       906      6932       905      6895      9378      9414       908      9097      8570      9365
 -1      8789    6    0    1
 -2      5106      6369      6917      5135      9670      9775      9369      5199      9709      9166
 -1      8790    6    0    1
 -2      6369      5106      6917       905      9670      9369      9775      6391      9367      9368
 -1      8791    6    0    1
 -2       366      1521      4720      1680      2039      8725      4868      2041      2043      8675
 -1      8792    6    0    1
 -2      4720      1521       366      4741      8725      2039      4868      4869      9276      4864
 -1      8793    6    0    1
 -2       501      2814      4720      4741      3331      9272      4963      4962      9277      4869
 -1      8794    6    0    1
 -2      4720      2814       501      2973      9272      3331      4963      8588      3336      3335
 -1      8795    6    0    1
 -2      5018      6946      5015      5014      9251      8667      5069      5053      9280      5075
 -1      8796    6    0    1
 -2      5015      6946      5018      6913      8667      9251      5069      8666      8290      9249
 -1      8797    6    0    1
 -2       121      2801      1111      2986      3159      9281      1261      3155      3160      8387
 -1      8798    6    0    1
 -2      2801       121      1111      1112      3159      1261      9281      9374      1263      1265
 -1      8799    6    0    1
 -2       215      1508      1111      1112      1865      8462      1351      1354      9375      1265
 -1      8800    6    0    1
 -2      1111      1508       215      1693      8462      1865      1351      8389      1867      1863
 -1      8801    6    0    1
 -2      5620      6932      5561      5597      9541      8571      5901      5796      9373      5906
 -1      8802    6    0    1
 -2      5561      6932      5620      6895      8571      9541      5901      8569      8570      9529
 -1      8803    6    0    1
 -2      5147      6940      6890      5150      9725      8879      9532      5489      8880      8876
 -1      8804    6    0    1
 -2      2855      6903      2948      2713      9029      8483      3431      3430      9028      3425
 -1      8805    6    0    1
 -2      2948      6903      2855      1420      8483      9029      3431      8486      9745      8487
 -1      8806    6    0    1
 -2       474      2813      4721      4729      3250      8298      4909      4908      8334      4788
 -1      8807    6    0    1
 -2      4721      2813       474      2992      8298      3250      4909      8299      3255      3254
 -1      8808    6    0    1
 -2      2813      1699      4729      1520      8206      9655      8334      8333      1962      8332
 -1      8809    6    0    1
 -2      1699      2813      4729      4721      8206      8334      9655      8297      8298      4788
 -1      8810    6    0    1
 -2       498      2807      4740      4747      3322      9207      4957      4956      9135      4860
 -1      8811    6    0    1
 -2      4740      2807       498      2976      9207      3322      4957      8607      3327      3326
 -1      8812    6    0    1
 -2       363      4740      1514      4747      4859      8604      2030      4855      4860      9133
 -1      8813    6    0    1
 -2      1514      4740       363      1683      8604      4859      2030      2034      8605      2032
 -1      8814    6    0    1
 -2      6043      4022      6038      6034      9955      9370      6064      6094      9371      6092
 -1      8815    6    0    1
 -2      6038      4022      6043      5153      9370      9955      6064      8811      9476     10201
 -1      8816    6    0    1
 -2      6939      6941      4028      6891      9247      9151     10375      7432      7861      7764
 -1      8817    6    0    1
 -2      4028      6941      6939      4008      9151      9247     10375      4163      9794      9735
 -1      8818    6    0    1
 -2      4028      5145      6939      6891      7765      8538     10375      7764      7470      7432
 -1      8819    6    0    1
 -2      6939      5145      4028      4008      8538      7765     10375      9735      9733      4163
 -1      8820    6    0    1
 -2       342      1519      4732      1695      1967      8381      4796      1969      1971      8382
 -1      8821    6    0    1
 -2      1519       342      4732      4731      1967      4796      8381      8425      4792      4797
 -1      8822    6    0    1
 -2       477      2812      4732      4731      3259      9174      4915      4914      8427      4797
 -1      8823    6    0    1
 -2      4732      2812       477      2988      9174      3259      4915      8380      3264      3263
 -1      8824    6    0    1
 -2       495      2806      4749      4726      3313      9214      4951      4950      8936      4851
 -1      8825    6    0    1
 -2      4749      2806       495      2977      9214      3313      4951      8518      3318      3317
 -1      8826    6    0    1
 -2       360      1513      4749      1684      2021      8516      4850      2023      2025      8517
 -1      8827    6    0    1
 -2      1513       360      4749      4726      2021      4850      8516      8934      4846      4851
 -1      8828    6    0    1
 -2      2825      1696      1107      1106      8001      9565      8869      8151      8135      1247
 -1      8829    6    0    1
 -2      1107      1696      2825      1532      9565      8001      8869      8870      1849      8710
 -1      8830    6    0    1
 -2       115      2825      1106      2989      3141      8151      1243      3137      3142      8134
 -1      8831    6    0    1
 -2      2825       115      1106      1107      3141      1243      8151      8869      1245      1247
 -1      8832    6    0    1
 -2      4734      2984      1515      2808      9659      8683      8445      8447      3282      8446
 -1      8833    6    0    1
 -2      2984      1691      4734      1515      8546      9658      9659      8683      1989      8445
 -1      8834    6    0    1
 -2      1691      2984      4734      4723      8546      9659      9658      8543      8547      4815
 -1      8835    6    0    1
 -2      5657      6923      4005      6921      8830      9257      9980      8829      7557      9254
 -1      8836    6    0    1
 -2      4005      6923      5657      4029      9257      8830      9980      4152      9338      9337
 -1      8837    6    0    1
 -2      5656      6938      4045      4021      7339      8436      8742      9334      9335      4180
 -1      8838    6    0    1
 -2      4045      6938      5656      6898      8436      7339      8742      8434      7340      7337
 -1      8839    6    0    1
 -2       480      2811      4714      4733      3268      9230      4921      4920      8399      4806
 -1      8840    6    0    1
 -2      4714      2811       480      2985      9230      3268      4921      8376      3273      3272
 -1      8841    6    0    1
 -2       345      4714      1518      4733      4805      8372      1976      4801      4806      8397
 -1      8842    6    0    1
 -2      4714       345      1518      1692      4805      1976      8372      8373      1978      1980
 -1      8843    6    0    1
 -2       492      2804      4725      4752      3304      8431      4945      4944      8781      4842
 -1      8844    6    0    1
 -2      2804       492      4725      2979      3304      4945      8431      3309      3308      8433
 -1      8845    6    0    1
 -2       357      1511      4725      1686      2012      9165      4841      2014      2016      8432
 -1      8846    6    0    1
 -2      1511       357      4725      4752      2012      4841      9165      8779      4837      4842
 -1      8847    6    0    1
 -2      6940      6890      6935      5147      8879      8111      9036      9725      9532      9738
 -1      8848    6    0    1
 -2      6890      6940      6935      6908      8879      9036      8111      8110      7422      8112
 -1      8849    6    0    1
 -2       100      2823      1098      2997      3096      9090      1198      3092      3097      8093
 -1      8850    6    0    1
 -2      2823       100      1098      1099      3096      1198      9090      8138      1200      1202
 -1      8851    6    0    1
 -2       194      1530      1098      1099      1802      8094      1309      1312      8140      1202
 -1      8852    6    0    1
 -2      1098      1530       194      1704      8094      1802      1309      8095      1804      1800
 -1      8853    6    0    1
 -2       114      2864      1106      1120      3134      9145      1242      1240      8847      1244
 -1      8854    6    0    1
 -2      2864       114      1106      2989      3134      1242      9145      3139      3138      8134
 -1      8855    6    0    1
 -2       208      1106      1571      1120      1340      8136      1842      1337      1244      8848
 -1      8856    6    0    1
 -2      1106       208      1571      1696      1340      1842      8136      8135      1844      1846
 -1      8857    6    0    1
 -2      5647      1359      6894       432     10376      7009      7020      7025      7008      7010
 -1      8858    6    0    1
 -2      1359      5647      6894       272     10376      7020      7009      1367      7262      7265
 -1      8859    6    0    1
 -2      1359      5647         6       432     10376      7263      1368      7008      7025       440
 -1      8860    6    0    1
 -2      5647      1359         6       272     10376      1368      7263      7262      1367       273
 -1      8861    6    0    1
 -2      5169      1359         5       297     10377      1366      7266      7024      7014       305
 -1      8862    6    0    1
 -2      1359      5169         5       272     10377      7266      1366      1367      7267       274
 -1      8863    6    0    1
 -2      1359      5169      6894       297     10377      7017      7009      7014      7024      7013
 -1      8864    6    0    1
 -2      5169      1359      6894       272     10377      7009      7017      7267      1367      7265
 -1      8865    6    0    1
 -2       191      1096      1533      1705      1303      9100      1793      1791      8107      1795
 -1      8866    6    0    1
 -2      1096       191      1533      1116      1303      1793      9100      1193      1306      8126
 -1      8867    6    0    1
 -2        97      2826      1096      2998      3087      8109      1189      3083      3088      8108
 -1      8868    6    0    1
 -2      2826        97      1096      1116      3087      1189      8109      8124      1191      1193
 -1      8869    6    0    1
 -2        94      2828      1087      3000      3078      9104      1180      3074      3079      8105
 -1      8870    6    0    1
 -2      2828        94      1087      1085      3078      1180      9104      8088      1182      1184
 -1      8871    6    0    1
 -2       188      1535      1087      1085      1784      8104      1297      1300      8090      1184
 -1      8872    6    0    1
 -2      1087      1535       188      1707      8104      1784      1297      8106      1786      1782
 -1      8873    6    0    1
 -2       179      1553      1092      1114      1757      8304      1279      1282      8235      1157
 -1      8874    6    0    1
 -2      1092      1553       179      1685      8304      1757      1279      7801      1759      1755
 -1      8875    6    0    1
 -2      1553      2978      1114      2846      7728      9549      8235      8234      3052      8233
 -1      8876    6    0    1
 -2      2978      1553      1114      1092      7728      8235      9549      7799      8304      1157
 -1      8877    6    0    1
 -2        91      2830      1081      3001      3069      9109      1171      3065      3070      8101
 -1      8878    6    0    1
 -2      2830        91      1081      1083      3069      1171      9109      8068      1173      1175
 -1      8879    6    0    1
 -2       185      1537      1081      1083      1775      8102      1291      1294      8070      1175
 -1      8880    6    0    1
 -2      1081      1537       185      1708      8102      1775      1291      8103      1777      1773
 -1      8881    6    0    1
 -2      2815      1702      4728      1522      7892      9610      8695      7864      1953      8248
 -1      8882    6    0    1
 -2      1702      2995      4728      4713      7894      9609      9610      8159      8162      4779
 -1      8883    6    0    1
 -2      4728      2995      1702      2815      9609      7894      9610      8695      3246      7892
 -1      8884    6    0    1
 -2      1525      2990      1105      2818      8029      9649      8148      8147      3133      8146
 -1      8885    6    0    1
 -2      2990      1525      1105      1119      8029      8148      9649      8026      8030      1238
 -1      8886    6    0    1
 -2       206      1525      1119      1105      1838      8030      1333      1336      8148      1238
 -1      8887    6    0    1
 -2      1119      1525       206      1697      8030      1838      1333      8027      1840      1836
 -1      8888    6    0    1
 -2      1526      2993      1078      2819      8021      9652      9763      9095      3124      9762
 -1      8889    6    0    1
 -2      2993      1526      1078      1079      8021      9763      9652      8018      8022      1229
 -1      8890    6    0    1
 -2       203      1526      1079      1078      1829      8022      1327      1330      9763      1229
 -1      8891    6    0    1
 -2      1079      1526       203      1700      8022      1829      1327      8019      1831      1827
 -1      8892    6    0    1
 -2       106      2820      1103      2994      3114      9038      1216      3110      3115      8013
 -1      8893    6    0    1
 -2      2820       106      1103      1118      3114      1216      9038      8180      1218      1220
 -1      8894    6    0    1
 -2       200      1527      1103      1118      1820      8015      1321      1324      8182      1220
 -1      8895    6    0    1
 -2      1103      1527       200      1701      8015      1820      1321      8016      1822      1818
 -1      8896    6    0    1
 -2       103      2821      1101      2996      3105      9037      1207      3101      3106      7990
 -1      8897    6    0    1
 -2      2821       103      1101      1117      3105      1207      9037      8167      1209      1211
 -1      8898    6    0    1
 -2       197      1528      1101      1117      1811      7992      1315      1318      8169      1211
 -1      8899    6    0    1
 -2      1101      1528       197      1703      7992      1811      1315      7993      1813      1809
 -1      8900    6    0    1
 -2      5179      6923       651      5105      9256      9687      5216      5219      7951      5217
 -1      8901    6    0    1
 -2       651      6923      5179      4029      9687      9256      5216      4258      9338      9593
 -1      8902    6    0    1
 -2       184      1081      1552      1082      1292      8177      1770      1289      1172      8888
 -1      8903    6    0    1
 -2      1081       184      1552      1708      1292      1770      8177      8103      1772      1774
 -1      8904    6    0    1
 -2        90      2845      1081      1082      3062      9122      1170      1168      8887      1172
 -1      8905    6    0    1
 -2      2845        90      1081      3001      3062      1170      9122      3067      3066      8101
 -1      8906    6    0    1
 -2      1556      1084      3000      2849      8867      9590      7817      8712      8868      3076
 -1      8907    6    0    1
 -2      3000      1084      1707      1087      9590      9589      7790      8105      1181      8106
 -1      8908    6    0    1
 -2      1084      3000      1707      1556      9590      7790      9589      8867      7817      1783
 -1      8909    6    0    1
 -2       120      1111      2824      2986      1260      8388      3152      3156      8387      3157
 -1      8910    6    0    1
 -2      2824      1111       120      1110      8388      1260      3152      8004      1262      1258
 -1      8911    6    0    1
 -2      2824      1110      1693      1111      8004      9607      7986      8388      1262      8389
 -1      8912    6    0    1
 -2      1110      2824      1693      1531      8004      7986      9607      8006      8007      1864
 -1      8913    6    0    1
 -2        96      1096      2852      2998      1188      8193      3080      3084      8108      3085
 -1      8914    6    0    1
 -2      2852      1096        96      1095      8193      1188      3080      8865      1190      1186
 -1      8915    6    0    1
 -2       190      1559      1096      1705      1788      9121      1304      1790      1792      8107
 -1      8916    6    0    1
 -2      1096      1559       190      1095      9121      1788      1304      1190      8866      1301
 -1      8917    6    0    1
 -2        79      1086      2884      2991      1137      7552      3027      3031      7401      3032
 -1      8918    6    0    1
 -2      1086        79      2884      1088      1137      3027      7552      1139      1135      8881
 -1      8919    6    0    1
 -2       193      1098      1564      1097      1310      8204      1797      1307      1199      8864
 -1      8920    6    0    1
 -2      1098       193      1564      1704      1310      1797      8204      8095      1799      1801
 -1      8921    6    0    1
 -2        99      1098      2857      2997      1197      9125      3089      3093      8093      3094
 -1      8922    6    0    1
 -2      2857      1098        99      1097      9125      1197      3089      8863      1199      1195
 -1      8923    6    0    1
 -2      1534      1121      2987      2827      8043      9654      9107      8042      8044      3148
 -1      8924    6    0    1
 -2      2987      1694      1121      1534      8011      9653      9654      9107      1855      8043
 -1      8925    6    0    1
 -2      1121      1694      2987      1108      9653      8011      9654      1253      8012      8010
 -1      8926    6    0    1
 -2      6946      5122      5012      4023      9418      9425      8751      9270      9422      9269
 -1      8927    6    0    1
 -2      5122      6946      5012      5016      9418      8751      9425      9608      9567      5065
 -1      8928    6    0    1
 -2       173      1086      1591      1088      1270      8652      1735      1267      1139      8884
 -1      8929    6    0    1
 -2      1086       173      1591      1698      1270      1735      8652      7403      1737      1739
 -1      8930    6    0    1
 -2      1509      2980      4715      4751      8330      9666      8511      8326      8329      4833
 -1      8931    6    0    1
 -2      4715      2980      1509      2802      9666      8330      8511      8513      3300      8515
 -1      8932    6    0    1
 -2       354      4751      1509      4715      4832      8326      2003      4828      4833      8511
 -1      8933    6    0    1
 -2      1509      4751       354      1687      8326      4832      2003      2007      8327      2005
 -1      8934    6    0    1
 -2      2859      1100      1703      1101      8851      9633      8133      8132      1208      7993
 -1      8935    6    0    1
 -2      1100      2859      1703      1566      8851      8133      9633      8850      8709      1810
 -1      8936    6    0    1
 -2       102      1101      2859      2996      1206      8132      3098      3102      7990      3103
 -1      8937    6    0    1
 -2      2859      1101       102      1100      8132      1206      3098      8851      1208      1204
 -1      8938    6    0    1
 -2       212      1529      1108      1109      1856      8009      1345      1348      8901      1256
 -1      8939    6    0    1
 -2      1529       212      1108      1694      1856      1345      8009      1858      1854      8012
 -1      8940    6    0    1
 -2       118      2822      1108      2987      3150      9043      1252      3146      3151      8010
 -1      8941    6    0    1
 -2      2822       118      1108      1109      3150      1252      9043      8902      1254      1256
 -1      8942    6    0    1
 -2        88      2832      1115      3002      3060      8975      1162      3056      3061      7885
 -1      8943    6    0    1
 -2      2832        88      1115      1094      3060      1162      8975      8053      1164      1166
 -1      8944    6    0    1
 -2       182      1539      1115      1094      1766      7886      1285      1288      8055      1166
 -1      8945    6    0    1
 -2      1115      1539       182      1709      7886      1766      1285      7887      1768      1764
 -1      8946    6    0    1
 -2      2860      1102      1701      1103      8862      9634      8173      8172      1217      8016
 -1      8947    6    0    1
 -2      1102      2860      1701      1567      8862      8173      9634      8861      8730      1819
 -1      8948    6    0    1
 -2       105      1103      2860      2994      1215      8172      3107      3111      8013      3112
 -1      8949    6    0    1
 -2      2860      1103       105      1102      8172      1215      3107      8862      1217      1213
 -1      8950    6    0    1
 -2       202      1079      1568      1104      1328      9075      1824      1325      1226      8859
 -1      8951    6    0    1
 -2      1079       202      1568      1700      1328      1824      9075      8019      1826      1828
 -1      8952    6    0    1
 -2       108      1079      2861      2993      1224      8185      3116      3120      8018      3121
 -1      8953    6    0    1
 -2      2861      1079       108      1104      8185      1224      3116      8860      1226      1222
 -1      8954    6    0    1
 -2      1570      1080      2990      2863      9759      9631      8832      9137      9758      3130
 -1      8955    6    0    1
 -2      2990      1697      1080      1570      8028      9632      9631      8832      1837      9759
 -1      8956    6    0    1
 -2      1080      1697      2990      1119      9632      8028      9631      1235      8027      8026
 -1      8957    6    0    1
 -2       592      4048      5603      4053      4175      8213      5741      4070      4095      8465
 -1      8958    6    0    1
 -2      5603      4048       592      4024      8213      4175      5741      8214      4176      4173
 -1      8959    6    0    1
 -2       666      5125      4048      4054      5263      8217      4273      4063      8466      4097
 -1      8960    6    0    1
 -2      4048      5125       666      4024      8217      5263      4273      4176      8218      4272
 -1      8961    6    0    1
 -2      1512      2982      4736      4737      7878      9663      8488      8320      8321      4824
 -1      8962    6    0    1
 -2      4736      2982      1512      2805      9663      7878      8488      8490      3291      8492
 -1      8963    6    0    1
 -2       351      4737      1512      4736      4823      8320      1994      4819      4824      8488
 -1      8964    6    0    1
 -2      4737       351      1512      1689      4823      1994      8320      8319      1996      1998
 -1      8965    6    0    1
 -2       337      4713      1578      1702      4777      9126      1954      1952      8159      1956
 -1      8966    6    0    1
 -2      1578      4713       337      4730      9126      4777      1954      8907      4782      4781
 -1      8967    6    0    1
 -2       472      4713      2871      4730      4904      8160      3248      4905      4782      8908
 -1      8968    6    0    1
 -2      4713       472      2871      2995      4904      3248      8160      8162      3244      3249
 -1      8969    6    0    1
 -2      2866      4722      1699      1573      8950      9545      8250      8893      8951      1965
 -1      8970    6    0    1
 -2      1699      2992      4722      2866      8207      9544      9545      8250      3258      8950
 -1      8971    6    0    1
 -2      4722      2992      1699      4721      9544      8207      9545      4791      8299      8297
 -1      8972    6    0    1
 -2       181      1115      1576      1093      1286      9078      1761      1283      1163      8923
 -1      8973    6    0    1
 -2      1115       181      1576      1709      1286      1761      9078      7887      1763      1765
 -1      8974    6    0    1
 -2        87      1115      2869      3002      1161      8096      3053      3057      7885      3058
 -1      8975    6    0    1
 -2      2869      1115        87      1093      8096      1161      3053      8922      1163      1159
 -1      8976    6    0    1
 -2       478      4732      2868      4710      4916      9287      3266      4917      4800      8997
 -1      8977    6    0    1
 -2      4732       478      2868      2988      4916      3266      9287      8380      3262      3267
 -1      8978    6    0    1
 -2       343      4732      1575      1695      4795      8551      1972      1970      8382      1974
 -1      8979    6    0    1
 -2      1575      4732       343      4710      8551      4795      1972      8998      4800      4799
 -1      8980    6    0    1
 -2      2870      4735      1692      1577      9014      9568      8654      8992      9013      1983
 -1      8981    6    0    1
 -2      1692      2985      4735      2870      8375      9569      9568      8654      3276      9014
 -1      8982    6    0    1
 -2      4735      2985      1692      4714      9569      8375      9568      4809      8376      8373
 -1      8983    6    0    1
 -2       484      4723      2873      4724      4928      8544      3284      4929      4818      9050
 -1      8984    6    0    1
 -2      4723       484      2873      2984      4928      3284      8544      8547      3280      3285
 -1      8985    6    0    1
 -2       349      4723      1580      1691      4813      9319      1990      1988      8543      1992
 -1      8986    6    0    1
 -2      1580      4723       349      4724      9319      4813      1990      9048      4818      4817
 -1      8987    6    0    1
 -2       266      1581      1355      1358      1881      9330      1376      1362      9516      1379
 -1      8988    6    0    1
 -2      1355      1581       266      1672      9330      1881      1376      9187      1880      1876
 -1      8989    6    0    1
 -2      1581      1358      2965      1355      9516      9714      8824      9330      1379      9186
 -1      8990    6    0    1
 -2      2965      1358      1581      2874      9714      9516      8824      3173      9515      7927
 -1      8991    6    0    1
 -2      6380      6890      6940      6359     10378      8879      9205      6460      9264      9355
 -1      8992    6    0    1
 -2      6890      6380      6940      6908     10378      9205      8879      8110      9202      7422
 -1      8993    6    0    1
 -2      6890      6380      5628      6359     10378      9204      9082      9264      6460      9434
 -1      8994    6    0    1
 -2      6380      6890      5628      6908     10378      9082      9204      9202      8110      9203
 -1      8995    6    0    1
 -2      1689      2875      4738      1582      8178      9034      9664      2001      9035      9032
 -1      8996    6    0    1
 -2      1689      4738      2982      4737      9664      9665      7880      8319      4827      8321
 -1      8997    6    0    1
 -2      4738      1689      2982      2875      9664      7880      9665      9034      8178      3294
 -1      8998    6    0    1
 -2       577      4009      5583      5614      4145      9605      5696      5692      9650      5695
 -1      8999    6    0    1
 -2      5583      4009       577      4029      9605      4145      5696      9336      4153      4151
 -1      9000    6    0    1
 -2      6925      5589      4055      4042      9479      9792     10379      8579      9844      4236
 -1      9001    6    0    1
 -2      5589      6925      4055      5631      9479     10379      9792      5778      9489      9793
 -1      9002    6    0    1
 -2      6925      4055      6036      4042     10379     10380      8900      8579      4236      8899
 -1      9003    6    0    1
 -2      4055      6925      6036      5631     10379      8900     10380      9793      9489      9487
 -1      9004    6    0    1
 -2      6036      4055      6034      4042     10380      9548      6090      8899      4236      8756
 -1      9005    6    0    1
 -2      5612      6928       891      6372      9540      9651      5801      9740      9680      6437
 -1      9006    6    0    1
 -2       891      6928      5612      5586      9651      9540      5801      5803      8855      5802
 -1      9007    6    0    1
 -2      4011      6939       654      5144      9827      9710      4266      9826      9514      5227
 -1      9008    6    0    1
 -2       654      6939      4011      4031      9710      9827      4266      4267      9736      4168
 -1      9009    6    0    1
 -2      6768      1044      1389       449      6776      9445      9624     10170      9693      9819
 -1      9010    6    0    1
 -2      1389      1044      6768      6766      9445      6776      9624      9444      6777      6780
 -1      9011    6    0    1
 -2      1387      6766       314      1043      9443      9802      9773      9306      6778      9694
 -1      9012    6    0    1
 -2      6766      1387       314      1388      9443      9773      9802      9627      1410      9801
 -1      9013    6    0    1
 -2      4981      6681       454      1024      9440      9798     10274      9290      6696     10018
 -1      9014    6    0    1
 -2      6681      4981       454      4984      9440     10274      9798      9591      5008      9796
 -1      9015    6    0    1
 -2      6682      4983      1023      6681      9616      9439      6686      6694      9438      6697
 -1      9016    6    0    1
 -2      1023      4983      6682       319      9439      9616      6686      9813      9814     10148
 -1      9017    6    0    1
 -2      2945      2963      4981      4982      3227     10174     10381      9684     10006      5001
 -1      9018    6    0    1
 -2      4981      2963      2945       454     10174      3227     10381     10274      3226      3220
 -1      9019    6    0    1
 -2      4981      1024      2945      4982      9290      9685     10381      5001      9289      9684
 -1      9020    6    0    1
 -2      2945      1024      4981       454      9685      9290     10381      3220     10018     10274
 -1      9021    6    0    1
 -2      1652      4981      1023       319     10382      9291      9677      1928      9815      9813
 -1      9022    6    0    1
 -2      4981      1652      1023      4982     10382      9677      9291      5001      9678      9288
 -1      9023    6    0    1
 -2      4981      1652      1670       319     10382      1934     10173      9815      1928      1932
 -1      9024    6    0    1
 -2      1652      4981      1670      4982     10382     10173      1934      9678      5001     10007
 -1      9025    6    0    1
 -2       783      4359      6246      4338      4540      9946      6351      4542      4544      9724
 -1      9026    6    0    1
 -2      6246      4359       783      6243      9946      4540      6351      6298      9718      6350
 -1      9027    6    0    1
 -2      4327      6851      4372      1068     10281      9846      4598     10184      6857      9908
 -1      9028    6    0    1
 -2      4372      6851      4327      4339      9846     10281      4598      4488      9643      4482
 -1      9029    6    0    1
 -2      1004      4376      6615      6613     10292     10000      6622      6628      9931      6627
 -1      9030    6    0    1
 -2      4376      1004      6615      4383     10292      6622     10000      4508     10070      9672
 -1      9031    6    0    1
 -2      4349      4356       989      6563      4657     10197      9880      9879     10190      6577
 -1      9032    6    0    1
 -2       989      4356      4349      4382     10197      4657      9880     10111      4634      4644
 -1      9033    6    0    1
 -2        46       988      6106      6579       990     10180      6206      6582      6585     10140
 -1      9034    6    0    1
 -2       988        46      6106      6564       990      6206     10180      6567      6566     10152
 -1      9035    6    0    1
 -2      4382      6562      6581       989     10300     10225     10036     10111      6571      6589
 -1      9036    6    0    1
 -2      6581      6562      4382      6236     10225     10300     10036     10077     10224     10076
 -1      9037    6    0    1
 -2        40      1018      6109      6682      1020     10169      6176      6684      6687     10168
 -1      9038    6    0    1
 -2      6109      1018        40      6666     10169      1020      6176     10155      6669      6668
 -1      9039    6    0    1
 -2        14      6683      6665      6239      9924     10226     10020     10159     10227     10158
 -1      9040    6    0    1
 -2      6665      6683        14      1019     10226      9924     10020      6673      6691      9923
 -1      9041    6    0    1
 -2         7      6767      6783      6108      9965     10228     10015     10211     10229     10213
 -1      9042    6    0    1
 -2      6783      6767         7      1048     10228      9965     10015      6789      6771      9964
 -1      9043    6    0    1
 -2        67      1049      6238      6768      1052     10167      6322      6773      6775     10166
 -1      9044    6    0    1
 -2      6238      1049        67      6784     10167      1052      6322     10162      6793      6790
 -1      9045    6    0    1
 -2      4337      6477      6868       958     10049     10223      9863     10048      6482      6873
 -1      9046    6    0    1
 -2      6868      6477      4337      6107     10223     10049      9863      9865     10222      9864
 -1      9047    6    0    1
 -2        61       959      6237      6869       962      9823      6285      6876      6877      9722
 -1      9048    6    0    1
 -2      6237       959        61      6478      9823       962      6285      9869      6487      6485
 -1      9049    6    0    1
 -2      4056      6946       573      5600      8750      9857      4126      9534      9535      5680
 -1      9050    6    0    1
 -2       573      6946      4056      4044      9857      8750      4126      4131      9757      4133
 -1      9051    6    0    1
 -2      4342       770      6632      4340      4421     10011     10005      4507      4501      9903
 -1      9052    6    0    1
 -2      6632       770      4342      1004     10011      4421     10005      6641     10012     10101
 -1      9053    6    0    1
 -2       770      1003      4340       769     10010     10203      4501       772     10136      4502
 -1      9054    6    0    1
 -2      1003       770      4340      6632     10010      4501     10203      6642     10011      9903
 -1      9055    6    0    1
 -2       770      4376      1003       769      4503     10116     10010       772      4504     10136
 -1      9056    6    0    1
 -2      6512       969      4344      4317      6521      9787      9987     10075      9968      4567
 -1      9057    6    0    1
 -2       969      6512      4344      6513      6521      9987      9787      6522      6525      9788
 -1      9058    6    0    1
 -2        45      4330      6101      6596     10341     10192      6194      6599     10191      9697
 -1      9059    6    0    1
 -2      6101      4330        45       719     10192     10341      6194      6200      4449      6201
 -1      9060    6    0    1
 -2      6834      6836      4377      4325      6847     10325     10219     10133      9889      4604
 -1      9061    6    0    1
 -2      6836      6834      4377      1063      6847     10219     10325      6846      6840     10294
 -1      9062    6    0    1
 -2      6868      4358        29      6113     10047     10343      6871     10346      9848      6139
 -1      9063    6    0    1
 -2        29      4358      6868      1073     10343     10047      6871      1075     10252      6874
 -1      9064    6    0    1
 -2       789      4378      6245      6240      4398     10088      6354      6352      9744      6320
 -1      9065    6    0    1
 -2      6245      4378       789         8     10088      4398      6354     10161      4397      4396
 -1      9066    6    0    1
 -2       782        60       964      6478      6287       967     10383     10336      6484      6486
 -1      9067    6    0    1
 -2       964        60       782      4368       967      6287     10383     10206     10299      4534
 -1      9068    6    0    1
 -2       964      4335       782      6478     10214      4538     10383      6486      9868     10336
 -1      9069    6    0    1
 -2       782      4335       964      4368      4538     10214     10383      4534      4539     10206
 -1      9070    6    0    1
 -2       740      6114      4380        10      6227     10146      4404      4402     10156      4403
 -1      9071    6    0    1
 -2      6114       740      4380      6111      6227      4404     10146      6189      6226      9820
 -1      9072    6    0    1
 -2      6665      6241        14      6244     10337     10365     10020     10093      6345     10160
 -1      9073    6    0    1
 -2      6241      6665        14      4379     10337     10020     10365      9810     10244      4412
 -1      9074    6    0    1
 -2        47      4357      6106      6564     10313     10153      6205      6565     10149     10152
 -1      9075    6    0    1
 -2      4357        47      6106       721     10313      6205     10153      4455      6210      6211
 -1      9076    6    0    1
 -2      5648      6942       892      6378      9747      9746      5806     10366      9453      6441
 -1      9077    6    0    1
 -2       892      6942      5648      5612      9746      9747      5806      5800      9676      5807
 -1      9078    6    0    1
 -2      6936      5660      6909      5574      8762      7473      7455      8763      5998      7472
 -1      9079    6    0    1
 -2      6909      5660      6936      6918      7473      8762      7455      7187     10368      7529
 -1      9080    6    0    1
 -2      5660      6918      6374      6365     10368      8037      9969      7380      8038      6462
 -1      9081    6    0    1
 -2      6374      6918      5660      6909      8037     10368      9969      7153      7187      7473
 -1      9082    6    0    1
 -2      5120      6907      5078      5139      8669      9872      5363      5364      8152      5365
 -1      9083    6    0    1
 -2      5078      6907      5120      6935      9872      8669      5363      9833      8670      8671
 -1      9084    6    0    1
 -2      1003      4376      1004      6613     10116     10292      1006      6629      9931      6628
 -1      9085    6    0    1
 -2      1004      4376      1003       770     10292     10116      1006     10012      4503     10010
 -1      9086    6    0    1
 -2      6886      2926      1420      1633      9692     10373     10384     10360      7937      2126
 -1      9087    6    0    1
 -2      1420      2926      6886      6903     10373      9692     10384      9745      9030      9525
 -1      9088    6    0    1
 -2      1420      1480      6886      1633      2125      9523     10384      2126      2127     10360
 -1      9089    6    0    1
 -2      6886      1480      1420      6903      9523      2125     10384      9525      9526      9745
 -1      9090    6    0    1
 -2      6042      6036      4055      6034      6074     10380      9703      6093      6090      9548
 -1      9091    6    0    1
 -2      6036      6042      4055      5631      6074      9703     10380      9487     10060      9793
 -1      9092    6    0    1
 -2      5116      6885      6889      6900     10385      8252      7088      7089      9752      7027
 -1      9093    6    0    1
 -2      6885      5116      6889      6935     10385      7088      8252      8254      9415      8253
 -1      9094    6    0    1
 -2      5116      6885      5078      6935     10385      9981      5358      9415      8254      9833
 -1      9095    6    0    1
 -2      6885      5116      5167      6900     10385      5362     10386      9752      7089      9458
 -1      9096    6    0    1
 -2      5167      5116      6885      5078      5362     10385     10386      5361      5358      9981
 -1      9097    6    0    1
 -2      5167      6907      6885      6900      9469      9347     10386      9458      9317      9752
 -1      9098    6    0    1
 -2      6885      6907      5167      5078      9347      9469     10386      9981      9872      5361
 -3
    1PSTEP                         1           1           1          
  100CL  101 1.000000000       10386                     0    1           1
 -4  DISP        4    1
 -5  D1          1    2    1    0
 -5  D2          1    2    2    0
 -5  D3          1    2    3    0
 -5  ALL         1    2    0    0    1ALL
 -1         1 2.21170E+02-1.99349E+02-1.06530E+01
 -1         2 2.21194E+02-1.99305E+02 1.12299E+01
 -1         3 1.31768E+04-9.03076E+02 8.31101E-01
 -1         4 1.31767E+04-9.03057E+02 8.35571E-01
 -1         5 4.32736E+01-5.26624E+01-2.94111E+00
 -1         6 4.31660E+01-5.27443E+01 3.88050E+00
 -1         7 1.39988E+04-1.10491E+03 8.50074E-01
 -1         8 1.39988E+04-1.10493E+03 8.48257E-01
 -1         9 4.79772E+01 3.52098E+01 3.29770E+00
 -1        10 1.39987E+04 1.07297E+03 9.92045E-01
 -1        11 1.31770E+04 8.71111E+02 9.19701E-01
 -1        12 2.63101E+02 1.88715E+02 1.13347E+01
 -1        13 4.81678E+01 3.51355E+01-3.32072E+00
 -1        14 1.39987E+04 1.07295E+03 9.90425E-01
 -1        15 1.31770E+04 8.71091E+02 9.77489E-01
 -1        16 2.63132E+02 1.88690E+02-1.06030E+01
 -1        17 0.00000E+00 0.00000E+00 0.00000E+00
 -1        18 0.00000E+00 0.00000E+00 0.00000E+00
 -1        19 0.00000E+00 0.00000E+00 0.00000E+00
 -1        20 0.00000E+00 0.00000E+00 0.00000E+00
 -1        21 1.49767E+04 1.44773E+03 1.05132E+00
 -1        22 1.49768E+04 1.44770E+03 1.04900E+00
 -1        23 0.00000E+00 0.00000E+00 0.00000E+00
 -1        24 0.00000E+00 0.00000E+00 0.00000E+00
 -1        25 0.00000E+00 0.00000E+00 0.00000E+00
 -1        26 0.00000E+00 0.00000E+00 0.00000E+00
 -1        27 1.57886E+04-8.27781E+02 9.30727E-01
 -1        28 1.60856E+04-6.56227E+02 9.52543E-01
 -1        29 1.56170E+04-1.12485E+03 9.04884E-01
 -1        30 1.52739E+04-1.12485E+03 8.92264E-01
 -1        31 1.49768E+04-1.29640E+03 8.70346E-01
 -1        32 1.46798E+04-1.12484E+03 8.70241E-01
 -1        33 1.43366E+04-1.12483E+03 8.58395E-01
 -1        34 1.41651E+04-8.27717E+02 8.71725E-01
 -1        35 1.38680E+04-6.56131E+02 8.73714E-01
 -1        36 1.38680E+04-3.12961E+02 8.98659E-01
 -1        37 1.36964E+04-1.58476E+01 9.12333E-01
 -1        38 1.38679E+04 2.81228E+02 9.39053E-01
 -1        39 1.38679E+04 6.24311E+02 9.58521E-01
 -1        40 1.41649E+04 7.95845E+02 9.78120E-01
 -1        41 1.43365E+04 1.09289E+03 1.00297E+00
 -1        42 1.46796E+04 1.09289E+03 1.01474E+00
 -1        43 1.49767E+04 1.26445E+03 1.03730E+00
 -1        44 1.52738E+04 1.09288E+03 1.03679E+00
 -1        45 1.56169E+04 1.09288E+03 1.04949E+00
 -1        46 1.57885E+04 7.95771E+02 1.03655E+00
 -1        47 1.60856E+04 6.24199E+02 1.03605E+00
 -1        48 1.60856E+04 2.81062E+02 1.01405E+00
 -1        49 1.62572E+04-1.60291E+01 1.00054E+00
 -1        50 1.60856E+04-3.13111E+02 9.75326E-01
 -1        51 1.49768E+04 1.26442E+03 1.03907E+00
 -1        52 1.46797E+04 1.09286E+03 1.01835E+00
 -1        53 1.52739E+04 1.09284E+03 1.03819E+00
 -1        54 1.56170E+04 1.09284E+03 1.04967E+00
 -1        55 1.57886E+04 7.95740E+02 1.03590E+00
 -1        56 1.60857E+04 6.24168E+02 1.03496E+00
 -1        57 1.60857E+04 2.81031E+02 1.01211E+00
 -1        58 1.62573E+04-1.60603E+01 9.98931E-01
 -1        59 1.60857E+04-3.13142E+02 9.73263E-01
 -1        60 1.60857E+04-6.56258E+02 9.51266E-01
 -1        61 1.57886E+04-8.27812E+02 9.29804E-01
 -1        62 1.56171E+04-1.12488E+03 9.04795E-01
 -1        63 1.52740E+04-1.12488E+03 8.93295E-01
 -1        64 1.49769E+04-1.29643E+03 8.71879E-01
 -1        65 1.46798E+04-1.12487E+03 8.73493E-01
 -1        66 1.43367E+04-1.12486E+03 8.61186E-01
 -1        67 1.41651E+04-8.27749E+02 8.74498E-01
 -1        68 1.38680E+04-6.56163E+02 8.73975E-01
 -1        69 1.38680E+04-3.12992E+02 8.93822E-01
 -1        70 1.36964E+04-1.58788E+01 9.06750E-01
 -1        71 1.38680E+04 2.81197E+02 9.30912E-01
 -1        72 1.38680E+04 6.24280E+02 9.56216E-01
 -1        73 1.41650E+04 7.95814E+02 9.79994E-01
 -1        74 1.43366E+04 1.09286E+03 1.00593E+00
 -1        75 2.23022E+02-1.99474E+02 2.79343E-01
 -1        76 2.22534E+02-1.99481E+02-5.18647E+00
 -1        77 2.22555E+02-1.99444E+02 5.75437E+00
 -1        78 3.06523E+02-2.44819E+02 1.03354E+01
 -1        79 4.08321E+02-2.87656E+02 9.88016E+00
 -1        80 5.26508E+02-3.28699E+02 9.48403E+00
 -1        81 6.60450E+02-3.67933E+02 9.07697E+00
 -1        82 8.09415E+02-4.05330E+02 8.66978E+00
 -1        83 9.72680E+02-4.40955E+02 8.27295E+00
 -1        84 1.14953E+03-4.74820E+02 7.89505E+00
 -1        85 1.33931E+03-5.06988E+02 7.52902E+00
 -1        86 1.54131E+03-5.37508E+02 7.17367E+00
 -1        87 1.75494E+03-5.66419E+02 6.82300E+00
 -1        88 1.97957E+03-5.93763E+02 6.47666E+00
 -1        89 2.21454E+03-6.19587E+02 6.15031E+00
 -1        90 2.45932E+03-6.43937E+02 5.83190E+00
 -1        91 2.71333E+03-6.66851E+02 5.52024E+00
 -1        92 2.97596E+03-6.88372E+02 5.22566E+00
 -1        93 3.24676E+03-7.08548E+02 4.92860E+00
 -1        94 3.52514E+03-7.27422E+02 4.64602E+00
 -1        95 3.81061E+03-7.45034E+02 4.37857E+00
 -1        96 4.10270E+03-7.61430E+02 4.11586E+00
 -1        97 4.40094E+03-7.76654E+02 3.86300E+00
 -1        98 4.70485E+03-7.90747E+02 3.62511E+00
 -1        99 5.01402E+03-8.03755E+02 3.39527E+00
 -1       100 5.32803E+03-8.15720E+02 3.17200E+00
 -1       101 5.64645E+03-8.26683E+02 2.96340E+00
 -1       102 5.96894E+03-8.36691E+02 2.75992E+00
 -1       103 6.29511E+03-8.45787E+02 2.56575E+00
 -1       104 6.62459E+03-8.54015E+02 2.38698E+00
 -1       105 6.95709E+03-8.61417E+02 2.21418E+00
 -1       106 7.29227E+03-8.68038E+02 2.05223E+00
 -1       107 7.62981E+03-8.73918E+02 1.90398E+00
 -1       108 7.96946E+03-8.79104E+02 1.76104E+00
 -1       109 8.31095E+03-8.83637E+02 1.63006E+00
 -1       110 8.65402E+03-8.87557E+02 1.50391E+00
 -1       111 8.99845E+03-8.90927E+02 1.39102E+00
 -1       112 9.34402E+03-8.93764E+02 1.29049E+00
 -1       113 9.69053E+03-8.96126E+02 1.19987E+00
 -1       114 1.00378E+04-8.98054E+02 1.11684E+00
 -1       115 1.03857E+04-8.99590E+02 1.04404E+00
 -1       116 1.07341E+04-9.00780E+02 9.82676E-01
 -1       117 1.10827E+04-9.01664E+02 9.30851E-01
 -1       118 1.14316E+04-9.02287E+02 8.88359E-01
 -1       119 1.17806E+04-9.02696E+02 8.56749E-01
 -1       120 1.21297E+04-9.02933E+02 8.35593E-01
 -1       121 1.24788E+04-9.03045E+02 8.24288E-01
 -1       122 1.28278E+04-9.03079E+02 8.23757E-01
 -1       123 2.61759E+02-2.22451E+02 1.07116E+01
 -1       124 3.55365E+02-2.66456E+02 1.00885E+01
 -1       125 4.65400E+02-3.08403E+02 9.68344E+00
 -1       126 5.91544E+02-3.48536E+02 9.27873E+00
 -1       127 7.33093E+02-3.86854E+02 8.86959E+00
 -1       128 8.89307E+02-4.23361E+02 8.47128E+00
 -1       129 1.05946E+03-4.58096E+02 8.08483E+00
 -1       130 1.24285E+03-4.91113E+02 7.70880E+00
 -1       131 1.43882E+03-5.22443E+02 7.34979E+00
 -1       132 1.64672E+03-5.52157E+02 7.00178E+00
 -1       133 1.86592E+03-5.80284E+02 6.64796E+00
 -1       134 2.09580E+03-6.06856E+02 6.30894E+00
 -1       135 2.33575E+03-6.31937E+02 5.99314E+00
 -1       136 2.58521E+03-6.55569E+02 5.67420E+00
 -1       137 2.84360E+03-6.77776E+02 5.37182E+00
 -1       138 3.11038E+03-6.98619E+02 5.07706E+00
 -1       139 3.38503E+03-7.18144E+02 4.78355E+00
 -1       140 3.66702E+03-7.36377E+02 4.50913E+00
 -1       141 3.95586E+03-7.53377E+02 4.24924E+00
 -1       142 4.25108E+03-7.69185E+02 3.98790E+00
 -1       143 4.55221E+03-7.83834E+02 3.73994E+00
 -1       144 4.85881E+03-7.97380E+02 3.51116E+00
 -1       145 5.17044E+03-8.09864E+02 3.28249E+00
 -1       146 5.48671E+03-8.21319E+02 3.06559E+00
 -1       147 5.80722E+03-8.31800E+02 2.86221E+00
 -1       148 6.13159E+03-8.41350E+02 2.66031E+00
 -1       149 6.45946E+03-8.50003E+02 2.47467E+00
 -1       150 6.79049E+03-8.57814E+02 2.30015E+00
 -1       151 7.12436E+03-8.64822E+02 2.13136E+00
 -1       152 7.46076E+03-8.71064E+02 1.97592E+00
 -1       153 7.79939E+03-8.76592E+02 1.83286E+00
 -1       154 8.13999E+03-8.81450E+02 1.69312E+00
 -1       155 8.48230E+03-8.85670E+02 1.56653E+00
 -1       156 8.82608E+03-8.89309E+02 1.44568E+00
 -1       157 9.17110E+03-8.92409E+02 1.33853E+00
 -1       158 9.51717E+03-8.95000E+02 1.24390E+00
 -1       159 9.86409E+03-8.97140E+02 1.15772E+00
 -1       160 1.02117E+04-8.98868E+02 1.07941E+00
 -1       161 1.05598E+04-9.00224E+02 1.01113E+00
 -1       162 1.09084E+04-9.01256E+02 9.54998E-01
 -1       163 1.12572E+04-9.02005E+02 9.07986E-01
 -1       164 1.16061E+04-9.02515E+02 8.70678E-01
 -1       165 1.19552E+04-9.02832E+02 8.44472E-01
 -1       166 1.23042E+04-9.03001E+02 8.28597E-01
 -1       167 1.26533E+04-9.03069E+02 8.22474E-01
 -1       168 1.30023E+04-9.03080E+02 8.26477E-01
 -1       169 1.31768E+04-9.03068E+02 8.33386E-01
 -1       170 1.31767E+04-9.03063E+02 8.34413E-01
 -1       171 1.31768E+04-9.03072E+02 8.32255E-01
 -1       172 3.06478E+02-2.44814E+02-9.76863E+00
 -1       173 4.08285E+02-2.87644E+02-9.31196E+00
 -1       174 5.26473E+02-3.28686E+02-8.88542E+00
 -1       175 6.60415E+02-3.67919E+02-8.45944E+00
 -1       176 8.09377E+02-4.05314E+02-8.03784E+00
 -1       177 9.72632E+02-4.40935E+02-7.62179E+00
 -1       178 1.14950E+03-4.74798E+02-7.21342E+00
 -1       179 1.33928E+03-5.06970E+02-6.81520E+00
 -1       180 1.54127E+03-5.37488E+02-6.43393E+00
 -1       181 1.75490E+03-5.66397E+02-6.05271E+00
 -1       182 1.97953E+03-5.93745E+02-5.68351E+00
 -1       183 2.21450E+03-6.19569E+02-5.33278E+00
 -1       184 2.45928E+03-6.43914E+02-4.98198E+00
 -1       185 2.71329E+03-6.66829E+02-4.64550E+00
 -1       186 2.97593E+03-6.88353E+02-4.32202E+00
 -1       187 3.24672E+03-7.08531E+02-4.00079E+00
 -1       188 3.52511E+03-7.27406E+02-3.69856E+00
 -1       189 3.81057E+03-7.45015E+02-3.40731E+00
 -1       190 4.10266E+03-7.61411E+02-3.12016E+00
 -1       191 4.40090E+03-7.76635E+02-2.84045E+00
 -1       192 4.70481E+03-7.90726E+02-2.57765E+00
 -1       193 5.01398E+03-8.03733E+02-2.31814E+00
 -1       194 5.32800E+03-8.15698E+02-2.07135E+00
 -1       195 5.64642E+03-8.26662E+02-1.83827E+00
 -1       196 5.96891E+03-8.36674E+02-1.60875E+00
 -1       197 6.29508E+03-8.45771E+02-1.39364E+00
 -1       198 6.62456E+03-8.53996E+02-1.19013E+00
 -1       199 6.95706E+03-8.61398E+02-9.92110E-01
 -1       200 7.29223E+03-8.68019E+02-8.05690E-01
 -1       201 7.62977E+03-8.73899E+02-6.29629E-01
 -1       202 7.96942E+03-8.79086E+02-4.62806E-01
 -1       203 8.31092E+03-8.83621E+02-3.06120E-01
 -1       204 8.65399E+03-8.87540E+02-1.58565E-01
 -1       205 8.99841E+03-8.90908E+02-2.21711E-02
 -1       206 9.34399E+03-8.93747E+02 1.02852E-01
 -1       207 9.69050E+03-8.96108E+02 2.18563E-01
 -1       208 1.00378E+04-8.98035E+02 3.25602E-01
 -1       209 1.03857E+04-8.99570E+02 4.22501E-01
 -1       210 1.07340E+04-9.00760E+02 5.11643E-01
 -1       211 1.10827E+04-9.01645E+02 5.88877E-01
 -1       212 1.14316E+04-9.02268E+02 6.55281E-01
 -1       213 1.17806E+04-9.02677E+02 7.11753E-01
 -1       214 1.21297E+04-9.02914E+02 7.57968E-01
 -1       215 1.24787E+04-9.03026E+02 7.93298E-01
 -1       216 1.28278E+04-9.03061E+02 8.18418E-01
 -1       217 2.61732E+02-2.22471E+02-1.01475E+01
 -1       218 3.55324E+02-2.66447E+02-9.52716E+00
 -1       219 4.65365E+02-3.08389E+02-9.10069E+00
 -1       220 5.91510E+02-3.48522E+02-8.66943E+00
 -1       221 7.33063E+02-3.86837E+02-8.24538E+00
 -1       222 8.89262E+02-4.23342E+02-7.83130E+00
 -1       223 1.05941E+03-4.58074E+02-7.41752E+00
 -1       224 1.24281E+03-4.91090E+02-7.01388E+00
 -1       225 1.43878E+03-5.22426E+02-6.62267E+00
 -1       226 1.64668E+03-5.52133E+02-6.24518E+00
 -1       227 1.86588E+03-5.80264E+02-5.86659E+00
 -1       228 2.09575E+03-6.06838E+02-5.50515E+00
 -1       229 2.33571E+03-6.31917E+02-5.15927E+00
 -1       230 2.58517E+03-6.55547E+02-4.81232E+00
 -1       231 2.84356E+03-6.77756E+02-4.47977E+00
 -1       232 3.11035E+03-6.98602E+02-4.16059E+00
 -1       233 3.38499E+03-7.18128E+02-3.84883E+00
 -1       234 3.66698E+03-7.36359E+02-3.55021E+00
 -1       235 3.95582E+03-7.53357E+02-3.26468E+00
 -1       236 4.25104E+03-7.69166E+02-2.97900E+00
 -1       237 4.55217E+03-7.83814E+02-2.70669E+00
 -1       238 4.85877E+03-7.97358E+02-2.44882E+00
 -1       239 5.17041E+03-8.09843E+02-2.19333E+00
 -1       240 5.48668E+03-8.21298E+02-1.95113E+00
 -1       241 5.80719E+03-8.31781E+02-1.72369E+00
 -1       242 6.13155E+03-8.41334E+02-1.49987E+00
 -1       243 6.45942E+03-8.49986E+02-1.28909E+00
 -1       244 6.79046E+03-8.57794E+02-1.09075E+00
 -1       245 7.12432E+03-8.64804E+02-8.98362E-01
 -1       246 7.46072E+03-8.71045E+02-7.14400E-01
 -1       247 7.79936E+03-8.76574E+02-5.46478E-01
 -1       248 8.13996E+03-8.81432E+02-3.83401E-01
 -1       249 8.48226E+03-8.85654E+02-2.30878E-01
 -1       250 8.82604E+03-8.89292E+02-8.82334E-02
 -1       251 9.17107E+03-8.92390E+02 4.11264E-02
 -1       252 9.51713E+03-8.94982E+02 1.62924E-01
 -1       253 9.86405E+03-8.97121E+02 2.72672E-01
 -1       254 1.02117E+04-8.98849E+02 3.75750E-01
 -1       255 1.05598E+04-9.00204E+02 4.68759E-01
 -1       256 1.09083E+04-9.01236E+02 5.52122E-01
 -1       257 1.12571E+04-9.01986E+02 6.23441E-01
 -1       258 1.16061E+04-9.02496E+02 6.85370E-01
 -1       259 1.19551E+04-9.02813E+02 7.36618E-01
 -1       260 1.23042E+04-9.02983E+02 7.77074E-01
 -1       261 1.26533E+04-9.03050E+02 8.07489E-01
 -1       262 1.30023E+04-9.03061E+02 8.27884E-01
 -1       263 5.82256E+01-6.70725E+01-4.35816E+00
 -1       264 7.98575E+01-8.84774E+01-6.95692E+00
 -1       265 1.10582E+02-1.17467E+02-9.36324E+00
 -1       266 1.56185E+02-1.54873E+02-1.08814E+01
 -1       267 4.95817E+01-5.89957E+01-3.58195E+00
 -1       268 6.82752E+01-7.69585E+01-5.59831E+00
 -1       269 9.37410E+01-1.01971E+02-8.22236E+00
 -1       270 1.31140E+02-1.35189E+02-1.02577E+01
 -1       271 1.86152E+02-1.76415E+02-1.10336E+01
 -1       272 4.45287E+01-5.41215E+01 4.71494E-01
 -1       273 4.39320E+01-5.35823E+01 2.23970E+00
 -1       274 4.39849E+01-5.35373E+01-1.29815E+00
 -1       275 5.81647E+01-6.72166E+01 5.29160E+00
 -1       276 7.96948E+01-8.85093E+01 7.84530E+00
 -1       277 1.10519E+02-1.17382E+02 1.00738E+01
 -1       278 1.56159E+02-1.54964E+02 1.14228E+01
 -1       279 4.94477E+01-5.90866E+01 4.53928E+00
 -1       280 6.82186E+01-7.70031E+01 6.48788E+00
 -1       281 9.37008E+01-1.01880E+02 9.05640E+00
 -1       282 1.31129E+02-1.35195E+02 1.09473E+01
 -1       283 1.86230E+02-1.76395E+02 1.15722E+01
 -1       284 1.34604E+04-9.25862E+02 8.43840E-01
 -1       285 1.37368E+04-9.93711E+02 8.48126E-01
 -1       286 1.33190E+04-9.08772E+02 8.40473E-01
 -1       287 1.36000E+04-9.54264E+02 8.46236E-01
 -1       288 1.38700E+04-1.04407E+03 8.49453E-01
 -1       289 1.34605E+04-9.25881E+02 8.39875E-01
 -1       290 1.37368E+04-9.93730E+02 8.46230E-01
 -1       291 1.33191E+04-9.08791E+02 8.35508E-01
 -1       292 1.36000E+04-9.54283E+02 8.43614E-01
 -1       293 1.38701E+04-1.04409E+03 8.47727E-01
 -1       294 1.39988E+04-1.10492E+03 8.49168E-01
 -1       295 1.39988E+04-1.10493E+03 8.48734E-01
 -1       296 1.39988E+04-1.10492E+03 8.49600E-01
 -1       297 5.07872E+01-6.11163E+01-3.26020E+00
 -1       298 5.62408E+01-6.17286E+01-2.33674E+00
 -1       299 5.99193E+01-4.98718E+01-1.21690E+00
 -1       300 6.26260E+01-2.70601E+01-3.25194E-01
 -1       301 6.39259E+01 2.30036E-01 7.65154E-01
 -1       302 6.35523E+01 2.48333E+01 1.53600E+00
 -1       303 6.15709E+01 3.92272E+01 2.75897E+00
 -1       304 5.63247E+01 4.13511E+01 3.55333E+00
 -1       305 4.71245E+01-5.73582E+01-3.21502E+00
 -1       306 5.37355E+01-6.28965E+01-2.75150E+00
 -1       307 5.82436E+01-5.73542E+01-1.83052E+00
 -1       308 6.13766E+01-3.94734E+01-7.34626E-01
 -1       309 6.34417E+01-1.34895E+01 1.96381E-01
 -1       310 6.39523E+01 1.32285E+01 1.14972E+00
 -1       311 6.28038E+01 3.36912E+01 2.13716E+00
 -1       312 5.91250E+01 4.15638E+01 3.46548E+00
 -1       313 5.22700E+01 3.86782E+01 3.65473E+00
 -1       314 1.37682E+04-8.41538E+02 8.58371E-01
 -1       315 1.36067E+04-5.30934E+02 8.72336E-01
 -1       316 1.35236E+04-1.90882E+02 8.90174E-01
 -1       317 1.35236E+04 1.59151E+02 9.12140E-01
 -1       318 1.36067E+04 4.99139E+02 9.38389E-01
 -1       319 1.37681E+04 8.09651E+02 9.66156E-01
 -1       320 1.38756E+04-9.80144E+02 8.53455E-01
 -1       321 1.36781E+04-6.91081E+02 8.64816E-01
 -1       322 1.35549E+04-3.63399E+02 8.80918E-01
 -1       323 1.35131E+04-1.58599E+01 9.00581E-01
 -1       324 1.35550E+04 3.31643E+02 9.25127E-01
 -1       325 1.36781E+04 6.59239E+02 9.52582E-01
 -1       326 1.38755E+04 9.48225E+02 9.79214E-01
 -1       327 1.37368E+04 9.61784E+02 9.76197E-01
 -1       328 1.34605E+04 8.93936E+02 9.65943E-01
 -1       329 1.38700E+04 1.01214E+03 9.83542E-01
 -1       330 1.36000E+04 9.22343E+02 9.70515E-01
 -1       331 1.33192E+04 8.76839E+02 9.52625E-01
 -1       332 1.28246E+04 8.71128E+02 8.81834E-01
 -1       333 1.24720E+04 8.71082E+02 8.88918E-01
 -1       334 1.21194E+04 8.70933E+02 9.04771E-01
 -1       335 1.17667E+04 8.70641E+02 9.29794E-01
 -1       336 1.14141E+04 8.70165E+02 9.63871E-01
 -1       337 1.10616E+04 8.69465E+02 1.00617E+00
 -1       338 1.07094E+04 8.68495E+02 1.06112E+00
 -1       339 1.03575E+04 8.67213E+02 1.12488E+00
 -1       340 1.00061E+04 8.65573E+02 1.19755E+00
 -1       341 9.65526E+03 8.63526E+02 1.28239E+00
 -1       342 9.30528E+03 8.61033E+02 1.37500E+00
 -1       343 8.95627E+03 8.58047E+02 1.48015E+00
 -1       344 8.60846E+03 8.54524E+02 1.59579E+00
 -1       345 8.26208E+03 8.50420E+02 1.71743E+00
 -1       346 7.91733E+03 8.45685E+02 1.85154E+00
 -1       347 7.57450E+03 8.40278E+02 2.00008E+00
 -1       348 7.23387E+03 8.34157E+02 2.15570E+00
 -1       349 6.89571E+03 8.27276E+02 2.32024E+00
 -1       350 6.56035E+03 8.19583E+02 2.49423E+00
 -1       351 6.22812E+03 8.11042E+02 2.67461E+00
 -1       352 5.89935E+03 8.01602E+02 2.87307E+00
 -1       353 5.57441E+03 7.91224E+02 3.08368E+00
 -1       354 5.25371E+03 7.79862E+02 3.29642E+00
 -1       355 4.93761E+03 7.67465E+02 3.52348E+00
 -1       356 4.62655E+03 7.53994E+02 3.76235E+00
 -1       357 4.32098E+03 7.39404E+02 4.00871E+00
 -1       358 4.02132E+03 7.23650E+02 4.26702E+00
 -1       359 3.72806E+03 7.06685E+02 4.53107E+00
 -1       360 3.44171E+03 6.88464E+02 4.80579E+00
 -1       361 3.16273E+03 6.68942E+02 5.09381E+00
 -1       362 2.89168E+03 6.48080E+02 5.39010E+00
 -1       363 2.62912E+03 6.25827E+02 5.69513E+00
 -1       364 2.37555E+03 6.02142E+02 6.01813E+00
 -1       365 2.13158E+03 5.76979E+02 6.34702E+00
 -1       366 1.89785E+03 5.50290E+02 6.68070E+00
 -1       367 1.67490E+03 5.22034E+02 7.02934E+00
 -1       368 1.46341E+03 4.92173E+02 7.38312E+00
 -1       369 1.26403E+03 4.60639E+02 7.75025E+00
 -1       370 1.07740E+03 4.27417E+02 8.13263E+00
 -1       371 9.04213E+02 3.92448E+02 8.51742E+00
 -1       372 7.45162E+02 3.55702E+02 8.91514E+00
 -1       373 6.00953E+02 3.17139E+02 9.31274E+00
 -1       374 4.72253E+02 2.76684E+02 9.73542E+00
 -1       375 3.59633E+02 2.34218E+02 1.02516E+01
 -1       376 1.30008E+04 8.71124E+02 8.89469E-01
 -1       377 1.26483E+04 8.71115E+02 8.84052E-01
 -1       378 1.22957E+04 8.71023E+02 8.95665E-01
 -1       379 1.19430E+04 8.70807E+02 9.15772E-01
 -1       380 1.15904E+04 8.70428E+02 9.45775E-01
 -1       381 1.12378E+04 8.69846E+02 9.83500E-01
 -1       382 1.08855E+04 8.69015E+02 1.03256E+00
 -1       383 1.05334E+04 8.67894E+02 1.09190E+00
 -1       384 1.01817E+04 8.66441E+02 1.15933E+00
 -1       385 9.83057E+03 8.64600E+02 1.23896E+00
 -1       386 9.48016E+03 8.62336E+02 1.32621E+00
 -1       387 9.13064E+03 8.59604E+02 1.42617E+00
 -1       388 8.78221E+03 8.56353E+02 1.53795E+00
 -1       389 8.43508E+03 8.52545E+02 1.65473E+00
 -1       390 8.08948E+03 8.48133E+02 1.78207E+00
 -1       391 7.74566E+03 8.43065E+02 1.92468E+00
 -1       392 7.40389E+03 8.37307E+02 2.07752E+00
 -1       393 7.06446E+03 8.30814E+02 2.23616E+00
 -1       394 6.72766E+03 8.23530E+02 2.40852E+00
 -1       395 6.39382E+03 8.15419E+02 2.58084E+00
 -1       396 6.06328E+03 8.06437E+02 2.77159E+00
 -1       397 5.73638E+03 7.96529E+02 2.97799E+00
 -1       398 5.41351E+03 7.85666E+02 3.18819E+00
 -1       399 5.09506E+03 7.73794E+02 3.40865E+00
 -1       400 4.78143E+03 7.60864E+02 3.64425E+00
 -1       401 4.47305E+03 7.46837E+02 3.88278E+00
 -1       402 4.17038E+03 7.31674E+02 4.13647E+00
 -1       403 3.87386E+03 7.15318E+02 4.39975E+00
 -1       404 3.58399E+03 6.97729E+02 4.66481E+00
 -1       405 3.30126E+03 6.78868E+02 4.94817E+00
 -1       406 3.02619E+03 6.58677E+02 5.24444E+00
 -1       407 2.75931E+03 6.37124E+02 5.53918E+00
 -1       408 2.50117E+03 6.14166E+02 5.85511E+00
 -1       409 2.25233E+03 5.89743E+02 6.18421E+00
 -1       410 2.01340E+03 5.63822E+02 6.51188E+00
 -1       411 1.78498E+03 5.36360E+02 6.85215E+00
 -1       412 1.56769E+03 5.07300E+02 7.20819E+00
 -1       413 1.36217E+03 4.76610E+02 7.56564E+00
 -1       414 1.16907E+03 4.44236E+02 7.93679E+00
 -1       415 9.89076E+02 4.10144E+02 8.32446E+00
 -1       416 8.22876E+02 3.74289E+02 8.71498E+00
 -1       417 6.71168E+02 3.36641E+02 9.11236E+00
 -1       418 5.34630E+02 2.97146E+02 9.52123E+00
 -1       419 4.13902E+02 2.55723E+02 9.96369E+00
 -1       420 3.09291E+02 2.11901E+02 1.06899E+01
 -1       421 1.96137E+02 1.49010E+02 1.20708E+01
 -1       422 1.45346E+02 1.14392E+02 1.11776E+01
 -1       423 1.08571E+02 8.55148E+01 9.43839E+00
 -1       424 8.24835E+01 6.30875E+01 6.96627E+00
 -1       425 6.27697E+01 4.63668E+01 4.66941E+00
 -1       426 2.27635E+02 1.68283E+02 1.18771E+01
 -1       427 1.68968E+02 1.31067E+02 1.16962E+01
 -1       428 1.25306E+02 9.92132E+01 1.04357E+01
 -1       429 9.45308E+01 7.34829E+01 8.33237E+00
 -1       430 7.21664E+01 5.39588E+01 5.71029E+00
 -1       431 5.45676E+01 4.02012E+01 4.05080E+00
 -1       432 5.05911E+01-6.12352E+01 4.10612E+00
 -1       433 5.62142E+01-6.20558E+01 3.38076E+00
 -1       434 5.98279E+01-5.00127E+01 2.28374E+00
 -1       435 6.26225E+01-2.70819E+01 1.06848E+00
 -1       436 6.38560E+01 2.03983E-01-3.59420E-01
 -1       437 6.35033E+01 2.44194E+01-1.58381E+00
 -1       438 6.13036E+01 3.91457E+01-2.74610E+00
 -1       439 5.64027E+01 4.13463E+01-3.48026E+00
 -1       440 4.69931E+01-5.74545E+01 4.12667E+00
 -1       441 5.36931E+01-6.28696E+01 3.75640E+00
 -1       442 5.81674E+01-5.75237E+01 2.90632E+00
 -1       443 6.13499E+01-3.94075E+01 1.68434E+00
 -1       444 6.34076E+01-1.36421E+01 3.44571E-01
 -1       445 6.39199E+01 1.31249E+01-9.64862E-01
 -1       446 6.26547E+01 3.33771E+01-2.22242E+00
 -1       447 5.90618E+01 4.15476E+01-3.27964E+00
 -1       448 5.23188E+01 3.85783E+01-3.52961E+00
 -1       449 1.37682E+04-8.41557E+02 8.58078E-01
 -1       450 1.36067E+04-5.30953E+02 8.73280E-01
 -1       451 1.35236E+04-1.90901E+02 8.93868E-01
 -1       452 1.35236E+04 1.59133E+02 9.17963E-01
 -1       453 1.36067E+04 4.99120E+02 9.41673E-01
 -1       454 1.37682E+04 8.09632E+02 9.65666E-01
 -1       455 1.38756E+04-9.80163E+02 8.52477E-01
 -1       456 1.36782E+04-6.91100E+02 8.64925E-01
 -1       457 1.35550E+04-3.63418E+02 8.82902E-01
 -1       458 1.35131E+04-1.58787E+01 9.05596E-01
 -1       459 1.35550E+04 3.31624E+02 9.29566E-01
 -1       460 1.36781E+04 6.59220E+02 9.53313E-01
 -1       461 1.38755E+04 9.48206E+02 9.78295E-01
 -1       462 1.37368E+04 9.61765E+02 9.73318E-01
 -1       463 1.34605E+04 8.93917E+02 9.55117E-01
 -1       464 1.38700E+04 1.01212E+03 9.81921E-01
 -1       465 1.36000E+04 9.22324E+02 9.64178E-01
 -1       466 1.33192E+04 8.76820E+02 9.55796E-01
 -1       467 1.28246E+04 8.71109E+02 9.90931E-01
 -1       468 1.24721E+04 8.71064E+02 9.58919E-01
 -1       469 1.21194E+04 8.70915E+02 9.18758E-01
 -1       470 1.17668E+04 8.70623E+02 8.69394E-01
 -1       471 1.14141E+04 8.70146E+02 8.10166E-01
 -1       472 1.10617E+04 8.69447E+02 7.41504E-01
 -1       473 1.07094E+04 8.68477E+02 6.62928E-01
 -1       474 1.03575E+04 8.67194E+02 5.76344E-01
 -1       475 1.00061E+04 8.65552E+02 4.77430E-01
 -1       476 9.65530E+03 8.63507E+02 3.66993E-01
 -1       477 9.30532E+03 8.61016E+02 2.49315E-01
 -1       478 8.95631E+03 8.58030E+02 1.18354E-01
 -1       479 8.60850E+03 8.54504E+02-2.13880E-02
 -1       480 8.26211E+03 8.50399E+02-1.69068E-01
 -1       481 7.91737E+03 8.45667E+02-3.28526E-01
 -1       482 7.57453E+03 8.40260E+02-5.00838E-01
 -1       483 7.23390E+03 8.34137E+02-6.77319E-01
 -1       484 6.89574E+03 8.27254E+02-8.68108E-01
 -1       485 6.56038E+03 8.19563E+02-1.07336E+00
 -1       486 6.22815E+03 8.11023E+02-1.28348E+00
 -1       487 5.89938E+03 8.01587E+02-1.49916E+00
 -1       488 5.57445E+03 7.91205E+02-1.73136E+00
 -1       489 5.25374E+03 7.79839E+02-1.96986E+00
 -1       490 4.93764E+03 7.67447E+02-2.22253E+00
 -1       491 4.62658E+03 7.53976E+02-2.48331E+00
 -1       492 4.32102E+03 7.39387E+02-2.74998E+00
 -1       493 4.02136E+03 7.23628E+02-3.03242E+00
 -1       494 3.72810E+03 7.06663E+02-3.32713E+00
 -1       495 3.44175E+03 6.88445E+02-3.62624E+00
 -1       496 3.16277E+03 6.68926E+02-3.94102E+00
 -1       497 2.89171E+03 6.48064E+02-4.26254E+00
 -1       498 2.62915E+03 6.25812E+02-4.59070E+00
 -1       499 2.37557E+03 6.02124E+02-4.93651E+00
 -1       500 2.13163E+03 5.76958E+02-5.28754E+00
 -1       501 1.89789E+03 5.50269E+02-5.64481E+00
 -1       502 1.67494E+03 5.22017E+02-6.02109E+00
 -1       503 1.46344E+03 4.92152E+02-6.40742E+00
 -1       504 1.26406E+03 4.60622E+02-6.79888E+00
 -1       505 1.07744E+03 4.27403E+02-7.19935E+00
 -1       506 9.04263E+02 3.92429E+02-7.60744E+00
 -1       507 7.45200E+02 3.55678E+02-8.03323E+00
 -1       508 6.00996E+02 3.17118E+02-8.46686E+00
 -1       509 4.72289E+02 2.76659E+02-8.92298E+00
 -1       510 3.59663E+02 2.34190E+02-9.47239E+00
 -1       511 1.30009E+04 8.71104E+02 9.95272E-01
 -1       512 1.26484E+04 8.71097E+02 9.75934E-01
 -1       513 1.22958E+04 8.71004E+02 9.39994E-01
 -1       514 1.19431E+04 8.70788E+02 8.95677E-01
 -1       515 1.15904E+04 8.70409E+02 8.40940E-01
 -1       516 1.12379E+04 8.69827E+02 7.77599E-01
 -1       517 1.08855E+04 8.68997E+02 7.02551E-01
 -1       518 1.05334E+04 8.67876E+02 6.21955E-01
 -1       519 1.01817E+04 8.66420E+02 5.28322E-01
 -1       520 9.83061E+03 8.64581E+02 4.23533E-01
 -1       521 9.48020E+03 8.62318E+02 3.10232E-01
 -1       522 9.13068E+03 8.59587E+02 1.85073E-01
 -1       523 8.78224E+03 8.56335E+02 4.86036E-02
 -1       524 8.43511E+03 8.52525E+02-9.27318E-02
 -1       525 8.08951E+03 8.48114E+02-2.47202E-01
 -1       526 7.74570E+03 8.43047E+02-4.13899E-01
 -1       527 7.40393E+03 8.37287E+02-5.87627E-01
 -1       528 7.06450E+03 8.30793E+02-7.70511E-01
 -1       529 6.72769E+03 8.23508E+02-9.71349E-01
 -1       530 6.39385E+03 8.15398E+02-1.17812E+00
 -1       531 6.06331E+03 8.06423E+02-1.38984E+00
 -1       532 5.73642E+03 7.96513E+02-1.61412E+00
 -1       533 5.41354E+03 7.85643E+02-1.84902E+00
 -1       534 5.09509E+03 7.73776E+02-2.09283E+00
 -1       535 4.78146E+03 7.60845E+02-2.35510E+00
 -1       536 4.47309E+03 7.46820E+02-2.61393E+00
 -1       537 4.17042E+03 7.31655E+02-2.88979E+00
 -1       538 3.87390E+03 7.15295E+02-3.18078E+00
 -1       539 3.58403E+03 6.97709E+02-3.47477E+00
 -1       540 3.30130E+03 6.78850E+02-3.78184E+00
 -1       541 3.02622E+03 6.58661E+02-4.10287E+00
 -1       542 2.75934E+03 6.37109E+02-4.42436E+00
 -1       543 2.50120E+03 6.14149E+02-4.76110E+00
 -1       544 2.25237E+03 5.89723E+02-5.11449E+00
 -1       545 2.01345E+03 5.63800E+02-5.46449E+00
 -1       546 1.78503E+03 5.36340E+02-5.83012E+00
 -1       547 1.56773E+03 5.07281E+02-6.21366E+00
 -1       548 1.36220E+03 4.76591E+02-6.60407E+00
 -1       549 1.16911E+03 4.44220E+02-6.99467E+00
 -1       550 9.89117E+02 4.10128E+02-7.39929E+00
 -1       551 8.22920E+02 3.74268E+02-7.81837E+00
 -1       552 6.71212E+02 3.36618E+02-8.25067E+00
 -1       553 5.34672E+02 2.97124E+02-8.69315E+00
 -1       554 4.13947E+02 2.55690E+02-9.16837E+00
 -1       555 3.09315E+02 2.11880E+02-9.93520E+00
 -1       556 1.96145E+02 1.48990E+02-1.13985E+01
 -1       557 1.45398E+02 1.14300E+02-1.05490E+01
 -1       558 1.08541E+02 8.53889E+01-8.91820E+00
 -1       559 8.23784E+01 6.29998E+01-6.66702E+00
 -1       560 6.27614E+01 4.61863E+01-4.47817E+00
 -1       561 2.27657E+02 1.68251E+02-1.11769E+01
 -1       562 1.68949E+02 1.31029E+02-1.10405E+01
 -1       563 1.25303E+02 9.91238E+01-9.83669E+00
 -1       564 9.44683E+01 7.33538E+01-7.92998E+00
 -1       565 7.21162E+01 5.38472E+01-5.44644E+00
 -1       566 5.44780E+01 3.99996E+01-3.88206E+00
 -1       567 0.00000E+00 0.00000E+00 0.00000E+00
 -1       568 0.00000E+00 0.00000E+00 0.00000E+00
 -1       569 0.00000E+00 0.00000E+00 0.00000E+00
 -1       570 0.00000E+00 0.00000E+00 0.00000E+00
 -1       571 0.00000E+00 0.00000E+00 0.00000E+00
 -1       572-1.13933E+00 5.13691E+00-1.41900E+00
 -1       573-4.83229E-01 1.03691E+01-1.56064E+00
 -1       574 1.63941E+00 1.58137E+01-1.50158E+00
 -1       575 5.39019E+00 2.09612E+01-1.39775E+00
 -1       576 1.06141E+01 2.52855E+01-1.27656E+00
 -1       577 1.68528E+01 2.83112E+01-1.15529E+00
 -1       578 2.34333E+01 2.99599E+01-1.08054E+00
 -1       579 2.97865E+01 3.05001E+01-1.08693E+00
 -1       580 3.55897E+01 3.05207E+01-1.26239E+00
 -1       581 4.06525E+01 3.09666E+01-1.99791E+00
 -1       582 4.56567E+01 3.30060E+01-3.79214E+00
 -1       583 5.11422E+01 3.50522E+01-4.22819E+00
 -1       584 5.75578E+01 3.21167E+01-2.59173E+00
 -1       585 6.23290E+01 1.99492E+01-8.90345E-01
 -1       586 6.45413E+01 7.14410E-01-2.35437E-01
 -1       587 6.35084E+01-2.19047E+01 5.63671E-01
 -1       588 5.96963E+01-4.11715E+01 1.39911E+00
 -1       589 5.36722E+01-5.29314E+01 3.09577E+00
 -1       590 4.71755E+01-5.52363E+01 4.58690E+00
 -1       591 4.20163E+01-5.16697E+01 4.88590E+00
 -1       592 3.81527E+01-4.68826E+01 2.81701E+00
 -1       593 3.52471E+01-4.43064E+01 1.75385E+00
 -1       594 3.22875E+01-4.31154E+01 1.28230E+00
 -1       595 2.89629E+01-4.27187E+01 1.00539E+00
 -1       596 2.48446E+01-4.26520E+01 8.27287E-01
 -1       597 1.96910E+01-4.22819E+01 7.31811E-01
 -1       598 1.35638E+01-4.09383E+01 7.36735E-01
 -1       599 6.98248E+00-3.80206E+01 8.32183E-01
 -1       600 8.24436E-01-3.32777E+01 9.99326E-01
 -1       601-3.90601E+00-2.70322E+01 1.17338E+00
 -1       602-6.58710E+00-2.01198E+01 1.33211E+00
 -1       603-7.10443E+00-1.34704E+01 1.44165E+00
 -1       604-5.89229E+00-7.78647E+00 1.48343E+00
 -1       605-3.57901E+00-3.34107E+00 1.28364E+00
 -1       606-7.08025E-01 2.60803E+00-9.50085E-01
 -1       607-9.62275E-01 7.71177E+00-1.52250E+00
 -1       608 3.76608E-01 1.30982E+01-1.54375E+00
 -1       609 3.31381E+00 1.84623E+01-1.45343E+00
 -1       610 7.82833E+00 2.32621E+01-1.33707E+00
 -1       611 1.36425E+01 2.69670E+01-1.21418E+00
 -1       612 2.01379E+01 2.93026E+01-1.11209E+00
 -1       613 2.66624E+01 3.03330E+01-1.06684E+00
 -1       614 3.27545E+01 3.05273E+01-1.14858E+00
 -1       615 3.82050E+01 3.06148E+01-1.54004E+00
 -1       616 4.31489E+01 3.17826E+01-2.75536E+00
 -1       617 4.82255E+01 3.43600E+01-4.40398E+00
 -1       618 5.43729E+01 3.44047E+01-3.29466E+00
 -1       619 6.01398E+01 2.68997E+01-1.47594E+00
 -1       620 6.36175E+01 1.09346E+01-3.57469E-01
 -1       621 6.44177E+01-1.07889E+01 2.18215E-01
 -1       622 6.19226E+01-3.22324E+01 8.74331E-01
 -1       623 5.70090E+01-4.82068E+01 1.93801E+00
 -1       624 5.05514E+01-5.48235E+01 3.70967E+00
 -1       625 4.43476E+01-5.39702E+01 5.13915E+00
 -1       626 3.98854E+01-4.90791E+01 3.76370E+00
 -1       627 3.66634E+01-4.53838E+01 2.17491E+00
 -1       628 3.37835E+01-4.35791E+01 1.47754E+00
 -1       629 3.06908E+01-4.28475E+01 1.13007E+00
 -1       630 2.70220E+01-4.26824E+01 9.06182E-01
 -1       631 2.23968E+01-4.25431E+01 7.66902E-01
 -1       632 1.67226E+01-4.17747E+01 7.21441E-01
 -1       633 1.02783E+01-3.97047E+01 7.73716E-01
 -1       634 3.78426E+00-3.58709E+01 9.09867E-01
 -1       635-1.77852E+00-3.02988E+01 1.08812E+00
 -1       636-5.51687E+00-2.36073E+01 1.26028E+00
 -1       637-7.09493E+00-1.67154E+01 1.39428E+00
 -1       638-6.67705E+00-1.04886E+01 1.47852E+00
 -1       639-4.83118E+00-5.40604E+00 1.44192E+00
 -1       640-1.90558E+00-1.63485E+00 8.77988E-01
 -1       641 0.00000E+00 0.00000E+00 0.00000E+00
 -1       642 0.00000E+00 0.00000E+00 0.00000E+00
 -1       643 0.00000E+00 0.00000E+00 0.00000E+00
 -1       644 0.00000E+00 0.00000E+00 0.00000E+00
 -1       645 0.00000E+00 0.00000E+00 0.00000E+00
 -1       646-1.08989E+00 5.14274E+00 1.34232E+00
 -1       647-4.75583E-01 1.03643E+01 1.54553E+00
 -1       648 1.65063E+00 1.58093E+01 1.47038E+00
 -1       649 5.41690E+00 2.09633E+01 1.34483E+00
 -1       650 1.06521E+01 2.52856E+01 1.20461E+00
 -1       651 1.68818E+01 2.82923E+01 1.07879E+00
 -1       652 2.34859E+01 2.99631E+01 1.00020E+00
 -1       653 2.98502E+01 3.05040E+01 1.01781E+00
 -1       654 3.56430E+01 3.05040E+01 1.21944E+00
 -1       655 4.07385E+01 3.09899E+01 1.98876E+00
 -1       656 4.57466E+01 3.29666E+01 3.80772E+00
 -1       657 5.12211E+01 3.50032E+01 4.39677E+00
 -1       658 5.76202E+01 3.20761E+01 2.71328E+00
 -1       659 6.25280E+01 1.98359E+01 8.54394E-01
 -1       660 6.47130E+01 7.09733E-01 6.18221E-01
 -1       661 6.37244E+01-2.17732E+01 1.54395E-01
 -1       662 5.98512E+01-4.09875E+01-3.82954E-01
 -1       663 5.38206E+01-5.26296E+01-2.09228E+00
 -1       664 4.73283E+01-5.50390E+01-3.72019E+00
 -1       665 4.21920E+01-5.15400E+01-3.95204E+00
 -1       666 3.83164E+01-4.67474E+01-1.84347E+00
 -1       667 3.54150E+01-4.41644E+01-7.60778E-01
 -1       668 3.24532E+01-4.29483E+01-2.95968E-01
 -1       669 2.91429E+01-4.25714E+01-6.94119E-02
 -1       670 2.50218E+01-4.24970E+01 2.98950E-02
 -1       671 1.98597E+01-4.21260E+01 1.23198E-02
 -1       672 1.37221E+01-4.07935E+01-1.35448E-01
 -1       673 7.12725E+00-3.78873E+01-3.82667E-01
 -1       674 9.46868E-01-3.31625E+01-7.05116E-01
 -1       675-3.82004E+00-2.69282E+01-1.02029E+00
 -1       676-6.53297E+00-2.00312E+01-1.28746E+00
 -1       677-7.07837E+00-1.34014E+01-1.45748E+00
 -1       678-5.88301E+00-7.74257E+00-1.51527E+00
 -1       679-3.55047E+00-3.34105E+00-1.29173E+00
 -1       680-6.82963E-01 2.61113E+00 9.36082E-01
 -1       681-9.63481E-01 7.70473E+00 1.50070E+00
 -1       682 3.81440E-01 1.30916E+01 1.52010E+00
 -1       683 3.33105E+00 1.84603E+01 1.41127E+00
 -1       684 7.86124E+00 2.32599E+01 1.27388E+00
 -1       685 1.36794E+01 2.69628E+01 1.14001E+00
 -1       686 2.01808E+01 2.92999E+01 1.03340E+00
 -1       687 2.67219E+01 3.03361E+01 9.89868E-01
 -1       688 3.28206E+01 3.05248E+01 1.08676E+00
 -1       689 3.82694E+01 3.06357E+01 1.51478E+00
 -1       690 4.32543E+01 3.17638E+01 2.78452E+00
 -1       691 4.83502E+01 3.43495E+01 4.49427E+00
 -1       692 5.44542E+01 3.43121E+01 3.48280E+00
 -1       693 6.02790E+01 2.68039E+01 1.44830E+00
 -1       694 6.38241E+01 1.08527E+01 5.29170E-01
 -1       695 6.45871E+01-1.06963E+01 3.02060E-01
 -1       696 6.21254E+01-3.21040E+01 2.05644E-02
 -1       697 5.71374E+01-4.79898E+01-9.11463E-01
 -1       698 5.06941E+01-5.46130E+01-2.69841E+00
 -1       699 4.45317E+01-5.38243E+01-4.22865E+00
 -1       700 4.00491E+01-4.89494E+01-2.80857E+00
 -1       701 3.68287E+01-4.52448E+01-1.18797E+00
 -1       702 3.39500E+01-4.34324E+01-4.82982E-01
 -1       703 3.08724E+01-4.26890E+01-1.63011E-01
 -1       704 2.71985E+01-4.25285E+01-5.09119E-03
 -1       705 2.25700E+01-4.23888E+01 3.75753E-02
 -1       706 1.68860E+01-4.16232E+01-4.85003E-02
 -1       707 1.04310E+01-3.95653E+01-2.46279E-01
 -1       708 3.91996E+00-3.57455E+01-5.38833E-01
 -1       709-1.67472E+00-3.01894E+01-8.67317E-01
 -1       710-5.44715E+00-2.35105E+01-1.16664E+00
 -1       711-7.05488E+00-1.66370E+01-1.38605E+00
 -1       712-6.66142E+00-1.04307E+01-1.50670E+00
 -1       713-4.82939E+00-5.37706E+00-1.46241E+00
 -1       714-1.89310E+00-1.63182E+00-8.86197E-01
 -1       715 4.89913E+01 3.61706E+01 4.02208E-02
 -1       716 4.89330E+01 3.61096E+01 1.76621E+00
 -1       717 4.87464E+01 3.59821E+01-1.67649E+00
 -1       718 1.53270E+04 1.40520E+03 1.06039E+00
 -1       719 1.56569E+04 1.28006E+03 1.06348E+00
 -1       720 1.59474E+04 1.07961E+03 1.06024E+00
 -1       721 1.61814E+04 8.15471E+02 1.05092E+00
 -1       722 1.63454E+04 5.03016E+02 1.03607E+00
 -1       723 1.64298E+04 1.60402E+02 1.01654E+00
 -1       724 1.64298E+04-1.92456E+02 9.93474E-01
 -1       725 1.63453E+04-5.35053E+02 9.68228E-01
 -1       726 1.61814E+04-8.47479E+02 9.42229E-01
 -1       727 1.59474E+04-1.11158E+03 9.17066E-01
 -1       728 1.56570E+04-1.31201E+03 8.94113E-01
 -1       729 1.53271E+04-1.43713E+03 8.74740E-01
 -1       730 1.49768E+04-1.47966E+03 8.60165E-01
 -1       731 1.46266E+04-1.43714E+03 8.50982E-01
 -1       732 1.42966E+04-1.31202E+03 8.47990E-01
 -1       733 1.40062E+04-1.11156E+03 8.50576E-01
 -1       734 1.37722E+04-8.47418E+02 8.58230E-01
 -1       735 1.36082E+04-5.34935E+02 8.71724E-01
 -1       736 1.35238E+04-1.92290E+02 8.88928E-01
 -1       737 1.35238E+04 1.60580E+02 9.10652E-01
 -1       738 1.36082E+04 5.03153E+02 9.38084E-01
 -1       739 1.37722E+04 8.15544E+02 9.66224E-01
 -1       740 1.40061E+04 1.07963E+03 9.93391E-01
 -1       741 1.42965E+04 1.28006E+03 1.01699E+00
 -1       742 1.46264E+04 1.40519E+03 1.03652E+00
 -1       743 1.51531E+04 1.43706E+03 1.05660E+00
 -1       744 1.54958E+04 1.35261E+03 1.06273E+00
 -1       745 1.58082E+04 1.18862E+03 1.06264E+00
 -1       746 1.60724E+04 9.54615E+02 1.05634E+00
 -1       747 1.62728E+04 6.64202E+02 1.04414E+00
 -1       748 1.63979E+04 3.34263E+02 1.02683E+00
 -1       749 1.64405E+04-1.60287E+01 1.00537E+00
 -1       750 1.63979E+04-3.66309E+02 9.81030E-01
 -1       751 1.62728E+04-6.96227E+02 9.55231E-01
 -1       752 1.60724E+04-9.86606E+02 9.29477E-01
 -1       753 1.58083E+04-1.22058E+03 9.05225E-01
 -1       754 1.54959E+04-1.38455E+03 8.83923E-01
 -1       755 1.51533E+04-1.46899E+03 8.66817E-01
 -1       756 1.48004E+04-1.46899E+03 8.54844E-01
 -1       757 1.44578E+04-1.38455E+03 8.48641E-01
 -1       758 1.41454E+04-1.22057E+03 8.48582E-01
 -1       759 1.38812E+04-9.86568E+02 8.53680E-01
 -1       760 1.36808E+04-6.96138E+02 8.64248E-01
 -1       761 1.35556E+04-3.66166E+02 8.79983E-01
 -1       762 1.35131E+04-1.58491E+01 8.99118E-01
 -1       763 1.35556E+04 3.34424E+02 9.24181E-01
 -1       764 1.36807E+04 6.64308E+02 9.52201E-01
 -1       765 1.38812E+04 9.54661E+02 9.80082E-01
 -1       766 1.41452E+04 1.18862E+03 1.00579E+00
 -1       767 1.44577E+04 1.35260E+03 1.02729E+00
 -1       768 1.48003E+04 1.43705E+03 1.04457E+00
 -1       769 1.49767E+04 1.44772E+03 1.05049E+00
 -1       770 1.49767E+04 1.44771E+03 1.04985E+00
 -1       771 1.49767E+04 1.44772E+03 1.05084E+00
 -1       772 1.49767E+04 1.44771E+03 1.05017E+00
 -1       773 1.49768E+04 1.44770E+03 1.04949E+00
 -1       774 1.53271E+04 1.40516E+03 1.05911E+00
 -1       775 1.56570E+04 1.28003E+03 1.06297E+00
 -1       776 1.59474E+04 1.07957E+03 1.06049E+00
 -1       777 1.61814E+04 8.15440E+02 1.05181E+00
 -1       778 1.63454E+04 5.02985E+02 1.03741E+00
 -1       779 1.64299E+04 1.60371E+02 1.01812E+00
 -1       780 1.64299E+04-1.92488E+02 9.95086E-01
 -1       781 1.63454E+04-5.35084E+02 9.69665E-01
 -1       782 1.61814E+04-8.47510E+02 9.43323E-01
 -1       783 1.59475E+04-1.11161E+03 9.17554E-01
 -1       784 1.56571E+04-1.31204E+03 8.93899E-01
 -1       785 1.53272E+04-1.43716E+03 8.73764E-01
 -1       786 1.49769E+04-1.47969E+03 8.58196E-01
 -1       787 1.46266E+04-1.43717E+03 8.48264E-01
 -1       788 1.42967E+04-1.31205E+03 8.44382E-01
 -1       789 1.40063E+04-1.11159E+03 8.47480E-01
 -1       790 1.37723E+04-8.47449E+02 8.57741E-01
 -1       791 1.36083E+04-5.34967E+02 8.73481E-01
 -1       792 1.35238E+04-1.92322E+02 8.94970E-01
 -1       793 1.35238E+04 1.60549E+02 9.19562E-01
 -1       794 1.36083E+04 5.03122E+02 9.42621E-01
 -1       795 1.37722E+04 8.15513E+02 9.66667E-01
 -1       796 1.40062E+04 1.07960E+03 9.90432E-01
 -1       797 1.42966E+04 1.28003E+03 1.01350E+00
 -1       798 1.46265E+04 1.40516E+03 1.03357E+00
 -1       799 1.51532E+04 1.43703E+03 1.05479E+00
 -1       800 1.54958E+04 1.35258E+03 1.06181E+00
 -1       801 1.58083E+04 1.18859E+03 1.06253E+00
 -1       802 1.60724E+04 9.54584E+02 1.05690E+00
 -1       803 1.62729E+04 6.64171E+02 1.04527E+00
 -1       804 1.63980E+04 3.34231E+02 1.02832E+00
 -1       805 1.64405E+04-1.60599E+01 1.00699E+00
 -1       806 1.63980E+04-3.66340E+02 9.82579E-01
 -1       807 1.62729E+04-6.96258E+02 9.56545E-01
 -1       808 1.60724E+04-9.86638E+02 9.30252E-01
 -1       809 1.58083E+04-1.22061E+03 9.05383E-01
 -1       810 1.54959E+04-1.38458E+03 8.83294E-01
 -1       811 1.51533E+04-1.46902E+03 8.65341E-01
 -1       812 1.48005E+04-1.46902E+03 8.52480E-01
 -1       813 1.44579E+04-1.38459E+03 8.45545E-01
 -1       814 1.41454E+04-1.22061E+03 8.44941E-01
 -1       815 1.38813E+04-9.86600E+02 8.51829E-01
 -1       816 1.36808E+04-6.96169E+02 8.65021E-01
 -1       817 1.35557E+04-3.66197E+02 8.83530E-01
 -1       818 1.35131E+04-1.58804E+01 9.07086E-01
 -1       819 1.35557E+04 3.34393E+02 9.30907E-01
 -1       820 1.36808E+04 6.64277E+02 9.54556E-01
 -1       821 1.38812E+04 9.54629E+02 9.78640E-01
 -1       822 1.41453E+04 1.18859E+03 1.00210E+00
 -1       823 1.44577E+04 1.35257E+03 1.02404E+00
 -1       824 1.48003E+04 1.43702E+03 1.04193E+00
 -1       825 1.39987E+04 1.07296E+03 9.91237E-01
 -1       826 1.39987E+04 1.07296E+03 9.90858E-01
 -1       827 1.39987E+04 1.07296E+03 9.91613E-01
 -1       828 2.64825E+02 1.88664E+02 3.64794E-01
 -1       829 2.64430E+02 1.88818E+02 5.85123E+00
 -1       830 2.64438E+02 1.88810E+02-5.12433E+00
 -1       831 1.31770E+04 8.71100E+02 9.49201E-01
 -1       832 1.31770E+04 8.71100E+02 9.34902E-01
 -1       833 1.31770E+04 8.71091E+02 9.62463E-01
 -1       834 0.00000E+00 0.00000E+00 0.00000E+00
 -1       835 0.00000E+00 0.00000E+00 0.00000E+00
 -1       836 0.00000E+00 0.00000E+00 0.00000E+00
 -1       837 0.00000E+00 0.00000E+00 0.00000E+00
 -1       838 0.00000E+00 0.00000E+00 0.00000E+00
 -1       839 0.00000E+00 0.00000E+00 0.00000E+00
 -1       840 0.00000E+00 0.00000E+00 0.00000E+00
 -1       841 0.00000E+00 0.00000E+00 0.00000E+00
 -1       842 0.00000E+00 0.00000E+00 0.00000E+00
 -1       843 0.00000E+00 0.00000E+00 0.00000E+00
 -1       844 0.00000E+00 0.00000E+00 0.00000E+00
 -1       845 0.00000E+00 0.00000E+00 0.00000E+00
 -1       846 0.00000E+00 0.00000E+00 0.00000E+00
 -1       847 0.00000E+00 0.00000E+00 0.00000E+00
 -1       848 0.00000E+00 0.00000E+00 0.00000E+00
 -1       849 0.00000E+00 0.00000E+00 0.00000E+00
 -1       850 0.00000E+00 0.00000E+00 0.00000E+00
 -1       851 0.00000E+00 0.00000E+00 0.00000E+00
 -1       852 0.00000E+00 0.00000E+00 0.00000E+00
 -1       853 0.00000E+00 0.00000E+00 0.00000E+00
 -1       854 0.00000E+00 0.00000E+00 0.00000E+00
 -1       855 0.00000E+00 0.00000E+00 0.00000E+00
 -1       856 0.00000E+00 0.00000E+00 0.00000E+00
 -1       857 0.00000E+00 0.00000E+00 0.00000E+00
 -1       858 0.00000E+00 0.00000E+00 0.00000E+00
 -1       859 0.00000E+00 0.00000E+00 0.00000E+00
 -1       860 0.00000E+00 0.00000E+00 0.00000E+00
 -1       861 0.00000E+00 0.00000E+00 0.00000E+00
 -1       862 0.00000E+00 0.00000E+00 0.00000E+00
 -1       863 0.00000E+00 0.00000E+00 0.00000E+00
 -1       864 0.00000E+00 0.00000E+00 0.00000E+00
 -1       865 0.00000E+00 0.00000E+00 0.00000E+00
 -1       866 1.34039E+01-1.70623E+01-4.06937E+00
 -1       867 1.36693E+01-2.37123E+01-9.43493E-01
 -1       868 1.18600E+01-2.42943E+01 1.26833E+00
 -1       869 9.62313E+00-1.78383E+01 1.61226E+00
 -1       870 8.79094E+00-6.70067E+00 4.38767E-01
 -1       871 8.99699E+00 3.31908E+00-3.06353E-01
 -1       872 8.88835E+00 6.58178E+00 1.14520E+00
 -1       873 1.03024E+01-1.01275E+01-4.71688E+00
 -1       874 1.40149E+01-2.09200E+01-2.53881E+00
 -1       875 1.28473E+01-2.48722E+01 2.99048E-01
 -1       876 1.06253E+01-2.19857E+01 1.65036E+00
 -1       877 9.06196E+00-1.25923E+01 1.06309E+00
 -1       878 8.81214E+00-1.16395E+00-6.74907E-02
 -1       879 9.07275E+00 5.94255E+00 1.68922E-01
 -1       880 7.07708E+00 5.02815E+00 2.37291E+00
 -1       881 0.00000E+00 0.00000E+00 0.00000E+00
 -1       882 0.00000E+00 0.00000E+00 0.00000E+00
 -1       883 0.00000E+00 0.00000E+00 0.00000E+00
 -1       884 0.00000E+00 0.00000E+00 0.00000E+00
 -1       885 0.00000E+00 0.00000E+00 0.00000E+00
 -1       886 0.00000E+00 0.00000E+00 0.00000E+00
 -1       887 0.00000E+00 0.00000E+00 0.00000E+00
 -1       888 0.00000E+00 0.00000E+00 0.00000E+00
 -1       889 0.00000E+00 0.00000E+00 0.00000E+00
 -1       890 1.32980E+01-1.71631E+01 4.24082E+00
 -1       891 1.34926E+01-2.37906E+01 1.23977E+00
 -1       892 1.16096E+01-2.44837E+01-1.11866E+00
 -1       893 9.60444E+00-1.80364E+01-1.41543E+00
 -1       894 8.56578E+00-6.80044E+00-3.22155E-01
 -1       895 8.90856E+00 3.22624E+00 3.42798E-01
 -1       896 8.85452E+00 6.47686E+00-1.17262E+00
 -1       897 9.97119E+00-1.04348E+01 4.60597E+00
 -1       898 1.38491E+01-2.10511E+01 2.65303E+00
 -1       899 1.26667E+01-2.50013E+01-1.37719E-01
 -1       900 1.05188E+01-2.20586E+01-1.50046E+00
 -1       901 8.96513E+00-1.27250E+01-9.57656E-01
 -1       902 8.67911E+00-1.23596E+00 1.77909E-01
 -1       903 9.04243E+00 5.87841E+00-1.59327E-01
 -1       904 6.92014E+00 4.98033E+00-2.37574E+00
 -1       905 0.00000E+00 0.00000E+00 0.00000E+00
 -1       906 0.00000E+00 0.00000E+00 0.00000E+00
 -1       907 0.00000E+00 0.00000E+00 0.00000E+00
 -1       908 0.00000E+00 0.00000E+00 0.00000E+00
 -1       909 0.00000E+00 0.00000E+00 0.00000E+00
 -1       910 1.59371E+04-7.42004E+02 9.41651E-01
 -1       911 1.57028E+04-9.76314E+02 9.17828E-01
 -1       912 1.54455E+04-1.12485E+03 8.98533E-01
 -1       913 1.51254E+04-1.21062E+03 8.81293E-01
 -1       914 1.48283E+04-1.21062E+03 8.70223E-01
 -1       915 1.45082E+04-1.12483E+03 8.64249E-01
 -1       916 1.42509E+04-9.76276E+02 8.64937E-01
 -1       917 1.40165E+04-7.41925E+02 8.72450E-01
 -1       918 1.38680E+04-4.84545E+02 8.86330E-01
 -1       919 1.37822E+04-1.64402E+02 9.05770E-01
 -1       920 1.37821E+04 1.32695E+02 9.26158E-01
 -1       921 1.38679E+04 4.52773E+02 9.49144E-01
 -1       922 1.40164E+04 7.10077E+02 9.67973E-01
 -1       923 1.42507E+04 9.44369E+02 9.90326E-01
 -1       924 1.45081E+04 1.09289E+03 1.00880E+00
 -1       925 1.48282E+04 1.17867E+03 1.02596E+00
 -1       926 1.51252E+04 1.17866E+03 1.03702E+00
 -1       927 1.54454E+04 1.09288E+03 1.04310E+00
 -1       928 1.57027E+04 9.44323E+02 1.04304E+00
 -1       929 1.59371E+04 7.09985E+02 1.03632E+00
 -1       930 1.60856E+04 4.52630E+02 1.02510E+00
 -1       931 1.61714E+04 1.32516E+02 1.00736E+00
 -1       932 1.61714E+04-1.64571E+02 9.88007E-01
 -1       933 1.60856E+04-4.84670E+02 9.63988E-01
 -1       934 1.48282E+04 1.17864E+03 1.02880E+00
 -1       935 1.51253E+04 1.17863E+03 1.03867E+00
 -1       936 1.54454E+04 1.09284E+03 1.04397E+00
 -1       937 1.57028E+04 9.44292E+02 1.04276E+00
 -1       938 1.59371E+04 7.09953E+02 1.03540E+00
 -1       939 1.60857E+04 4.52598E+02 1.02346E+00
 -1       940 1.61715E+04 1.32484E+02 1.00544E+00
 -1       941 1.61715E+04-1.64602E+02 9.86023E-01
 -1       942 1.60857E+04-4.84701E+02 9.62209E-01
 -1       943 1.59372E+04-7.42035E+02 9.40503E-01
 -1       944 1.57029E+04-9.76346E+02 9.17264E-01
 -1       945 1.54455E+04-1.12488E+03 8.99082E-01
 -1       946 1.51254E+04-1.21065E+03 8.82616E-01
 -1       947 1.48284E+04-1.21065E+03 8.72768E-01
 -1       948 1.45083E+04-1.12487E+03 8.67399E-01
 -1       949 1.42509E+04-9.76307E+02 8.68018E-01
 -1       950 1.40166E+04-7.41957E+02 8.74536E-01
 -1       951 1.38680E+04-4.84576E+02 8.83763E-01
 -1       952 1.37822E+04-1.64433E+02 8.99998E-01
 -1       953 1.37822E+04 1.32664E+02 9.18411E-01
 -1       954 1.38680E+04 4.52742E+02 9.43212E-01
 -1       955 1.40165E+04 7.10046E+02 9.68423E-01
 -1       956 1.42508E+04 9.44337E+02 9.93148E-01
 -1       957 1.45081E+04 1.09286E+03 1.01219E+00
 -1       958 1.57886E+04-8.27791E+02 9.30439E-01
 -1       959 1.57886E+04-8.27801E+02 9.30085E-01
 -1       960 1.57886E+04-8.27786E+02 9.30602E-01
 -1       961 1.57886E+04-8.27796E+02 9.30259E-01
 -1       962 1.57886E+04-8.27806E+02 9.29916E-01
 -1       963 1.60857E+04-6.56236E+02 9.52015E-01
 -1       964 1.60857E+04-6.56247E+02 9.51768E-01
 -1       965 1.60856E+04-6.56231E+02 9.52214E-01
 -1       966 1.60857E+04-6.56241E+02 9.51895E-01
 -1       967 1.60857E+04-6.56252E+02 9.51580E-01
 -1       968 1.60857E+04-3.13120E+02 9.74693E-01
 -1       969 1.60857E+04-3.13131E+02 9.73931E-01
 -1       970 1.60856E+04-3.13115E+02 9.75060E-01
 -1       971 1.60857E+04-3.13125E+02 9.74304E-01
 -1       972 1.60857E+04-3.13136E+02 9.73545E-01
 -1       973 1.62572E+04-1.60382E+01 9.99892E-01
 -1       974 1.62572E+04-1.60485E+01 9.99575E-01
 -1       975 1.62572E+04-1.60333E+01 1.00014E+00
 -1       976 1.62572E+04-1.60430E+01 9.99735E-01
 -1       977 1.62572E+04-1.60540E+01 9.99338E-01
 -1       978 1.60856E+04 2.81053E+02 1.01344E+00
 -1       979 1.60857E+04 2.81042E+02 1.01272E+00
 -1       980 1.60856E+04 2.81057E+02 1.01380E+00
 -1       981 1.60857E+04 2.81048E+02 1.01308E+00
 -1       982 1.60857E+04 2.81037E+02 1.01236E+00
 -1       983 1.60856E+04 6.24189E+02 1.03560E+00
 -1       984 1.60857E+04 6.24179E+02 1.03538E+00
 -1       985 1.60856E+04 6.24194E+02 1.03576E+00
 -1       986 1.60857E+04 6.24184E+02 1.03549E+00
 -1       987 1.60857E+04 6.24173E+02 1.03522E+00
 -1       988 1.57885E+04 7.95761E+02 1.03634E+00
 -1       989 1.57886E+04 7.95750E+02 1.03610E+00
 -1       990 1.57885E+04 7.95766E+02 1.03646E+00
 -1       991 1.57885E+04 7.95756E+02 1.03622E+00
 -1       992 1.57886E+04 7.95745E+02 1.03598E+00
 -1       993 1.56170E+04 1.09286E+03 1.04956E+00
 -1       994 1.56170E+04 1.09285E+03 1.04961E+00
 -1       995 1.56170E+04 1.09287E+03 1.04953E+00
 -1       996 1.56170E+04 1.09286E+03 1.04958E+00
 -1       997 1.56170E+04 1.09285E+03 1.04964E+00
 -1       998 1.52738E+04 1.09287E+03 1.03723E+00
 -1       999 1.52738E+04 1.09286E+03 1.03775E+00
 -1      1000 1.52738E+04 1.09287E+03 1.03695E+00
 -1      1001 1.52738E+04 1.09286E+03 1.03749E+00
 -1      1002 1.52738E+04 1.09285E+03 1.03802E+00
 -1      1003 1.49767E+04 1.26444E+03 1.03803E+00
 -1      1004 1.49767E+04 1.26443E+03 1.03841E+00
 -1      1005 1.49767E+04 1.26444E+03 1.03775E+00
 -1      1006 1.49767E+04 1.26443E+03 1.03820E+00
 -1      1007 1.49768E+04 1.26442E+03 1.03869E+00
 -1      1008 1.46796E+04 1.09288E+03 1.01590E+00
 -1      1009 1.46797E+04 1.09287E+03 1.01720E+00
 -1      1010 1.46796E+04 1.09288E+03 1.01526E+00
 -1      1011 1.46796E+04 1.09287E+03 1.01655E+00
 -1      1012 1.46797E+04 1.09286E+03 1.01783E+00
 -1      1013 1.43365E+04 1.09289E+03 1.00427E+00
 -1      1014 1.43365E+04 1.09288E+03 1.00462E+00
 -1      1015 1.43365E+04 1.09289E+03 1.00384E+00
 -1      1016 1.43365E+04 1.09288E+03 1.00445E+00
 -1      1017 1.43365E+04 1.09287E+03 1.00506E+00
 -1      1018 1.41650E+04 7.95835E+02 9.78933E-01
 -1      1019 1.41650E+04 7.95824E+02 9.79127E-01
 -1      1020 1.41650E+04 7.95840E+02 9.78572E-01
 -1      1021 1.41650E+04 7.95829E+02 9.79024E-01
 -1      1022 1.41650E+04 7.95819E+02 9.79457E-01
 -1      1023 1.38679E+04 6.24299E+02 9.57608E-01
 -1      1024 1.38679E+04 6.24288E+02 9.57141E-01
 -1      1025 1.38679E+04 6.24305E+02 9.58104E-01
 -1      1026 1.38679E+04 6.24293E+02 9.57359E-01
 -1      1027 1.38679E+04 6.24284E+02 9.56635E-01
 -1      1028 1.38679E+04 2.81213E+02 9.36282E-01
 -1      1029 1.38679E+04 2.81203E+02 9.33717E-01
 -1      1030 1.38679E+04 2.81220E+02 9.37701E-01
 -1      1031 1.38679E+04 2.81207E+02 9.34976E-01
 -1      1032 1.38680E+04 2.81199E+02 9.32276E-01
 -1      1033 1.36964E+04-1.58641E+01 9.10185E-01
 -1      1034 1.36964E+04-1.58748E+01 9.08949E-01
 -1      1035 1.36964E+04-1.58566E+01 9.10889E-01
 -1      1036 1.36964E+04-1.58703E+01 9.09624E-01
 -1      1037 1.36964E+04-1.58775E+01 9.08188E-01
 -1      1038 1.38680E+04-3.12974E+02 8.97121E-01
 -1      1039 1.38680E+04-3.12984E+02 8.95372E-01
 -1      1040 1.38680E+04-3.12968E+02 8.98065E-01
 -1      1041 1.38680E+04-3.12980E+02 8.96256E-01
 -1      1042 1.38680E+04-3.12988E+02 8.94419E-01
 -1      1043 1.38680E+04-6.56142E+02 8.73813E-01
 -1      1044 1.38680E+04-6.56153E+02 8.73881E-01
 -1      1045 1.38680E+04-6.56137E+02 8.73848E-01
 -1      1046 1.38680E+04-6.56148E+02 8.73849E-01
 -1      1047 1.38680E+04-6.56158E+02 8.73848E-01
 -1      1048 1.41651E+04-8.27727E+02 8.72733E-01
 -1      1049 1.41651E+04-8.27738E+02 8.73527E-01
 -1      1050 1.41651E+04-8.27722E+02 8.72240E-01
 -1      1051 1.41651E+04-8.27733E+02 8.73132E-01
 -1      1052 1.41651E+04-8.27743E+02 8.74046E-01
 -1      1053 1.43367E+04-1.12484E+03 8.59600E-01
 -1      1054 1.43367E+04-1.12485E+03 8.60013E-01
 -1      1055 1.43367E+04-1.12484E+03 8.59164E-01
 -1      1056 1.43367E+04-1.12485E+03 8.59790E-01
 -1      1057 1.43367E+04-1.12486E+03 8.60414E-01
 -1      1058 1.46798E+04-1.12485E+03 8.71267E-01
 -1      1059 1.46798E+04-1.12486E+03 8.72433E-01
 -1      1060 1.46798E+04-1.12484E+03 8.70698E-01
 -1      1061 1.46798E+04-1.12485E+03 8.71858E-01
 -1      1062 1.46798E+04-1.12486E+03 8.73034E-01
 -1      1063 1.49769E+04-1.29641E+03 8.70943E-01
 -1      1064 1.49769E+04-1.29642E+03 8.71281E-01
 -1      1065 1.49769E+04-1.29640E+03 8.70723E-01
 -1      1066 1.49769E+04-1.29641E+03 8.71122E-01
 -1      1067 1.49769E+04-1.29642E+03 8.71519E-01
 -1      1068 1.52739E+04-1.12486E+03 8.92570E-01
 -1      1069 1.52740E+04-1.12487E+03 8.92978E-01
 -1      1070 1.52739E+04-1.12485E+03 8.92383E-01
 -1      1071 1.52739E+04-1.12486E+03 8.92772E-01
 -1      1072 1.52740E+04-1.12487E+03 8.93167E-01
 -1      1073 1.56170E+04-1.12486E+03 9.04838E-01
 -1      1074 1.56171E+04-1.12487E+03 9.04831E-01
 -1      1075 1.56170E+04-1.12485E+03 9.04848E-01
 -1      1076 1.56170E+04-1.12486E+03 9.04830E-01
 -1      1077 1.56171E+04-1.12487E+03 9.04817E-01
 -1      1078 8.48242E+03-8.85708E+02 6.65825E-01
 -1      1079 8.14013E+03-8.81489E+02 6.56543E-01
 -1      1080 8.82617E+03-8.89345E+02 6.78071E-01
 -1      1081 2.58597E+03-6.55669E+02 4.31045E-01
 -1      1082 2.33657E+03-6.32041E+02 4.11697E-01
 -1      1083 2.84432E+03-6.77858E+02 4.45795E-01
 -1      1084 3.11105E+03-6.98720E+02 4.60625E-01
 -1      1085 3.66760E+03-7.36451E+02 4.80046E-01
 -1      1086 4.66790E+02-3.08537E+02 2.91528E-01
 -1      1087 3.38565E+03-7.18231E+02 4.70805E-01
 -1      1088 3.59842E+02-2.67863E+02 3.63422E-01
 -1      1089 5.92868E+02-3.48661E+02 3.00069E-01
 -1      1090 8.90498E+02-4.23462E+02 3.16793E-01
 -1      1091 1.06060E+03-4.58212E+02 3.28999E-01
 -1      1092 1.24394E+03-4.91228E+02 3.51671E-01
 -1      1093 1.64771E+03-5.52271E+02 3.72992E-01
 -1      1094 2.09666E+03-6.06949E+02 4.01961E-01
 -1      1095 3.95641E+03-7.53460E+02 4.88405E-01
 -1      1096 4.25158E+03-7.69267E+02 5.04542E-01
 -1      1097 4.85924E+03-7.97452E+02 5.27558E-01
 -1      1098 5.17083E+03-8.09934E+02 5.44967E-01
 -1      1099 5.48707E+03-8.21374E+02 5.56629E-01
 -1      1100 5.80755E+03-8.31865E+02 5.70597E-01
 -1      1101 6.13188E+03-8.41410E+02 5.81404E-01
 -1      1102 6.79073E+03-8.57868E+02 6.06043E-01
 -1      1103 7.12456E+03-8.64870E+02 6.17735E-01
 -1      1104 7.79955E+03-8.76636E+02 6.44952E-01
 -1      1105 9.51723E+03-8.95023E+02 7.02288E-01
 -1      1106 1.02117E+04-8.98888E+02 7.26653E-01
 -1      1107 1.05598E+04-9.00239E+02 7.40048E-01
 -1      1108 1.12572E+04-9.02012E+02 7.66422E-01
 -1      1109 1.16061E+04-9.02519E+02 7.77160E-01
 -1      1110 1.19552E+04-9.02832E+02 7.90839E-01
 -1      1111 1.23042E+04-9.02999E+02 8.02650E-01
 -1      1112 1.26429E+04-9.03063E+02 8.14639E-01
 -1      1113 7.34364E+02-3.86958E+02 3.16653E-01
 -1      1114 1.43985E+03-5.22548E+02 3.59749E-01
 -1      1115 1.86684E+03-5.80395E+02 3.97037E-01
 -1      1116 4.55267E+03-7.83899E+02 5.17183E-01
 -1      1117 6.45972E+03-8.50052E+02 5.92312E-01
 -1      1118 7.46094E+03-8.71103E+02 6.30152E-01
 -1      1119 9.17118E+03-8.92434E+02 6.90612E-01
 -1      1120 9.86414E+03-8.97164E+02 7.14138E-01
 -1      1121 1.09084E+04-9.01265E+02 7.53300E-01
 -1      1122 2.85147E+02-2.33945E+02 9.90021E-01
 -1      1123 1.29150E+04-9.03076E+02 8.24205E-01
 -1      1124 2.52531E+02-2.16977E+02-4.63727E+00
 -1      1125 2.52866E+02-2.16909E+02 6.44461E-01
 -1      1126 2.96094E+02-2.39458E+02-4.42692E+00
 -1      1127 2.52428E+02-2.16946E+02 5.93451E+00
 -1      1128 2.96015E+02-2.39449E+02 5.69941E+00
 -1      1129 1.28714E+04-9.03078E+02 8.23562E-01
 -1      1130 1.30459E+04-9.03076E+02 8.28130E-01
 -1      1131 1.30459E+04-9.03073E+02 8.28673E-01
 -1      1132 1.30459E+04-9.03067E+02 8.29194E-01
 -1      1133 1.28714E+04-9.03069E+02 8.21742E-01
 -1      1134 3.32981E+02-2.56460E+02 5.28417E+00
 -1      1135 3.83973E+02-2.77846E+02 5.16877E+00
 -1      1136 3.21242E+02-2.51041E+02 6.70207E-01
 -1      1137 4.37407E+02-2.98188E+02 5.03673E+00
 -1      1138 4.96491E+02-3.18707E+02 4.93798E+00
 -1      1139 4.11380E+02-2.88394E+02 3.26246E-01
 -1      1140 5.59549E+02-3.38773E+02 4.84217E+00
 -1      1141 6.26508E+02-3.58390E+02 4.73742E+00
 -1      1142 5.27864E+02-3.28809E+02 2.96570E-01
 -1      1143 6.97269E+02-3.77545E+02 4.64471E+00
 -1      1144 7.71744E+02-3.96236E+02 4.53936E+00
 -1      1145 6.61743E+02-3.68023E+02 3.08716E-01
 -1      1146 8.49831E+02-4.14488E+02 4.44652E+00
 -1      1147 9.31456E+02-4.32303E+02 4.34402E+00
 -1      1148 8.10645E+02-4.05410E+02 3.16000E-01
 -1      1149 1.01652E+03-4.49671E+02 4.25522E+00
 -1      1150 1.10494E+03-4.66601E+02 4.16175E+00
 -1      1151 9.73844E+02-4.41042E+02 3.23115E-01
 -1      1152 1.19662E+03-4.83110E+02 4.07544E+00
 -1      1153 1.29150E+03-4.99187E+02 3.98523E+00
 -1      1154 1.15064E+03-4.74919E+02 3.41386E-01
 -1      1155 1.38947E+03-5.14850E+02 3.90256E+00
 -1      1156 1.49046E+03-5.30106E+02 3.81064E+00
 -1      1157 1.34036E+03-5.07079E+02 3.58479E-01
 -1      1158 1.59441E+03-5.44967E+02 3.73438E+00
 -1      1159 1.70121E+03-5.59422E+02 3.64492E+00
 -1      1160 1.54231E+03-5.37592E+02 3.66984E-01
 -1      1161 1.81079E+03-5.73486E+02 3.56516E+00
 -1      1162 1.92309E+03-5.87155E+02 3.47672E+00
 -1      1163 1.75589E+03-5.66513E+02 3.85817E-01
 -1      1164 2.03802E+03-6.00437E+02 3.39657E+00
 -1      1165 2.15550E+03-6.13340E+02 3.31533E+00
 -1      1166 1.98045E+03-5.93847E+02 3.98533E-01
 -1      1167 2.27547E+03-6.25884E+02 3.24491E+00
 -1      1168 2.39785E+03-6.38059E+02 3.16307E+00
 -1      1169 2.21538E+03-6.19663E+02 4.06837E-01
 -1      1170 2.52257E+03-6.49875E+02 3.09201E+00
 -1      1171 2.64956E+03-6.61329E+02 3.01295E+00
 -1      1172 2.46011E+03-6.44020E+02 4.22136E-01
 -1      1173 2.77875E+03-6.72428E+02 2.94529E+00
 -1      1174 2.91005E+03-6.83183E+02 2.87448E+00
 -1      1175 2.71406E+03-6.66923E+02 4.38474E-01
 -1      1176 3.04344E+03-6.93611E+02 2.80799E+00
 -1      1177 3.17883E+03-7.03697E+02 2.72941E+00
 -1      1178 2.97666E+03-6.88441E+02 4.53981E-01
 -1      1179 3.31614E+03-7.13453E+02 2.66029E+00
 -1      1180 3.45532E+03-7.22890E+02 2.59187E+00
 -1      1181 3.24740E+03-7.08626E+02 4.63314E-01
 -1      1182 3.59631E+03-7.32003E+02 2.52831E+00
 -1      1183 3.73903E+03-7.40802E+02 2.46179E+00
 -1      1184 3.52574E+03-7.27487E+02 4.75084E-01
 -1      1185 3.88345E+03-7.49306E+02 2.40411E+00
 -1      1186 4.02949E+03-7.57503E+02 2.33712E+00
 -1      1187 3.81117E+03-7.45094E+02 4.84243E-01
 -1      1188 4.17709E+03-7.65407E+02 2.27768E+00
 -1      1189 4.32620E+03-7.73016E+02 2.21473E+00
 -1      1190 4.10322E+03-7.61498E+02 4.98014E-01
 -1      1191 4.47676E+03-7.80337E+02 2.15776E+00
 -1      1192 4.62870E+03-7.87377E+02 2.09987E+00
 -1      1193 4.40142E+03-7.76713E+02 5.10381E-01
 -1      1194 4.78200E+03-7.94152E+02 2.04992E+00
 -1      1195 4.93657E+03-8.00655E+02 1.99159E+00
 -1      1196 4.70529E+03-7.90799E+02 5.22400E-01
 -1      1197 5.09239E+03-8.06897E+02 1.94157E+00
 -1      1198 5.24938E+03-8.12877E+02 1.88535E+00
 -1      1199 5.01442E+03-8.03813E+02 5.36969E-01
 -1      1200 5.40751E+03-8.18600E+02 1.83696E+00
 -1      1201 5.56672E+03-8.24077E+02 1.78680E+00
 -1      1202 5.32840E+03-8.15769E+02 5.51105E-01
 -1      1203 5.72697E+03-8.29320E+02 1.74221E+00
 -1      1204 5.88820E+03-8.34323E+02 1.69120E+00
 -1      1205 5.64679E+03-8.26728E+02 5.63592E-01
 -1      1206 6.05038E+03-8.39096E+02 1.64488E+00
 -1      1207 6.21346E+03-8.43642E+02 1.59650E+00
 -1      1208 5.96925E+03-8.36742E+02 5.76294E-01
 -1      1209 6.37739E+03-8.47965E+02 1.55519E+00
 -1      1210 6.54212E+03-8.52074E+02 1.51299E+00
 -1      1211 6.29539E+03-8.45831E+02 5.86614E-01
 -1      1212 6.70764E+03-8.55981E+02 1.47490E+00
 -1      1213 6.87388E+03-8.59681E+02 1.43176E+00
 -1      1214 6.62484E+03-8.54054E+02 5.99505E-01
 -1      1215 7.04080E+03-8.63183E+02 1.39431E+00
 -1      1216 7.20839E+03-8.66491E+02 1.35472E+00
 -1      1217 6.95731E+03-8.61458E+02 6.11811E-01
 -1      1218 7.37658E+03-8.69609E+02 1.32083E+00
 -1      1219 7.54535E+03-8.72545E+02 1.28667E+00
 -1      1220 7.29246E+03-8.68072E+02 6.23661E-01
 -1      1221 7.71466E+03-8.75311E+02 1.25670E+00
 -1      1222 7.88448E+03-8.77902E+02 1.22147E+00
 -1      1223 7.62998E+03-8.73949E+02 6.37881E-01
 -1      1224 8.05478E+03-8.80330E+02 1.19031E+00
 -1      1225 8.22552E+03-8.82592E+02 1.16011E+00
 -1      1226 7.96961E+03-8.79138E+02 6.50069E-01
 -1      1227 8.39667E+03-8.84701E+02 1.13288E+00
 -1      1228 8.56820E+03-8.86661E+02 1.10106E+00
 -1      1229 8.31107E+03-8.83668E+02 6.61843E-01
 -1      1230 8.74008E+03-8.88479E+02 1.07528E+00
 -1      1231 8.91230E+03-8.90161E+02 1.04802E+00
 -1      1232 8.65412E+03-8.87593E+02 6.72552E-01
 -1      1233 9.08481E+03-8.91707E+02 1.02543E+00
 -1      1234 9.25759E+03-8.93124E+02 1.00407E+00
 -1      1235 8.99853E+03-8.90950E+02 6.83986E-01
 -1      1236 9.43062E+03-8.94417E+02 9.84325E-01
 -1      1237 9.60387E+03-8.95596E+02 9.63221E-01
 -1      1238 9.34409E+03-8.93784E+02 6.97211E-01
 -1      1239 9.77733E+03-8.96665E+02 9.46492E-01
 -1      1240 9.95097E+03-8.97628E+02 9.26781E-01
 -1      1241 9.69058E+03-8.96144E+02 7.08524E-01
 -1      1242 1.01248E+04-8.98490E+02 9.11528E-01
 -1      1243 1.02987E+04-8.99256E+02 8.95381E-01
 -1      1244 1.00379E+04-8.98071E+02 7.20695E-01
 -1      1245 1.04728E+04-8.99932E+02 8.82374E-01
 -1      1246 1.06469E+04-9.00525E+02 8.69442E-01
 -1      1247 1.03857E+04-8.99603E+02 7.33454E-01
 -1      1248 1.08212E+04-9.01038E+02 8.59817E-01
 -1      1249 1.09955E+04-9.01479E+02 8.49048E-01
 -1      1250 1.07341E+04-9.00786E+02 7.46856E-01
 -1      1251 1.11699E+04-9.01851E+02 8.41170E-01
 -1      1252 1.13444E+04-9.02161E+02 8.33346E-01
 -1      1253 1.10827E+04-9.01669E+02 7.59786E-01
 -1      1254 1.15189E+04-9.02414E+02 8.27231E-01
 -1      1255 1.16934E+04-9.02616E+02 8.21637E-01
 -1      1256 1.14316E+04-9.02290E+02 7.71767E-01
 -1      1257 1.18679E+04-9.02773E+02 8.19240E-01
 -1      1258 1.20424E+04-9.02889E+02 8.16859E-01
 -1      1259 1.17806E+04-9.02695E+02 7.84219E-01
 -1      1260 1.22170E+04-9.02972E+02 8.16051E-01
 -1      1261 1.23915E+04-9.03026E+02 8.15830E-01
 -1      1262 1.21297E+04-9.02930E+02 7.97246E-01
 -1      1263 1.25608E+04-9.03058E+02 8.17584E-01
 -1      1264 1.27353E+04-9.03073E+02 8.20489E-01
 -1      1265 1.24736E+04-9.03040E+02 8.08670E-01
 -1      1266 1.27790E+04-9.03072E+02 8.19562E-01
 -1      1267 3.83968E+02-2.77841E+02-4.52213E+00
 -1      1268 3.32966E+02-2.56452E+02-4.64230E+00
 -1      1269 4.96470E+02-3.18703E+02-4.34658E+00
 -1      1270 4.37394E+02-2.98182E+02-4.46196E+00
 -1      1271 6.26488E+02-3.58380E+02-4.12593E+00
 -1      1272 5.59531E+02-3.38767E+02-4.24111E+00
 -1      1273 7.71727E+02-3.96228E+02-3.90891E+00
 -1      1274 6.97255E+02-3.77535E+02-4.02263E+00
 -1      1275 9.31430E+02-4.32294E+02-3.70111E+00
 -1      1276 8.49811E+02-4.14480E+02-3.81274E+00
 -1      1277 1.10492E+03-4.66589E+02-3.48811E+00
 -1      1278 1.01650E+03-4.49661E+02-3.59880E+00
 -1      1279 1.29148E+03-4.99182E+02-3.27687E+00
 -1      1280 1.19661E+03-4.83097E+02-3.38564E+00
 -1      1281 1.49044E+03-5.30098E+02-3.08197E+00
 -1      1282 1.38946E+03-5.14848E+02-3.18094E+00
 -1      1283 1.70119E+03-5.59410E+02-2.88303E+00
 -1      1284 1.59439E+03-5.44957E+02-2.98910E+00
 -1      1285 1.92308E+03-5.87146E+02-2.68581E+00
 -1      1286 1.81078E+03-5.73473E+02-2.78603E+00
 -1      1287 2.15548E+03-6.13333E+02-2.50628E+00
 -1      1288 2.03800E+03-6.00428E+02-2.59745E+00
 -1      1289 2.39783E+03-6.38048E+02-2.32458E+00
 -1      1290 2.27545E+03-6.25877E+02-2.42199E+00
 -1      1291 2.64954E+03-6.61318E+02-2.14518E+00
 -1      1292 2.52255E+03-6.49862E+02-2.23572E+00
 -1      1293 2.91004E+03-6.83172E+02-1.97446E+00
 -1      1294 2.77873E+03-6.72418E+02-2.06113E+00
 -1      1295 3.17881E+03-7.03687E+02-1.80490E+00
 -1      1296 3.04343E+03-6.93600E+02-1.89749E+00
 -1      1297 3.45531E+03-7.22883E+02-1.64860E+00
 -1      1298 3.31612E+03-7.13444E+02-1.72984E+00
 -1      1299 3.73902E+03-7.40794E+02-1.49764E+00
 -1      1300 3.59630E+03-7.31995E+02-1.57415E+00
 -1      1301 4.02947E+03-7.57493E+02-1.34779E+00
 -1      1302 3.88343E+03-7.49297E+02-1.42798E+00
 -1      1303 4.32618E+03-7.73007E+02-1.19822E+00
 -1      1304 4.17707E+03-7.65397E+02-1.27584E+00
 -1      1305 4.62868E+03-7.87367E+02-1.06037E+00
 -1      1306 4.47674E+03-7.80327E+02-1.13038E+00
 -1      1307 4.93656E+03-8.00644E+02-9.24005E-01
 -1      1308 4.78198E+03-7.94142E+02-9.96694E-01
 -1      1309 5.24937E+03-8.12865E+02-7.90727E-01
 -1      1310 5.09237E+03-8.06885E+02-8.57873E-01
 -1      1311 5.56670E+03-8.24065E+02-6.66420E-01
 -1      1312 5.40750E+03-8.18589E+02-7.29040E-01
 -1      1313 5.88819E+03-8.34313E+02-5.44016E-01
 -1      1314 5.72695E+03-8.29309E+02-6.10378E-01
 -1      1315 6.21344E+03-8.43635E+02-4.30154E-01
 -1      1316 6.05036E+03-8.39087E+02-4.87890E-01
 -1      1317 6.54211E+03-8.52065E+02-3.21106E-01
 -1      1318 6.37737E+03-8.47958E+02-3.76436E-01
 -1      1319 6.87386E+03-8.59671E+02-2.14272E-01
 -1      1320 6.70762E+03-8.55971E+02-2.71821E-01
 -1      1321 7.20837E+03-8.66482E+02-1.15056E-01
 -1      1322 7.04079E+03-8.63173E+02-1.65899E-01
 -1      1323 7.54533E+03-8.72536E+02-1.82291E-02
 -1      1324 7.37656E+03-8.69600E+02-6.69212E-02
 -1      1325 7.88447E+03-8.77893E+02 7.20029E-02
 -1      1326 7.71465E+03-8.75301E+02 2.45616E-02
 -1      1327 8.22550E+03-8.82585E+02 1.57782E-01
 -1      1328 8.05476E+03-8.80321E+02 1.14120E-01
 -1      1329 8.56818E+03-8.86652E+02 2.37968E-01
 -1      1330 8.39665E+03-8.84695E+02 1.96660E-01
 -1      1331 8.91228E+03-8.90151E+02 3.14682E-01
 -1      1332 8.74007E+03-8.88471E+02 2.75619E-01
 -1      1333 9.25757E+03-8.93115E+02 3.83456E-01
 -1      1334 9.08479E+03-8.91696E+02 3.48207E-01
 -1      1335 9.60385E+03-8.95587E+02 4.48408E-01
 -1      1336 9.43060E+03-8.94411E+02 4.16123E-01
 -1      1337 9.95095E+03-8.97618E+02 5.08840E-01
 -1      1338 9.77731E+03-8.96657E+02 4.77516E-01
 -1      1339 1.02987E+04-8.99245E+02 5.64868E-01
 -1      1340 1.01248E+04-8.98481E+02 5.36962E-01
 -1      1341 1.06469E+04-9.00514E+02 6.18122E-01
 -1      1342 1.04728E+04-8.99921E+02 5.90343E-01
 -1      1343 1.09955E+04-9.01468E+02 6.64427E-01
 -1      1344 1.08212E+04-9.01027E+02 6.40586E-01
 -1      1345 1.13444E+04-9.02151E+02 7.04649E-01
 -1      1346 1.11699E+04-9.01841E+02 6.84513E-01
 -1      1347 1.16934E+04-9.02606E+02 7.40171E-01
 -1      1348 1.15189E+04-9.02405E+02 7.22216E-01
 -1      1349 1.20424E+04-9.02880E+02 7.70971E-01
 -1      1350 1.18679E+04-9.02763E+02 7.55643E-01
 -1      1351 1.23915E+04-9.03017E+02 7.95640E-01
 -1      1352 1.22170E+04-9.02963E+02 7.83642E-01
 -1      1353 1.27353E+04-9.03064E+02 8.15305E-01
 -1      1354 1.25608E+04-9.03049E+02 8.05901E-01
 -1      1355 1.28782E+02-1.31354E+02 2.95117E-01
 -1      1356 9.42534E+01-1.00940E+02 3.74962E-01
 -1      1357 7.04631E+01-7.84885E+01 4.78550E-01
 -1      1358 1.81614E+02-1.71902E+02 3.43500E-01
 -1      1359 5.20369E+01-6.22308E+01 4.77216E-01
 -1      1360 2.01518E+02-1.85424E+02 2.99337E-01
 -1      1361 2.01097E+02-1.85560E+02-5.28318E+00
 -1      1362 1.69066E+02-1.63038E+02-5.30725E+00
 -1      1363 2.01142E+02-1.85525E+02 5.87015E+00
 -1      1364 1.68970E+02-1.63179E+02 5.89730E+00
 -1      1365 5.47903E+01-6.42050E+01-1.51063E+00
 -1      1366 4.75314E+01-5.71134E+01-1.50023E+00
 -1      1367 4.80456E+01-5.79756E+01 4.74117E-01
 -1      1368 4.74727E+01-5.71639E+01 2.44860E+00
 -1      1369 5.47707E+01-6.42993E+01 2.44835E+00
 -1      1370 7.51286E+01-8.27940E+01-2.89172E+00
 -1      1371 6.41253E+01-7.25613E+01-2.07759E+00
 -1      1372 6.05030E+01-6.95228E+01 4.56645E-01
 -1      1373 1.02340E+02-1.08660E+02-4.24030E+00
 -1      1374 8.68176E+01-9.40912E+01-3.50671E+00
 -1      1375 8.14382E+01-8.88957E+01 4.43371E-01
 -1      1376 1.42262E+02-1.42740E+02-5.12839E+00
 -1      1377 1.19691E+02-1.23917E+02-4.68083E+00
 -1      1378 1.10043E+02-1.15371E+02 3.49445E-01
 -1      1379 1.53009E+02-1.50781E+02 3.38654E-01
 -1      1380 6.41657E+01-7.26702E+01 2.98549E+00
 -1      1381 7.51005E+01-8.28006E+01 3.79097E+00
 -1      1382 8.68594E+01-9.40413E+01 4.37336E+00
 -1      1383 1.02314E+02-1.08590E+02 4.98784E+00
 -1      1384 1.19637E+02-1.23867E+02 5.35005E+00
 -1      1385 1.42330E+02-1.42766E+02 5.73417E+00
 -1      1386 1.35504E+04-9.42845E+02 8.43922E-01
 -1      1387 1.37873E+04-1.01133E+03 8.47819E-01
 -1      1388 1.38823E+04-1.04934E+03 8.49063E-01
 -1      1389 1.38823E+04-1.04935E+03 8.48298E-01
 -1      1390 1.33417E+04-9.10749E+02 8.39513E-01
 -1      1391 1.33413E+04-9.10714E+02 8.37771E-01
 -1      1392 1.32591E+04-9.04983E+02 8.35706E-01
 -1      1393 1.32591E+04-9.04987E+02 8.34453E-01
 -1      1394 1.34010E+04-9.17288E+02 8.38822E-01
 -1      1395 1.32593E+04-9.04985E+02 8.37786E-01
 -1      1396 1.32593E+04-9.04990E+02 8.36560E-01
 -1      1397 1.34012E+04-9.17304E+02 8.41822E-01
 -1      1398 1.39410E+04-1.07608E+03 8.49645E-01
 -1      1399 1.38102E+04-1.01991E+03 8.48626E-01
 -1      1400 1.39410E+04-1.07609E+03 8.49192E-01
 -1      1401 1.38102E+04-1.01993E+03 8.47485E-01
 -1      1402 1.39411E+04-1.07610E+03 8.48372E-01
 -1      1403 1.39410E+04-1.07609E+03 8.48828E-01
 -1      1404 1.33415E+04-9.10732E+02 8.38641E-01
 -1      1405 1.36443E+04-9.65755E+02 8.46265E-01
 -1      1406 1.35055E+04-9.33770E+02 8.43794E-01
 -1      1407 1.34466E+04-9.23680E+02 8.41907E-01
 -1      1408 1.37621E+04-1.00233E+03 8.47889E-01
 -1      1409 1.36700E+04-9.72982E+02 8.46178E-01
 -1      1410 1.38351E+04-1.02965E+03 8.48491E-01
 -1      1411 1.35055E+04-9.33780E+02 8.42069E-01
 -1      1412 1.36443E+04-9.65765E+02 8.45213E-01
 -1      1413 1.34463E+04-9.23649E+02 8.41098E-01
 -1      1414 1.37621E+04-1.00234E+03 8.47130E-01
 -1      1415 1.38351E+04-1.02966E+03 8.48116E-01
 -1      1416 1.38945E+04-1.05471E+03 8.48766E-01
 -1      1417 2.01324E+02-1.22413E+01 5.08629E-01
 -1      1418 4.53547E+02-1.95177E+01 2.69343E-01
 -1      1419 1.23196E+04-5.51596E+01 8.37848E-01
 -1      1420 1.12550E+04-1.40554E+01 8.02374E-01
 -1      1421 1.02059E+04-1.30800E+01 7.65930E-01
 -1      1422 9.17005E+03-1.96125E+01 7.24500E-01
 -1      1423 8.13830E+03-2.04218E+01 6.87467E-01
 -1      1424 7.11874E+03-2.13524E+01 6.44959E-01
 -1      1425 6.12455E+03-5.33241E+01 5.20550E-01
 -1      1426 5.16861E+03-6.94554E+01 3.99290E-01
 -1      1427 4.24762E+03-6.69892E+01 3.04800E-01
 -1      1428 3.37978E+03-6.37349E+01 2.09395E-01
 -1      1429 2.57801E+03-5.96315E+01 1.15251E-01
 -1      1430 8.16390E+02-2.00471E+01 2.97125E-01
 -1      1431 1.86743E+03-1.83616E+01 4.15536E-01
 -1      1432 1.27302E+03-3.48741E+01 1.19995E-01
 -1      1433 1.16657E+02 3.82495E+01 4.11024E+00
 -1      1434 1.14391E+02-6.22987E+01-3.34018E+00
 -1      1435 1.29224E+04-2.66149E+02 8.54408E-01
 -1      1436 2.23493E+03 1.83421E+02 2.35674E+00
 -1      1437 2.99649E+03 2.06153E+02 2.07415E+00
 -1      1438 3.83638E+03 2.25533E+02 1.82378E+00
 -1      1439 4.73549E+03 2.41394E+02 1.60299E+00
 -1      1440 5.60719E+03 2.37254E+02 1.36906E+00
 -1      1441 6.58942E+03 2.47023E+02 1.21604E+00
 -1      1442 7.59986E+03 2.54232E+02 1.08813E+00
 -1      1443 8.62957E+03 2.59468E+02 9.89485E-01
 -1      1444 1.17808E+04-3.05313E+02 7.81998E-01
 -1      1445 1.07339E+04-3.04960E+02 6.89150E-01
 -1      1446 9.67756E+03 2.60028E+02 9.14562E-01
 -1      1447 2.21114E+03-2.17093E+02-1.47600E+00
 -1      1448 1.29943E+04 3.90596E+02 8.90030E-01
 -1      1449 1.54842E+03 1.68733E+02 2.84388E+00
 -1      1450 2.97558E+03-2.40560E+02-1.11712E+00
 -1      1451 3.81307E+03-2.60013E+02-7.95312E-01
 -1      1452 4.70997E+03-2.75782E+02-4.97780E-01
 -1      1453 5.65400E+03-2.88241E+02-2.16708E-01
 -1      1454 6.63430E+03-2.97768E+02 2.48836E-02
 -1      1455 7.64140E+03-3.04735E+02 2.34810E-01
 -1      1456 8.66720E+03-3.09540E+02 4.16450E-01
 -1      1457 9.69884E+03-3.03711E+02 5.72536E-01
 -1      1458 1.07297E+04 2.66815E+02 8.73169E-01
 -1      1459 1.18235E+04 2.95614E+02 8.61806E-01
 -1      1460 1.54670E+03-1.96639E+02-1.94924E+00
 -1      1461 3.05561E+02-1.04078E+02-3.46017E+00
 -1      1462 3.17799E+02 7.24575E+01 4.17506E+00
 -1      1463 1.02434E+03-1.82862E+02-2.62983E+00
 -1      1464 6.24235E+02-1.44671E+02-2.97456E+00
 -1      1465 6.11542E+02 1.07328E+02 3.64333E+00
 -1      1466 1.02902E+03 1.46903E+02 3.34040E+00
 -1      1467 2.11963E+02 8.10815E+01 5.91112E+00
 -1      1468 1.94033E+02-1.03699E+02-4.95037E+00
 -1      1469 1.24700E+04 3.37915E+02 8.69018E-01
 -1      1470 5.09103E+03 3.86709E+02 2.03483E+00
 -1      1471 4.13965E+03 3.50667E+02 2.32661E+00
 -1      1472 6.06044E+03 4.04853E+02 1.72387E+00
 -1      1473 7.07562E+03 3.79871E+02 1.39301E+00
 -1      1474 3.27631E+03 3.23716E+02 2.70395E+00
 -1      1475 4.52170E+02-1.67179E+02-4.59707E+00
 -1      1476 8.09935E+03 3.89111E+02 1.20578E+00
 -1      1477 2.51637E+03 3.01162E+02 3.16975E+00
 -1      1478 9.13858E+03 3.95578E+02 1.05831E+00
 -1      1479 1.23124E+04-4.31856E+02 8.08109E-01
 -1      1480 1.12570E+04-4.76789E+02 7.04410E-01
 -1      1481 1.01948E+04 3.82962E+02 9.45043E-01
 -1      1482 1.02132E+04-4.12578E+02 5.85688E-01
 -1      1483 9.17229E+03-4.51481E+02 3.81900E-01
 -1      1484 1.12473E+04 4.01509E+02 8.90012E-01
 -1      1485 8.14058E+03-4.46266E+02 1.55787E-01
 -1      1486 7.12402E+03-4.38178E+02-1.20363E-01
 -1      1487 6.13036E+03-4.28546E+02-4.44482E-01
 -1      1488 5.17004E+03-3.98045E+02-7.57612E-01
 -1      1489 4.24929E+03-3.78358E+02-1.16001E+00
 -1      1490 3.38171E+03-3.53636E+02-1.59729E+00
 -1      1491 2.58023E+03-3.23332E+02-2.07747E+00
 -1      1492 1.85832E+03-3.10622E+02-2.87141E+00
 -1      1493 8.18285E+02 2.22843E+02 5.49826E+00
 -1      1494 1.78928E+03 2.59062E+02 3.64151E+00
 -1      1495 1.21167E+03-2.17915E+02-2.81830E+00
 -1      1496 4.49032E+02 1.20484E+02 4.92116E+00
 -1      1497 1.29885E+03 2.23535E+02 4.03070E+00
 -1      1498 8.05469E+02-2.03897E+02-3.69298E+00
 -1      1499 9.38817E+01 5.52582E+01 5.88846E+00
 -1      1500 1.32094E+04-5.06369E+02 8.56094E-01
 -1      1501 9.24719E+01-1.27962E+01 2.29962E-01
 -1      1502 9.01659E+01-7.94927E+01-5.24102E+00
 -1      1503 1.21310E+04 4.86005E+02 8.77887E-01
 -1      1504 1.59690E+02 8.97367E+01 7.69000E+00
 -1      1505 1.37415E+02-1.07495E+01 5.46171E-01
 -1      1506 1.31894E+04-9.56842E+00 8.82573E-01
 -1      1507 1.26587E+04 2.44981E+01 8.57505E-01
 -1      1508 1.26285E+04-5.96310E+02 8.19593E-01
 -1      1509 5.38097E+03 5.08741E+02 2.31039E+00
 -1      1510 2.90113E+02-2.10744E+01 1.40511E-01
 -1      1511 4.44978E+03 4.83152E+02 2.75496E+00
 -1      1512 6.35917E+03 5.29122E+02 1.92982E+00
 -1      1513 3.56406E+03 4.50411E+02 3.25559E+00
 -1      1514 2.74762E+03 4.11743E+02 3.81477E+00
 -1      1515 7.36995E+03 5.38654E+02 1.59389E+00
 -1      1516 6.27749E+01-7.26945E+01-4.86811E+00
 -1      1517 1.32976E+04 6.11318E+02 9.23958E-01
 -1      1518 8.39981E+03 5.49228E+02 1.33174E+00
 -1      1519 9.44946E+03 5.53138E+02 1.12986E+00
 -1      1520 1.05035E+04 5.57619E+02 9.87176E-01
 -1      1521 2.00652E+03 3.62775E+02 4.42561E+00
 -1      1522 1.15484E+04 5.69999E+02 9.06143E-01
 -1      1523 9.88907E+02-7.66467E+00 5.47039E-01
 -1      1524 5.87366E+02-1.16811E+01 5.04858E-01
 -1      1525 9.48256E+03-5.93605E+02 3.49883E-01
 -1      1526 8.44830E+03-5.88499E+02 7.40275E-02
 -1      1527 7.42655E+03-5.78579E+02-2.61382E-01
 -1      1528 6.42521E+03-5.64609E+02-6.51776E-01
 -1      1529 1.15665E+04-5.97538E+02 7.21997E-01
 -1      1530 5.45288E+03-5.43116E+02-1.09957E+00
 -1      1531 1.19929E+04-5.93489E+02 7.67923E-01
 -1      1532 1.05204E+04-5.87053E+02 5.68396E-01
 -1      1533 4.51876E+03-5.17995E+02-1.60457E+00
 -1      1534 1.09448E+04-5.97752E+02 6.35170E-01
 -1      1535 3.63426E+03-4.86281E+02-2.16943E+00
 -1      1536 1.05579E+04-6.36066E+00 7.81132E-01
 -1      1537 2.81191E+03-4.47224E+02-2.79828E+00
 -1      1538 1.16309E+04-8.49605E+00 8.16405E-01
 -1      1539 2.06552E+03-4.03625E+02-3.51804E+00
 -1      1540 9.53357E+03-2.17072E+01 7.37662E-01
 -1      1541 8.49523E+03-2.32461E+01 6.98808E-01
 -1      1542 7.46947E+03-2.37598E+01 6.57082E-01
 -1      1543 6.45426E+03-2.42591E+01 6.09424E-01
 -1      1544 5.48047E+03-2.33309E+01 5.69816E-01
 -1      1545 4.55882E+03-2.72344E+01 5.10856E-01
 -1      1546 3.67096E+03-2.63950E+01 4.62133E-01
 -1      1547 2.84461E+03-2.53521E+01 4.13531E-01
 -1      1548 2.10232E+03-1.90821E+01 4.24105E-01
 -1      1549 1.45514E+03-2.04674E+01 3.58208E-01
 -1      1550 2.33078E+03-3.24166E+01 3.14241E-01
 -1      1551 3.10539E+03-3.49791E+01 3.71159E-01
 -1      1552 2.35810E+03-4.19793E+02-3.19542E+00
 -1      1553 1.41202E+03-3.39490E+02-4.15086E+00
 -1      1554 3.95316E+03-3.62046E+01 4.28146E-01
 -1      1555 4.85855E+03-3.11472E+01 5.12465E-01
 -1      1556 3.13690E+03-4.62742E+02-2.52975E+00
 -1      1557 5.77899E+03-2.83600E+01 5.70217E-01
 -1      1558 6.76421E+03-2.28490E+01 6.29068E-01
 -1      1559 3.98595E+03-4.98430E+02-1.93287E+00
 -1      1560 7.77790E+03-2.21348E+01 6.69138E-01
 -1      1561 8.80730E+03-2.13706E+01 7.10348E-01
 -1      1562 1.08897E+04-1.72714E+01 7.88556E-01
 -1      1563 9.84697E+03-1.84508E+01 7.49631E-01
 -1      1564 4.89191E+03-5.27094E+02-1.38779E+00
 -1      1565 1.19612E+04-2.38014E+01 8.26483E-01
 -1      1566 5.84252E+03-5.51660E+02-9.09266E-01
 -1      1567 6.82774E+03-5.68648E+02-4.77397E-01
 -1      1568 7.83822E+03-5.80802E+02-1.15820E-01
 -1      1569 2.52218E+02-1.51372E+02-6.52927E+00
 -1      1570 8.86608E+03-5.89003E+02 1.94994E-01
 -1      1571 9.90390E+03-5.86581E+02 4.48116E-01
 -1      1572 8.28760E+01 2.21399E+01 3.06108E+00
 -1      1573 9.87645E+03 5.51663E+02 1.06182E+00
 -1      1574 2.80356E+02 1.29233E+02 7.36125E+00
 -1      1575 8.82695E+03 5.48873E+02 1.23996E+00
 -1      1576 1.66786E+03-3.68508E+02-3.92002E+00
 -1      1577 7.79158E+03 5.39588E+02 1.47495E+00
 -1      1578 1.09273E+04 5.64299E+02 9.48867E-01
 -1      1579 1.25683E+04-2.64985E+02 8.35418E-01
 -1      1580 6.77386E+03 5.27110E+02 1.77243E+00
 -1      1581 1.47062E+02-1.08956E+02-6.39293E+00
 -1      1582 5.78064E+03 5.14339E+02 2.13718E+00
 -1      1583 1.68520E+02 3.66553E+01 3.60826E+00
 -1      1584 1.13414E+03 2.75355E+02 5.28673E+00
 -1      1585 4.82043E+03 5.40683E+02 2.75143E+00
 -1      1586 3.90735E+03 5.05590E+02 3.26670E+00
 -1      1587 1.64947E+03-2.01065E+01 3.78094E-01
 -1      1588 3.05947E+03 4.65371E+02 3.84840E+00
 -1      1589 8.25148E+01-4.69943E+01-2.49573E+00
 -1      1590 2.29032E+03 4.18105E+02 4.50744E+00
 -1      1591 3.62695E+02-1.84522E+02-6.14155E+00
 -1      1592 5.58310E+02-2.31243E+02-5.71408E+00
 -1      1593 6.24519E+03 2.20352E+02 1.21211E+00
 -1      1594 2.33203E+02-7.29263E+01-2.65558E+00
 -1      1595 5.28935E+03 2.00075E+02 1.31862E+00
 -1      1596 7.95541E+01 5.71888E+01 6.24492E+00
 -1      1597 7.32614E+03 2.25474E+02 1.07571E+00
 -1      1598 6.90732E+02-2.66243E+02-5.69039E+00
 -1      1599 4.37041E+03 1.88442E+02 1.47424E+00
 -1      1600 8.35206E+03 2.30766E+02 9.84471E-01
 -1      1601 3.49303E+03 1.74362E+02 1.65850E+00
 -1      1602 1.30028E+04 6.70578E+02 8.94428E-01
 -1      1603 2.68700E+03 1.59110E+02 1.88128E+00
 -1      1604 9.39360E+03 2.33433E+02 9.13046E-01
 -1      1605 1.60689E+03 3.67055E+02 5.29693E+00
 -1      1606 9.77237E+02 2.71197E+02 5.78656E+00
 -1      1607 5.56422E+02 1.96679E+02 6.41193E+00
 -1      1608 2.44872E+02 3.64109E+01 3.02806E+00
 -1      1609 6.82629E+02 2.18746E+02 6.12328E+00
 -1      1610 3.71365E+02 1.61456E+02 7.18387E+00
 -1      1611 1.95855E+03 1.46451E+02 2.19125E+00
 -1      1612 1.07339E+03-3.35741E+02-5.20143E+00
 -1      1613 1.72767E+03-1.62859E+02-1.32801E+00
 -1      1614 1.04382E+04 2.37538E+02 8.70559E-01
 -1      1615 6.87206E+01 5.15818E+01 5.30309E+00
 -1      1616 1.15010E+04 2.48887E+02 8.55265E-01
 -1      1617 1.04462E+04-2.64744E+02 6.76464E-01
 -1      1618 1.14980E+04-2.80409E+02 7.65468E-01
 -1      1619 1.30023E+04-6.88977E+02 8.37167E-01
 -1      1620 3.65934E+02 1.18665E+01 1.46372E+00
 -1      1621 1.96875E+03-1.88226E+02-1.39600E+00
 -1      1622 2.75603E+03-2.18931E+02-1.09517E+00
 -1      1623 3.57429E+03-2.37762E+02-7.82332E-01
 -1      1624 4.45555E+03-2.53057E+02-4.90387E-01
 -1      1625 5.38417E+03-2.64233E+02-2.24729E-01
 -1      1626 6.35293E+03-2.73521E+02 5.97007E-03
 -1      1627 7.35544E+03-2.73150E+02 2.25921E-01
 -1      1628 8.37752E+03-2.77470E+02 4.03216E-01
 -1      1629 9.41123E+03-2.77945E+02 5.50328E-01
 -1      1630 1.67153E+02-5.36706E+01-2.13208E+00
 -1      1631 1.37675E+03-1.61743E+02-1.68753E+00
 -1      1632 2.40951E+03-2.10580E+02-1.25988E+00
 -1      1633 1.10160E+04-2.82145E+02 7.24828E-01
 -1      1634 1.16642E+03 8.83446E+01 2.11757E+00
 -1      1635 1.18778E+04 6.18602E+02 8.96120E-01
 -1      1636 1.20734E+04-2.81916E+02 8.05740E-01
 -1      1637 3.19410E+03-2.31223E+02-9.33158E-01
 -1      1638 4.04839E+03-2.48067E+02-6.27075E-01
 -1      1639 4.95869E+03-2.60345E+02-3.42534E-01
 -1      1640 5.16627E+02-1.01385E+02-2.16373E+00
 -1      1641 5.90519E+03-2.69979E+02-9.46325E-02
 -1      1642 6.89313E+03-2.69747E+02 1.40841E-01
 -1      1643 7.90681E+03-2.74857E+02 3.28894E-01
 -1      1644 8.93629E+03-2.78187E+02 4.88468E-01
 -1      1645 9.97361E+03-2.66877E+02 6.26611E-01
 -1      1646 3.87106E+02-8.29891E+01-2.08235E+00
 -1      1647 6.96574E+02-5.67444E+01-5.95268E-01
 -1      1648 1.12546E+03-7.17389E+01-5.41812E-01
 -1      1649 8.89599E+02 1.14753E+02 3.02437E+00
 -1      1650 7.24159E+02 8.09173E+01 2.65922E+00
 -1      1651 7.56192E+01-8.03814E+01-5.72126E+00
 -1      1652 1.35670E+04 7.20413E+02 9.52713E-01
 -1      1653 1.35635E+04-7.70776E+02 8.55934E-01
 -1      1654 1.33365E+04-7.20996E+02 8.50618E-01
 -1      1655 1.10097E+04 2.40250E+02 8.59820E-01
 -1      1656 9.96017E+03 2.32628E+02 8.85392E-01
 -1      1657 5.18072E+02 6.36539E+01 2.76347E+00
 -1      1658 1.32576E+04 2.91139E+02 9.02664E-01
 -1      1659 1.26987E+04 5.78699E+02 8.82098E-01
 -1      1660 8.91418E+03 2.32617E+02 9.40773E-01
 -1      1661 1.22426E+02 8.14992E+01 7.84940E+00
 -1      1662 9.00355E+02-1.27188E+02-1.83598E+00
 -1      1663 9.15753E+02-3.08404E+02-5.38473E+00
 -1      1664 7.88091E+03 2.28149E+02 1.02064E+00
 -1      1665 2.19359E+02 1.30179E+02 9.12106E+00
 -1      1666 1.21338E+04 2.00544E+02 8.54251E-01
 -1      1667 6.86366E+03 2.22091E+02 1.12547E+00
 -1      1668 5.90098E+03 2.17958E+02 1.25801E+00
 -1      1669 1.23740E+04 6.23126E+02 8.82570E-01
 -1      1670 1.36331E+04 8.46447E+02 9.65213E-01
 -1      1671 1.36322E+04-8.82972E+02 8.51596E-01
 -1      1672 1.18751E+02-1.08189E+02-7.30629E+00
 -1      1673 1.32661E+04-2.48660E+02 8.73462E-01
 -1      1674 5.02735E+03 1.45508E+02 1.17209E+00
 -1      1675 1.42497E+03 3.43071E+02 5.45589E+00
 -1      1676 4.10785E+03 1.32388E+02 1.27367E+00
 -1      1677 3.24822E+03 1.21240E+02 1.40081E+00
 -1      1678 1.34499E+03 8.48683E+01 1.89601E+00
 -1      1679 2.46699E+03 1.10297E+02 1.57129E+00
 -1      1680 1.78077E+03 4.15453E+02 5.46231E+00
 -1      1681 1.29337E+04 9.61109E+01 8.74213E-01
 -1      1682 1.87981E+02-1.43554E+02-7.93368E+00
 -1      1683 2.49772E+03 4.81123E+02 4.73247E+00
 -1      1684 3.29843E+03 5.33786E+02 4.03039E+00
 -1      1685 1.23516E+03-3.79968E+02-5.30973E+00
 -1      1686 4.16809E+03 5.77121E+02 3.39750E+00
 -1      1687 5.09325E+03 6.11915E+02 2.83392E+00
 -1      1688 1.27511E+04 2.85566E+02 8.74941E-01
 -1      1689 6.06189E+03 6.38762E+02 2.33807E+00
 -1      1690 1.75972E+03 1.07358E+02 1.89469E+00
 -1      1691 7.06634E+03 6.39768E+02 1.88252E+00
 -1      1692 8.09121E+03 6.53724E+02 1.54018E+00
 -1      1693 1.23064E+04-7.05151E+02 7.89180E-01
 -1      1694 1.12570E+04-7.25037E+02 6.56949E-01
 -1      1695 9.13264E+03 6.62897E+02 1.27119E+00
 -1      1696 1.02119E+04-6.89864E+02 4.65044E-01
 -1      1697 9.17113E+03-7.08875E+02 1.83357E-01
 -1      1698 4.59765E+02-2.49286E+02-7.22934E+00
 -1      1699 1.01858E+04 6.57666E+02 1.06855E+00
 -1      1700 8.13978E+03-7.00389E+02-1.61790E-01
 -1      1701 7.12380E+03-6.87322E+02-5.76169E-01
 -1      1702 1.12387E+04 6.73500E+02 9.45327E-01
 -1      1703 6.13063E+03-6.68927E+02-1.06034E+00
 -1      1704 5.16950E+03-6.34393E+02-1.58472E+00
 -1      1705 4.24951E+03-6.02637E+02-2.20579E+00
 -1      1706 6.67028E+01 4.86938E+01 4.70929E+00
 -1      1707 3.38276E+03-5.62773E+02-2.89019E+00
 -1      1708 2.58218E+03-5.13945E+02-3.65196E+00
 -1      1709 1.86217E+03-4.67948E+02-4.62727E+00
 -1      1710 2.35535E+02-1.77211E+02-8.50412E+00
 -1      1711 2.78276E+02-1.95784E+02-8.18924E+00
 -1      1712 1.70715E+02-1.52236E+02-9.46856E+00
 -1      1713 2.03766E+02-1.70058E+02-9.33582E+00
 -1      1714 2.18325E+02-1.48516E+02-7.25954E+00
 -1      1715 1.29150E+04-7.96014E+02 8.27623E-01
 -1      1716 1.30895E+04-7.96018E+02 8.36660E-01
 -1      1717 1.32566E+04-8.12025E+02 8.42937E-01
 -1      1718 1.33985E+04-8.23430E+02 8.47501E-01
 -1      1719 1.31694E+04-7.04988E+02 8.44362E-01
 -1      1720 5.46490E+01-6.45992E+01-3.93889E+00
 -1      1721 1.37525E+04-9.17624E+02 8.53308E-01
 -1      1722 5.98375E+01 4.45531E+01 4.27452E+00
 -1      1723 1.37525E+04 8.85717E+02 9.71355E-01
 -1      1724 1.33790E+04 7.52630E+02 9.44714E-01
 -1      1725 1.32373E+04 7.41234E+02 9.26242E-01
 -1      1726 1.30899E+04 7.70865E+02 9.03569E-01
 -1      1727 1.29137E+04 7.70841E+02 8.86639E-01
 -1      1728 1.31502E+04 6.40954E+02 9.09195E-01
 -1      1729 3.18434E+02 1.78603E+02 8.87796E+00
 -1      1730 2.70917E+02 1.59552E+02 9.28234E+00
 -1      1731 2.40233E+02 1.57665E+02 1.03138E+01
 -1      1732 2.06985E+02 1.41288E+02 1.05626E+01
 -1      1733 2.48513E+02 1.30937E+02 8.23310E+00
 -1      1734 3.33156E+02-2.16790E+02-7.93700E+00
 -1      1735 3.84825E+02-2.34548E+02-7.73493E+00
 -1      1736 3.04588E+02-1.68132E+02-6.33925E+00
 -1      1737 4.33333E+02-2.69417E+02-8.26100E+00
 -1      1738 4.92499E+02-2.87908E+02-8.06880E+00
 -1      1739 4.09738E+02-2.15735E+02-6.69235E+00
 -1      1740 5.41743E+02-2.80693E+02-7.29203E+00
 -1      1741 6.08110E+02-2.97110E+02-7.10935E+00
 -1      1742 5.07628E+02-2.41439E+02-6.46498E+00
 -1      1743 6.75085E+02-3.17583E+02-7.07014E+00
 -1      1744 7.48809E+02-3.33544E+02-6.89286E+00
 -1      1745 6.22812E+02-2.48623E+02-5.70601E+00
 -1      1746 8.61344E+02-3.58553E+02-6.68660E+00
 -1      1747 9.43780E+02-3.73682E+02-6.50932E+00
 -1      1748 7.46802E+02-2.36593E+02-4.68357E+00
 -1      1749 8.06484E+02-3.04127E+02-5.86413E+00
 -1      1750 8.59710E+02-2.54779E+02-4.54861E+00
 -1      1751 1.02208E+03-3.89643E+02-6.39407E+00
 -1      1752 1.11098E+03-4.04173E+02-6.21488E+00
 -1      1753 9.93174E+02-3.22115E+02-5.29056E+00
 -1      1754 1.19176E+03-4.28181E+02-6.25004E+00
 -1      1755 1.28668E+03-4.42429E+02-6.07538E+00
 -1      1756 1.15306E+03-3.57616E+02-5.25688E+00
 -1      1757 1.37499E+03-4.24030E+02-5.47478E+00
 -1      1758 1.47581E+03-4.36631E+02-5.30353E+00
 -1      1759 1.32223E+03-3.60719E+02-4.72383E+00
 -1      1760 1.60362E+03-4.54337E+02-5.15460E+00
 -1      1761 1.71090E+03-4.66267E+02-4.99461E+00
 -1      1762 1.53777E+03-3.54101E+02-4.03248E+00
 -1      1763 1.80807E+03-5.17791E+02-5.32889E+00
 -1      1764 1.92045E+03-5.30126E+02-5.16451E+00
 -1      1765 1.76395E+03-4.17393E+02-4.27850E+00
 -1      1766 2.02201E+03-4.99308E+02-4.59326E+00
 -1      1767 2.13933E+03-5.10083E+02-4.43420E+00
 -1      1768 1.96273E+03-4.36707E+02-4.06383E+00
 -1      1769 2.28552E+03-5.20757E+02-4.24551E+00
 -1      1770 2.40828E+03-5.30802E+02-4.09773E+00
 -1      1771 2.21000E+03-4.11942E+02-3.35224E+00
 -1      1772 2.52031E+03-5.79489E+02-4.30642E+00
 -1      1773 2.64739E+03-5.89695E+02-4.15904E+00
 -1      1774 2.46922E+03-4.66291E+02-3.42751E+00
 -1      1775 2.76215E+03-5.57534E+02-3.71333E+00
 -1      1776 2.89335E+03-5.66489E+02-3.56838E+00
 -1      1777 2.69612E+03-4.81284E+02-3.21869E+00
 -1      1778 3.05577E+03-5.76423E+02-3.40954E+00
 -1      1779 3.19147E+03-5.84746E+02-3.27785E+00
 -1      1780 2.97290E+03-4.55165E+02-2.66159E+00
 -1      1781 3.31439E+03-6.36113E+02-3.44220E+00
 -1      1782 3.45365E+03-6.44515E+02-3.30413E+00
 -1      1783 3.25908E+03-5.12282E+02-2.71335E+00
 -1      1784 3.57931E+03-6.07241E+02-2.92863E+00
 -1      1785 3.72195E+03-6.14574E+02-2.79685E+00
 -1      1786 3.50775E+03-5.25106E+02-2.52612E+00
 -1      1787 3.89772E+03-6.22419E+02-2.65459E+00
 -1      1788 4.04403E+03-6.29180E+02-2.53310E+00
 -1      1789 3.80889E+03-4.92518E+02-2.05036E+00
 -1      1790 4.17580E+03-6.82384E+02-2.65469E+00
 -1      1791 4.32498E+03-6.89167E+02-2.53101E+00
 -1      1792 4.11712E+03-5.50154E+02-2.07247E+00
 -1      1793 4.45953E+03-6.47614E+02-2.21783E+00
 -1      1794 4.61142E+03-6.53488E+02-2.09831E+00
 -1      1795 4.38352E+03-5.60783E+02-1.90065E+00
 -1      1796 4.79793E+03-6.59446E+02-1.96898E+00
 -1      1797 4.95273E+03-6.64809E+02-1.85976E+00
 -1      1798 4.70437E+03-5.22688E+02-1.49458E+00
 -1      1799 5.09152E+03-7.19340E+02-1.94366E+00
 -1      1800 5.24857E+03-7.24673E+02-1.83552E+00
 -1      1801 5.03023E+03-5.80454E+02-1.48914E+00
 -1      1802 5.39020E+03-6.79620E+02-1.57949E+00
 -1      1803 5.54938E+03-6.84197E+02-1.47420E+00
 -1      1804 5.31071E+03-5.89129E+02-1.33763E+00
 -1      1805 5.74414E+03-6.89553E+02-1.36266E+00
 -1      1806 5.90556E+03-6.93688E+02-1.26800E+00
 -1      1807 5.64696E+03-5.47509E+02-1.00178E+00
 -1      1808 6.04960E+03-7.53002E+02-1.33173E+00
 -1      1809 6.21273E+03-7.57081E+02-1.23302E+00
 -1      1810 5.98622E+03-6.10051E+02-9.89355E-01
 -1      1811 6.35996E+03-7.05331E+02-1.01786E+00
 -1      1812 6.52469E+03-7.08776E+02-9.26408E-01
 -1      1813 6.27755E+03-6.17074E+02-8.51581E-01
 -1      1814 6.72590E+03-7.11595E+02-8.26583E-01
 -1      1815 6.89229E+03-7.14652E+02-7.43949E-01
 -1      1816 6.62592E+03-5.66740E+02-5.64568E-01
 -1      1817 7.04030E+03-7.74502E+02-7.81537E-01
 -1      1818 7.20792E+03-7.77473E+02-6.96064E-01
 -1      1819 6.97551E+03-6.27813E+02-5.29701E-01
 -1      1820 7.35926E+03-7.23381E+02-5.28647E-01
 -1      1821 7.52803E+03-7.25850E+02-4.49288E-01
 -1      1822 7.27491E+03-6.33177E+02-4.15650E-01
 -1      1823 7.73382E+03-7.27524E+02-3.64730E-01
 -1      1824 7.90375E+03-7.29667E+02-2.92647E-01
 -1      1825 7.63200E+03-5.79783E+02-1.86033E-01
 -1      1826 8.05452E+03-7.89826E+02-3.07646E-01
 -1      1827 8.22529E+03-7.91865E+02-2.37874E-01
 -1      1828 7.98883E+03-6.40484E+02-1.40012E-01
 -1      1829 8.37952E+03-7.36097E+02-1.12612E-01
 -1      1830 8.55106E+03-7.37752E+02-5.01489E-02
 -1      1831 8.29386E+03-6.44604E+02-4.05711E-02
 -1      1832 8.75991E+03-7.38376E+02 2.49592E-02
 -1      1833 8.93220E+03-7.39762E+02 8.15511E-02
 -1      1834 8.65695E+03-5.88820E+02 1.35997E-01
 -1      1835 9.08471E+03-7.99943E+02 8.19145E-02
 -1      1836 9.25752E+03-8.01221E+02 1.39359E-01
 -1      1837 9.01850E+03-6.48875E+02 1.87190E-01
 -1      1838 9.41322E+03-7.43679E+02 2.28585E-01
 -1      1839 9.58648E+03-7.44681E+02 2.81438E-01
 -1      1840 9.32674E+03-6.51344E+02 2.68459E-01
 -1      1841 9.79712E+03-7.41381E+02 3.38141E-01
 -1      1842 9.97082E+03-7.42177E+02 3.84157E-01
 -1      1843 9.69309E+03-5.90152E+02 4.00264E-01
 -1      1844 1.01248E+04-7.93969E+02 3.98329E-01
 -1      1845 1.02988E+04-7.94656E+02 4.42858E-01
 -1      1846 1.00578E+04-6.38201E+02 4.55610E-01
 -1      1847 1.04530E+04-7.43291E+02 4.98370E-01
 -1      1848 1.06272E+04-7.43799E+02 5.35659E-01
 -1      1849 1.03661E+04-6.38511E+02 5.18372E-01
 -1      1850 1.08394E+04-7.49256E+02 5.75747E-01
 -1      1851 1.10137E+04-7.49627E+02 6.09570E-01
 -1      1852 1.07325E+04-5.92437E+02 6.01503E-01
 -1      1853 1.11699E+04-8.13345E+02 6.23673E-01
 -1      1854 1.13443E+04-8.13633E+02 6.54452E-01
 -1      1855 1.11009E+04-6.61385E+02 6.45267E-01
 -1      1856 1.14990E+04-7.49880E+02 6.89372E-01
 -1      1857 1.16736E+04-7.50065E+02 7.14499E-01
 -1      1858 1.14117E+04-6.61314E+02 6.90465E-01
 -1      1859 1.18867E+04-7.48067E+02 7.41321E-01
 -1      1860 1.20613E+04-7.48173E+02 7.61738E-01
 -1      1861 1.17797E+04-5.95535E+02 7.45127E-01
 -1      1862 1.22180E+04-8.04027E+02 7.74185E-01
 -1      1863 1.23926E+04-8.04085E+02 7.90518E-01
 -1      1864 1.21496E+04-6.49322E+02 7.78066E-01
 -1      1865 1.25536E+04-7.49655E+02 8.06730E-01
 -1      1866 1.27281E+04-7.49680E+02 8.18971E-01
 -1      1867 1.24674E+04-6.50737E+02 8.05025E-01
 -1      1868 1.28154E+04-6.42647E+02 8.28622E-01
 -1      1869 6.06716E+01-7.05588E+01-4.74003E+00
 -1      1870 7.09512E+01-8.03578E+01-5.87335E+00
 -1      1871 5.65376E+01-6.68575E+01-4.06589E+00
 -1      1872 7.78823E+01-8.63151E+01-6.41300E+00
 -1      1873 9.11035E+01-9.74913E+01-7.31132E+00
 -1      1874 6.91259E+01-7.73903E+01-5.43291E+00
 -1      1875 1.14231E+02-1.15450E+02-8.45359E+00
 -1      1876 1.35832E+02-1.29836E+02-8.92859E+00
 -1      1877 8.24073E+01-8.12309E+01-5.57896E+00
 -1      1878 9.94607E+01-1.00236E+02-7.23055E+00
 -1      1879 1.03374E+02-9.28964E+01-6.26900E+00
 -1      1880 1.31980E+02-1.09542E+02-6.91292E+00
 -1      1881 1.50659E+02-1.33226E+02-8.57877E+00
 -1      1882 1.66404E+02-1.25287E+02-7.22299E+00
 -1      1883 1.35463E+04-9.04417E+02 8.47613E-01
 -1      1884 1.36845E+04-9.38341E+02 8.49872E-01
 -1      1885 1.34500E+04-7.45886E+02 8.53456E-01
 -1      1886 1.35119E+04-8.48319E+02 8.49846E-01
 -1      1887 1.35978E+04-8.26874E+02 8.53822E-01
 -1      1888 1.37002E+04-8.62255E+02 8.55000E-01
 -1      1889 5.94808E+01-6.81503E+01-3.94216E+00
 -1      1890 6.69355E+01-6.51775E+01-4.02156E+00
 -1      1891 6.55505E+01-7.07561E+01-4.50951E+00
 -1      1892 7.13024E+01-3.60791E+01-1.64647E+00
 -1      1893 7.00463E+01-4.99676E+01-2.63948E+00
 -1      1894 8.59830E+01-6.35110E+01-3.88875E+00
 -1      1895 7.32134E+01-6.33874E+01-3.71413E+00
 -1      1896 7.59566E+01-4.83914E+00 7.49442E-01
 -1      1897 7.51739E+01-2.15840E+01-3.58406E-01
 -1      1898 8.70464E+01-3.09819E+01-1.17286E+00
 -1      1899 7.23659E+01 2.45524E+01 3.01585E+00
 -1      1900 7.22227E+01 1.01542E+01 2.02747E+00
 -1      1901 8.71799E+01 5.97665E+00 1.70688E+00
 -1      1902 7.01294E+01 4.79175E+01 4.73843E+00
 -1      1903 7.06431E+01 4.15987E+01 4.40761E+00
 -1      1904 7.69503E+01 3.87039E+01 4.16116E+00
 -1      1905 8.79920E+01 3.88448E+01 4.48595E+00
 -1      1906 8.63048E+01 5.77202E+01 6.18099E+00
 -1      1907 6.15163E+01 4.51422E+01 4.21933E+00
 -1      1908 6.41409E+01 4.42354E+01 3.99066E+00
 -1      1909 7.29289E+01 5.30431E+01 5.46114E+00
 -1      1910 6.59144E+01 4.92451E+01 5.03328E+00
 -1      1911 6.24149E+01 4.62901E+01 4.46171E+00
 -1      1912 6.77665E+01 5.04890E+01 5.02152E+00
 -1      1913 1.36658E+04-8.06157E+02 8.57222E-01
 -1      1914 1.35851E+04-6.50855E+02 8.64030E-01
 -1      1915 1.34364E+04-3.89794E+02 8.73495E-01
 -1      1916 1.33949E+04-2.19771E+02 8.81818E-01
 -1      1917 1.34716E+04-6.25964E+02 8.61081E-01
 -1      1918 1.32730E+04-6.13682E+02 8.53420E-01
 -1      1919 1.34081E+04-5.18652E+02 8.64663E-01
 -1      1920 1.32378E+04-3.77513E+02 8.64573E-01
 -1      1921 1.33565E+04-1.00222E+02 8.86755E-01
 -1      1922 1.33565E+04 7.47941E+01 8.97118E-01
 -1      1923 1.32278E+04-1.29112E+02 8.78087E-01
 -1      1924 1.33906E+04 2.25147E+02 9.07297E-01
 -1      1925 1.34321E+04 3.95145E+02 9.20668E-01
 -1      1926 1.32235E+04 1.40786E+02 8.92621E-01
 -1      1927 1.35868E+04 6.09777E+02 9.45317E-01
 -1      1928 1.36676E+04 7.65032E+02 9.59597E-01
 -1      1929 1.34522E+04 5.55229E+02 9.32868E-01
 -1      1930 1.34323E+04 6.65865E+02 9.39789E-01
 -1      1931 1.32776E+04 4.51232E+02 9.13056E-01
 -1      1932 1.37006E+04 8.28049E+02 9.65668E-01
 -1      1933 1.36849E+04 9.04115E+02 9.70858E-01
 -1      1934 1.36000E+04 7.83429E+02 9.59160E-01
 -1      1935 1.35468E+04 8.70193E+02 9.65172E-01
 -1      1936 1.35137E+04 8.07177E+02 9.59002E-01
 -1      1937 1.27617E+04 7.24911E+02 8.83275E-01
 -1      1938 1.25854E+04 7.24872E+02 8.83549E-01
 -1      1939 1.28508E+04 6.24644E+02 8.87283E-01
 -1      1940 1.24230E+04 7.47094E+02 8.86085E-01
 -1      1941 1.22467E+04 7.47020E+02 8.91734E-01
 -1      1942 1.25363E+04 6.00917E+02 8.81299E-01
 -1      1943 1.19986E+04 7.44752E+02 9.02556E-01
 -1      1944 1.18223E+04 7.44604E+02 9.12297E-01
 -1      1945 1.21252E+04 6.78430E+02 8.91641E-01
 -1      1946 1.20044E+04 5.52310E+02 8.86153E-01
 -1      1947 1.22525E+04 5.54565E+02 8.80225E-01
 -1      1948 1.16576E+04 7.20277E+02 9.20171E-01
 -1      1949 1.14812E+04 7.20059E+02 9.33306E-01
 -1      1950 1.17131E+04 5.94309E+02 9.01209E-01
 -1      1951 1.13264E+04 7.71808E+02 9.54911E-01
 -1      1952 1.11502E+04 7.71484E+02 9.74236E-01
 -1      1953 1.13935E+04 6.21773E+02 9.25207E-01
 -1      1954 1.09945E+04 7.16811E+02 9.79095E-01
 -1      1955 1.08183E+04 7.16400E+02 1.00102E+00
 -1      1956 1.10830E+04 6.18895E+02 9.47343E-01
 -1      1957 1.06064E+04 7.12953E+02 1.02620E+00
 -1      1958 1.04305E+04 7.12400E+02 1.05333E+00
 -1      1959 1.07154E+04 5.60993E+02 9.66715E-01
 -1      1960 1.02716E+04 7.62378E+02 1.09751E+00
 -1      1961 1.00959E+04 7.61643E+02 1.13143E+00
 -1      1962 1.03446E+04 6.07697E+02 1.02580E+00
 -1      1963 9.94123E+03 7.08484E+02 1.13405E+00
 -1      1964 9.76578E+03 7.07637E+02 1.16743E+00
 -1      1965 1.00310E+04 6.04640E+02 1.06683E+00
 -1      1966 9.55231E+03 7.08146E+02 1.20865E+00
 -1      1967 9.37731E+03 7.07091E+02 1.24948E+00
 -1      1968 9.66281E+03 5.52457E+02 1.09490E+00
 -1      1969 9.21892E+03 7.61863E+02 1.32696E+00
 -1      1970 9.04440E+03 7.60526E+02 1.37162E+00
 -1      1971 9.29094E+03 6.08122E+02 1.19765E+00
 -1      1972 8.89157E+03 7.03257E+02 1.36380E+00
 -1      1973 8.71758E+03 7.01804E+02 1.41138E+00
 -1      1974 8.97969E+03 6.05825E+02 1.25717E+00
 -1      1975 8.50405E+03 7.01588E+02 1.46771E+00
 -1      1976 8.33085E+03 6.99861E+02 1.52188E+00
 -1      1977 8.61312E+03 5.49128E+02 1.28527E+00
 -1      1978 8.17658E+03 7.51915E+02 1.63253E+00
 -1      1979 8.00418E+03 7.49804E+02 1.69299E+00
 -1      1980 8.24533E+03 6.01631E+02 1.43355E+00
 -1      1981 7.85438E+03 6.92350E+02 1.66958E+00
 -1      1982 7.68284E+03 6.90127E+02 1.72791E+00
 -1      1983 7.94122E+03 5.96547E+02 1.51024E+00
 -1      1984 7.47208E+03 6.89056E+02 1.80275E+00
 -1      1985 7.30177E+03 6.86496E+02 1.86886E+00
 -1      1986 7.58035E+03 5.39219E+02 1.53303E+00
 -1      1987 7.15001E+03 7.36742E+02 2.02071E+00
 -1      1988 6.98089E+03 7.33674E+02 2.09511E+00
 -1      1989 7.21788E+03 5.89431E+02 1.73528E+00
 -1      1990 6.83467E+03 6.76815E+02 2.05022E+00
 -1      1991 6.66683E+03 6.73656E+02 2.12316E+00
 -1      1992 6.91985E+03 5.83279E+02 1.82884E+00
 -1      1993 6.45955E+03 6.73809E+02 2.21668E+00
 -1      1994 6.29346E+03 6.70231E+02 2.29677E+00
 -1      1995 6.56592E+03 5.28254E+02 1.84811E+00
 -1      1996 6.14487E+03 7.24635E+02 2.51145E+00
 -1      1997 5.98045E+03 7.20386E+02 2.60207E+00
 -1      1998 6.21014E+03 5.84270E+02 2.12850E+00
 -1      1999 5.83984E+03 6.57494E+02 2.51353E+00
 -1      2000 5.67716E+03 6.53219E+02 2.59779E+00
 -1      2001 5.92091E+03 5.76283E+02 2.24193E+00
 -1      2002 5.47741E+03 6.49280E+02 2.70423E+00
 -1      2003 5.31709E+03 6.44534E+02 2.79856E+00
 -1      2004 5.58001E+03 5.11679E+02 2.22293E+00
 -1      2005 5.17331E+03 6.95541E+02 3.07199E+00
 -1      2006 5.01521E+03 6.89961E+02 3.17141E+00
 -1      2007 5.23660E+03 5.60759E+02 2.56723E+00
 -1      2008 4.87886E+03 6.53611E+02 3.14132E+00
 -1      2009 4.72309E+03 6.47848E+02 3.24648E+00
 -1      2010 4.95638E+03 5.76148E+02 2.79374E+00
 -1      2011 4.53782E+03 6.17715E+02 3.26641E+00
 -1      2012 4.38505E+03 6.11636E+02 3.37455E+00
 -1      2013 4.63414E+03 5.11805E+02 2.75494E+00
 -1      2014 4.24431E+03 6.57818E+02 3.71131E+00
 -1      2015 4.09443E+03 6.50740E+02 3.82521E+00
 -1      2016 4.30824E+03 5.30686E+02 3.07112E+00
 -1      2017 3.96411E+03 6.14034E+02 3.77265E+00
 -1      2018 3.81721E+03 6.06788E+02 3.88644E+00
 -1      2019 4.03712E+03 5.41148E+02 3.33568E+00
 -1      2020 3.64563E+03 5.77510E+02 3.90048E+00
 -1      2021 3.50247E+03 5.69929E+02 4.02228E+00
 -1      2022 3.73452E+03 4.77860E+02 3.26069E+00
 -1      2023 3.36978E+03 6.10576E+02 4.42639E+00
 -1      2024 3.23023E+03 6.01814E+02 4.55228E+00
 -1      2025 3.43036E+03 4.92784E+02 3.63683E+00
 -1      2026 3.11083E+03 5.66466E+02 4.47671E+00
 -1      2027 2.97496E+03 5.57558E+02 4.60823E+00
 -1      2028 3.17822E+03 4.99318E+02 3.94163E+00
 -1      2029 2.81915E+03 5.28719E+02 4.61244E+00
 -1      2030 2.68783E+03 5.19470E+02 4.74794E+00
 -1      2031 2.90213E+03 4.38370E+02 3.83271E+00
 -1      2032 2.56307E+03 5.52805E+02 5.22320E+00
 -1      2033 2.43622E+03 5.42187E+02 5.36491E+00
 -1      2034 2.62153E+03 4.47272E+02 4.26647E+00
 -1      2035 2.33264E+03 5.09372E+02 5.26925E+00
 -1      2036 2.21015E+03 4.98633E+02 5.41030E+00
 -1      2037 2.39321E+03 4.49316E+02 4.62291E+00
 -1      2038 2.06848E+03 4.68505E+02 5.39598E+00
 -1      2039 1.95151E+03 4.57432E+02 5.54335E+00
 -1      2040 2.14668E+03 3.90185E+02 4.46878E+00
 -1      2041 1.83888E+03 4.82042E+02 6.08275E+00
 -1      2042 1.72733E+03 4.69431E+02 6.23488E+00
 -1      2043 1.89224E+03 3.90098E+02 4.93618E+00
 -1      2044 1.64059E+03 4.43780E+02 6.16787E+00
 -1      2045 1.53415E+03 4.30947E+02 6.32458E+00
 -1      2046 1.69295E+03 3.91019E+02 5.38097E+00
 -1      2047 1.44393E+03 4.17063E+02 6.42201E+00
 -1      2048 1.34309E+03 4.03652E+02 6.57596E+00
 -1      2049 1.51481E+03 3.55115E+02 5.37649E+00
 -1      2050 1.19808E+03 3.65862E+02 6.54652E+00
 -1      2051 1.10513E+03 3.52123E+02 6.70150E+00
 -1      2052 1.28057E+03 3.42399E+02 5.88428E+00
 -1      2053 1.21517E+03 2.50544E+02 4.65235E+00
 -1      2054 1.36121E+03 2.82209E+02 4.74998E+00
 -1      2055 1.02656E+03 3.47623E+02 6.97986E+00
 -1      2056 9.39946E+02 3.32917E+02 7.14455E+00
 -1      2057 1.05437E+03 2.73661E+02 5.53918E+00
 -1      2058 8.60394E+02 3.05631E+02 7.02987E+00
 -1      2059 7.80643E+02 2.90775E+02 7.18789E+00
 -1      2060 8.96172E+02 2.46605E+02 5.64926E+00
 -1      2061 7.13276E+02 2.85760E+02 7.52492E+00
 -1      2062 6.40539E+02 2.69760E+02 7.69487E+00
 -1      2063 7.48980E+02 2.21294E+02 5.80728E+00
 -1      2064 5.78158E+02 2.55710E+02 7.86751E+00
 -1      2065 5.12766E+02 2.38927E+02 8.04558E+00
 -1      2066 6.17956E+02 2.07885E+02 6.26074E+00
 -1      2067 4.20207E+02 2.16328E+02 8.48545E+00
 -1      2068 3.65015E+02 1.98063E+02 8.71372E+00
 -1      2069 5.01266E+02 1.57044E+02 5.66904E+00
 -1      2070 4.59561E+02 1.97295E+02 7.33313E+00
 -1      2071 4.08953E+02 1.42566E+02 6.03432E+00
 -1      2072 3.24168E+02 1.45218E+02 7.27902E+00
 -1      2073 1.76486E+02 1.17940E+02 9.69253E+00
 -1      2074 1.51609E+02 1.05752E+02 9.50921E+00
 -1      2075 1.87455E+02 1.08716E+02 8.48145E+00
 -1      2076 1.33050E+02 9.77735E+01 9.51681E+00
 -1      2077 1.15161E+02 8.67054E+01 8.93785E+00
 -1      2078 1.39728E+02 8.63759E+01 7.81640E+00
 -1      2079 9.27719E+01 7.07428E+01 7.69609E+00
 -1      2080 8.13383E+01 6.18823E+01 6.71044E+00
 -1      2081 1.00902E+02 7.33493E+01 7.68563E+00
 -1      2082 1.07123E+02 6.75707E+01 6.87429E+00
 -1      2083 7.54055E+01 5.72249E+01 6.09995E+00
 -1      2084 7.41720E+01 5.54790E+01 5.79822E+00
 -1      2085 1.66905E+02-1.13808E+01 5.29845E-01
 -1      2086 1.52127E+02 1.16604E+01 2.05014E+00
 -1      2087 1.84096E+02 1.37897E+01 2.05786E+00
 -1      2088 1.83453E+02-3.42718E+01-8.17664E-01
 -1      2089 1.51492E+02-3.09707E+01-7.77147E-01
 -1      2090 2.43044E+02-1.62181E+01 3.31011E-01
 -1      2091 2.60413E+02-4.88460E+01-1.24582E+00
 -1      2092 2.16569E+02-4.13245E+01-1.07245E+00
 -1      2093 2.22183E+02 1.07596E+01 1.76785E+00
 -1      2094 2.66631E+02 9.20030E+00 1.57116E+00
 -1      2095 2.04045E+02 3.71450E+01 3.33151E+00
 -1      2096 1.98148E+02-6.27577E+01-2.40602E+00
 -1      2097 4.08447E+02-2.85462E+00 8.60817E-01
 -1      2098 4.05866E+02 6.33325E+01 3.21332E+00
 -1      2099 4.50333E+02 5.06181E+01 2.59597E+00
 -1      2100 4.82691E+02 9.33253E+01 3.82981E+00
 -1      2101 4.84988E+02 2.06116E+01 1.52963E+00
 -1      2102 5.18302E+02-1.58689E+01 3.89417E-01
 -1      2103 5.51087E+02-5.80658E+01-8.17207E-01
 -1      2104 4.84325E+02-5.90728E+01-9.52681E-01
 -1      2105 5.51941E+02 2.72587E+01 1.61989E+00
 -1      2106 4.19373E+02-5.27106E+01-8.93957E-01
 -1      2107 3.75944E+02-3.47994E+01-3.16442E-01
 -1      2108 4.49449E+02-9.20046E+01-2.12566E+00
 -1      2109 1.23948E+04 1.41365E+02 8.54629E-01
 -1      2110 1.25644E+04 1.81212E+02 8.63071E-01
 -1      2111 1.24892E+04-1.53345E+01 8.47833E-01
 -1      2112 1.22267E+04 7.27006E+01 8.45756E-01
 -1      2113 1.23019E+04 2.69225E+02 8.61876E-01
 -1      2114 1.24440E+04-1.60063E+02 8.35958E-01
 -1      2115 1.24404E+04-3.48427E+02 8.22069E-01
 -1      2116 1.23160E+04-2.43499E+02 8.22863E-01
 -1      2117 1.21929E+04-3.56879E+02 8.06760E-01
 -1      2118 1.21965E+04-1.68548E+02 8.22091E-01
 -1      2119 1.26135E+04-1.20244E+02 8.46607E-01
 -1      2120 1.20173E+04-1.52847E+02 8.15394E-01
 -1      2121 1.21404E+04-3.94787E+01 8.31896E-01
 -1      2122 1.20475E+04 8.83595E+01 8.40916E-01
 -1      2123 1.13765E+04-1.47192E+02 7.80046E-01
 -1      2124 1.13774E+04-3.78622E+02 7.35695E-01
 -1      2125 1.12559E+04-2.45390E+02 7.53444E-01
 -1      2126 1.11354E+04-1.48137E+02 7.65802E-01
 -1      2127 1.11365E+04-3.79435E+02 7.12111E-01
 -1      2128 1.13741E+04 3.25219E+02 8.71599E-01
 -1      2129 1.13780E+04 1.17376E+02 8.32367E-01
 -1      2130 1.12511E+04 1.93707E+02 8.46046E-01
 -1      2131 1.11285E+04 3.20854E+02 8.76534E-01
 -1      2132 1.11323E+04 1.13137E+02 8.29337E-01
 -1      2133 1.15659E+04 1.20206E+02 8.35324E-01
 -1      2134 1.14429E+04-1.12774E+01 8.09258E-01
 -1      2135 1.15644E+04-1.44465E+02 7.91928E-01
 -1      2136 1.09528E+04-1.49674E+02 7.55855E-01
 -1      2137 1.10723E+04-1.56653E+01 7.95546E-01
 -1      2138 1.09497E+04 1.11459E+02 8.25053E-01
 -1      2139 1.02003E+04 1.84914E+02 8.55669E-01
 -1      2140 1.03165E+04 3.10296E+02 9.07011E-01
 -1      2141 1.03221E+04 1.12150E+02 8.19278E-01
 -1      2142 1.00830E+04 1.09854E+02 8.23780E-01
 -1      2143 1.00774E+04 3.07746E+02 9.16317E-01
 -1      2144 1.02095E+04-2.12791E+02 6.76265E-01
 -1      2145 1.03260E+04-1.38830E+02 7.17890E-01
 -1      2146 1.03297E+04-3.38703E+02 6.33305E-01
 -1      2147 1.00897E+04-1.40055E+02 6.98130E-01
 -1      2148 1.00934E+04-3.39681E+02 6.03927E-01
 -1      2149 1.04981E+04 1.15615E+02 8.25002E-01
 -1      2150 1.03819E+04-9.72409E+00 7.73187E-01
 -1      2151 1.05020E+04-1.35577E+02 7.29684E-01
 -1      2152 9.91026E+03-1.42605E+02 6.87368E-01
 -1      2153 1.00264E+04-1.57685E+01 7.58228E-01
 -1      2154 9.90354E+03 1.07035E+02 8.18653E-01
 -1      2155 9.26601E+03 3.14605E+02 9.82143E-01
 -1      2156 9.28175E+03 1.06768E+02 8.20050E-01
 -1      2157 9.15425E+03 1.87962E+02 8.91038E-01
 -1      2158 9.02632E+03 3.14003E+02 1.00315E+00
 -1      2159 9.04201E+03 1.06660E+02 8.31015E-01
 -1      2160 9.29056E+03-1.48628E+02 6.33053E-01
 -1      2161 9.29169E+03-3.64804E+02 4.68869E-01
 -1      2162 9.17110E+03-2.35495E+02 5.51667E-01
 -1      2163 9.05422E+03-3.64728E+02 4.33818E-01
 -1      2164 9.05308E+03-1.49046E+02 6.09176E-01
 -1      2165 9.46354E+03 1.05928E+02 8.22992E-01
 -1      2166 9.35168E+03-2.06618E+01 7.30364E-01
 -1      2167 9.47236E+03-1.49880E+02 6.45659E-01
 -1      2168 8.87174E+03-1.49668E+02 5.97250E-01
 -1      2169 8.98852E+03-2.04938E+01 7.18089E-01
 -1      2170 8.86070E+03 1.05534E+02 8.27650E-01
 -1      2171 8.22557E+03 3.10090E+02 1.09144E+00
 -1      2172 8.24506E+03 1.04956E+02 8.41269E-01
 -1      2173 8.11871E+03 1.84340E+02 9.46461E-01
 -1      2174 7.99003E+03 3.08479E+02 1.11614E+00
 -1      2175 8.00943E+03 1.04118E+02 8.48231E-01
 -1      2176 8.25777E+03-1.48700E+02 5.39196E-01
 -1      2177 8.25893E+03-3.62013E+02 2.83704E-01
 -1      2178 8.13932E+03-2.33261E+02 4.21284E-01
 -1      2179 8.02358E+03-3.60393E+02 2.38523E-01
 -1      2180 8.02241E+03-1.47867E+02 5.13825E-01
 -1      2181 8.42358E+03 1.03872E+02 8.39167E-01
 -1      2182 8.31655E+03-2.18311E+01 6.93181E-01
 -1      2183 8.43632E+03-1.50444E+02 5.52558E-01
 -1      2184 7.84228E+03-1.48333E+02 4.96738E-01
 -1      2185 7.95784E+03-2.12817E+01 6.78829E-01
 -1      2186 7.82934E+03 1.02875E+02 8.47828E-01
 -1      2187 7.20068E+03 3.02896E+02 1.23076E+00
 -1      2188 7.22227E+03 1.01755E+02 8.65039E-01
 -1      2189 7.09702E+03 1.79285E+02 1.01749E+00
 -1      2190 6.96949E+03 3.00769E+02 1.26375E+00
 -1      2191 6.99095E+03 1.00745E+02 8.77036E-01
 -1      2192 7.23688E+03-1.46899E+02 4.31998E-01
 -1      2193 7.23955E+03-3.55881E+02 5.49352E-02
 -1      2194 7.12121E+03-2.29676E+02 2.62232E-01
 -1      2195 7.00840E+03-3.53724E+02 8.21211E-03
 -1      2196 7.00572E+03-1.45879E+02 3.99914E-01
 -1      2197 7.39769E+03 1.01031E+02 8.63837E-01
 -1      2198 7.29378E+03-2.25524E+01 6.50071E-01
 -1      2199 7.41236E+03-1.48588E+02 4.43778E-01
 -1      2200 6.82856E+03-1.46072E+02 3.82465E-01
 -1      2201 6.94110E+03-2.21010E+01 6.36826E-01
 -1      2202 6.81384E+03 9.94412E+01 8.79437E-01
 -1      2203 6.23848E+03-1.62990E+02 2.58458E-01
 -1      2204 6.24141E+03-3.51318E+02-2.16969E-01
 -1      2205 6.12726E+03-2.40831E+02 4.04716E-02
 -1      2206 6.01754E+03-3.48948E+02-2.74811E-01
 -1      2207 6.01460E+03-1.62066E+02 2.20758E-01
 -1      2208 6.18472E+03 8.32140E+01 8.68447E-01
 -1      2209 6.34948E+03 9.84443E+01 9.06600E-01
 -1      2210 6.28898E+03-3.88726E+01 5.68353E-01
 -1      2211 6.40348E+03-1.49064E+02 3.09925E-01
 -1      2212 5.84193E+03-1.48857E+02 2.33869E-01
 -1      2213 5.95125E+03-4.07666E+01 5.45789E-01
 -1      2214 5.83983E+03 9.44939E+01 9.19289E-01
 -1      2215 6.01245E+03 8.28449E+01 8.82538E-01
 -1      2216 6.07260E+03 2.19188E+02 1.23509E+00
 -1      2217 5.27606E+03-1.66342E+02 8.50295E-02
 -1      2218 5.27680E+03-3.31485E+02-4.85661E-01
 -1      2219 5.16912E+03-2.33651E+02-1.82208E-01
 -1      2220 5.06407E+03-3.28836E+02-5.55068E-01
 -1      2221 5.06330E+03-1.65394E+02 3.42490E-02
 -1      2222 5.22876E+03 6.48999E+01 8.62890E-01
 -1      2223 5.38462E+03 8.88397E+01 9.39552E-01
 -1      2224 5.32400E+03-4.65590E+01 4.85763E-01
 -1      2225 5.43216E+03-1.44013E+02 1.76433E-01
 -1      2226 4.90845E+03-1.45415E+02 8.07766E-02
 -1      2227 5.01298E+03-5.01584E+01 4.52993E-01
 -1      2228 4.94271E+03 5.67772E+01 8.45371E-01
 -1      2229 5.09777E+03 3.83989E+01 7.81594E-01
 -1      2230 5.15794E+03 1.72641E+02 1.24902E+00
 -1      2231 4.35116E+03-1.59379E+02-1.01211E-01
 -1      2232 4.35202E+03-3.16147E+02-8.18551E-01
 -1      2233 4.24819E+03-2.22561E+02-4.27790E-01
 -1      2234 4.14846E+03-3.12764E+02-8.98301E-01
 -1      2235 4.14757E+03-1.58160E+02-1.52733E-01
 -1      2236 4.30873E+03 6.01797E+01 8.96486E-01
 -1      2237 4.46422E+03 8.12289E+01 9.88632E-01
 -1      2238 4.40247E+03-4.73182E+01 4.09138E-01
 -1      2239 4.50698E+03-1.40481E+02 1.45913E-02
 -1      2240 4.00057E+03-1.41728E+02-1.04486E-01
 -1      2241 4.09963E+03-5.14431E+01 3.66364E-01
 -1      2242 4.03021E+03 4.76016E+01 8.56347E-01
 -1      2243 4.17746E+03 3.31763E+01 7.85919E-01
 -1      2244 4.23855E+03 1.60203E+02 1.37519E+00
 -1      2245 3.47651E+03-1.49953E+02-2.95159E-01
 -1      2246 3.47751E+03-2.96248E+02-1.18726E+00
 -1      2247 3.38043E+03-2.08581E+02-6.93854E-01
 -1      2248 3.28744E+03-2.91884E+02-1.26890E+00
 -1      2249 3.28640E+03-1.48260E+02-3.52653E-01
 -1      2250 3.43605E+03 5.46486E+01 9.41384E-01
 -1      2251 3.58150E+03 7.47782E+01 1.05312E+00
 -1      2252 3.52442E+03-4.53223E+01 3.38833E-01
 -1      2253 3.62236E+03-1.32507E+02-1.56389E-01
 -1      2254 3.14949E+03-1.32607E+02-2.82109E-01
 -1      2255 3.24164E+03-4.91643E+01 2.87242E-01
 -1      2256 3.17645E+03 4.25330E+01 8.90123E-01
 -1      2257 3.31365E+03 2.93496E+01 8.00956E-01
 -1      2258 3.36991E+03 1.47534E+02 1.53320E+00
 -1      2259 2.66638E+03-1.38320E+02-5.00587E-01
 -1      2260 2.66754E+03-2.71794E+02-1.57767E+00
 -1      2261 2.57874E+03-1.91345E+02-9.81170E-01
 -1      2262 2.49430E+03-2.66284E+02-1.67488E+00
 -1      2263 2.49311E+03-1.36053E+02-5.61311E-01
 -1      2264 2.63206E+03 4.89053E+01 1.00321E+00
 -1      2265 2.76524E+03 6.78149E+01 1.13814E+00
 -1      2266 2.71017E+03-4.28112E+01 2.68286E-01
 -1      2267 2.80001E+03-1.22657E+02-3.34819E-01
 -1      2268 2.36984E+03-1.20908E+02-4.76729E-01
 -1      2269 2.45327E+03-4.57897E+01 2.13144E-01
 -1      2270 2.39841E+03 3.81797E+01 9.46209E-01
 -1      2271 2.52211E+03 2.60175E+01 8.34894E-01
 -1      2272 2.57616E+03 1.34383E+02 1.72810E+00
 -1      2273 8.10119E+02-1.12192E+02-1.69805E+00
 -1      2274 7.49676E+02-1.27830E+02-2.16561E+00
 -1      2275 7.55330E+02-3.91517E+01-1.42899E-01
 -1      2276 8.57682E+02-7.23834E+01-7.76724E-01
 -1      2277 8.52107E+02-1.66661E+02-2.75852E+00
 -1      2278 8.52277E+02 4.59805E+01 1.66559E+00
 -1      2279 9.38326E+02 5.50908E+01 1.77387E+00
 -1      2280 9.00788E+02-1.41213E+01 4.24279E-01
 -1      2281 9.43864E+02-6.87296E+01-6.37031E-01
 -1      2282 7.09787E+02 1.13899E+01 1.03603E+00
 -1      2283 7.69343E+02 3.19395E+01 1.47034E+00
 -1      2284 8.04930E+02 9.73511E+01 2.84207E+00
 -1      2285 1.91257E+03 6.32357E+01 1.30863E+00
 -1      2286 2.02973E+03 6.48365E+01 1.29978E+00
 -1      2287 1.98354E+03-1.87141E+01 4.19626E-01
 -1      2288 2.03489E+03-1.04734E+02-4.79043E-01
 -1      2289 1.91761E+03-1.02370E+02-4.95320E-01
 -1      2290 1.79681E+03-9.17692E+01-4.48661E-01
 -1      2291 1.68821E+03-9.07856E+01-4.79554E-01
 -1      2292 1.75711E+03-1.92592E+01 3.96468E-01
 -1      2293 1.70410E+03 4.27713E+01 1.14205E+00
 -1      2294 1.81311E+03 4.52639E+01 1.15001E+00
 -1      2295 1.85809E+03 1.26583E+02 2.04700E+00
 -1      2296 1.84667E+03-1.75378E+02-1.36331E+00
 -1      2297 1.32428E+03-9.72324E+01-7.90670E-01
 -1      2298 1.29301E+03-1.90789E+02-2.24536E+00
 -1      2299 1.24169E+03-1.27336E+02-1.34518E+00
 -1      2300 1.16794E+03-1.43614E+02-1.68883E+00
 -1      2301 1.19824E+03-5.38531E+01-2.05227E-01
 -1      2302 1.36281E+03-2.78895E+01 2.39339E-01
 -1      2303 1.41546E+03-9.19372E+01-6.58152E-01
 -1      2304 1.30862E+03 2.42686E+01 1.01140E+00
 -1      2305 1.39947E+03 3.31081E+01 1.11947E+00
 -1      2306 1.14547E+03 7.64797E+00 7.93648E-01
 -1      2307 1.21899E+03 2.79534E+01 1.11131E+00
 -1      2308 1.25435E+03 8.68032E+01 2.00443E+00
 -1      2309 9.82400E+01 2.97395E+01 3.58149E+00
 -1      2310 1.04208E+02 4.88960E+01 5.05646E+00
 -1      2311 1.19050E+02 6.10646E+01 5.97572E+00
 -1      2312 1.26124E+02 1.57691E+01 2.36286E+00
 -1      2313 1.12779E+02-1.19234E+01 3.85444E-01
 -1      2314 1.03545E+02 1.11709E+01 2.12545E+00
 -1      2315 1.36452E+02 6.20692E+01 5.84854E+00
 -1      2316 1.63540E+02 6.47300E+01 5.58868E+00
 -1      2317 1.40290E+02 3.82989E+01 3.89553E+00
 -1      2318 1.02501E+02-3.60198E+01-1.47895E+00
 -1      2319 1.24942E+02-3.85500E+01-1.42056E+00
 -1      2320 9.70787E+01-5.42390E+01-2.91090E+00
 -1      2321 1.01086E+02-7.30982E+01-4.34306E+00
 -1      2322 1.16006E+02-8.63949E+01-5.28007E+00
 -1      2323 1.38393E+02-5.93081E+01-2.76614E+00
 -1      2324 1.56238E+02-8.36000E+01-4.26986E+00
 -1      2325 1.29630E+02-8.42342E+01-4.83144E+00
 -1      2326 1.30659E+04-3.86255E+02 8.55319E-01
 -1      2327 1.31059E+04-5.97672E+02 8.46611E-01
 -1      2328 1.29623E+04-4.77553E+02 8.45525E-01
 -1      2329 1.30943E+04-2.57405E+02 8.63808E-01
 -1      2330 1.30559E+04-1.37861E+02 8.68438E-01
 -1      2331 1.29280E+04-8.50158E+01 8.64516E-01
 -1      2332 1.30615E+04 4.32744E+01 8.78248E-01
 -1      2333 1.27454E+04-2.65569E+02 8.44915E-01
 -1      2334 1.27905E+04-1.20815E+02 8.55627E-01
 -1      2335 1.27962E+04 6.03038E+01 8.65844E-01
 -1      2336 1.27754E+04-4.31231E+02 8.37197E-01
 -1      2337 1.25984E+04-4.30637E+02 8.27255E-01
 -1      2338 2.26224E+03 3.00057E+02 3.43759E+00
 -1      2339 2.40222E+03 3.60819E+02 3.82833E+00
 -1      2340 2.37410E+03 2.41184E+02 2.77301E+00
 -1      2341 2.49143E+03 2.05314E+02 2.37564E+00
 -1      2342 2.34986E+03 1.47628E+02 1.96084E+00
 -1      2343 2.11923E+03 2.75072E+02 3.38166E+00
 -1      2344 2.09502E+03 1.64670E+02 2.27745E+00
 -1      2345 1.98215E+03 2.53953E+02 3.31200E+00
 -1      2346 2.28235E+03 7.63379E+01 1.32958E+00
 -1      2347 2.21546E+03-2.56278E+01 3.69159E-01
 -1      2348 2.16799E+03 8.09626E+01 1.39919E+00
 -1      2349 3.02766E+03 3.35152E+02 2.96524E+00
 -1      2350 3.16715E+03 3.95418E+02 3.27112E+00
 -1      2351 3.13534E+03 2.64153E+02 2.39369E+00
 -1      2352 3.26210E+03 2.22272E+02 2.05337E+00
 -1      2353 3.12147E+03 1.64340E+02 1.72972E+00
 -1      2354 2.87085E+03 3.10557E+02 2.93575E+00
 -1      2355 2.84030E+03 1.82312E+02 1.98090E+00
 -1      2356 2.71695E+03 2.84782E+02 2.85306E+00
 -1      2357 3.05051E+03 8.62994E+01 1.21907E+00
 -1      2358 2.97404E+03-3.01021E+01 3.90490E-01
 -1      2359 2.91998E+03 8.93216E+01 1.25547E+00
 -1      2360 3.87160E+03 3.65022E+02 2.54891E+00
 -1      2361 4.02291E+03 4.28827E+02 2.79220E+00
 -1      2362 3.98715E+03 2.87472E+02 2.08145E+00
 -1      2363 4.12361E+03 2.41339E+02 1.80075E+00
 -1      2364 3.97140E+03 1.79486E+02 1.54425E+00
 -1      2365 3.69923E+03 3.39285E+02 2.53317E+00
 -1      2366 3.66347E+03 1.99679E+02 1.74605E+00
 -1      2367 3.52824E+03 3.11805E+02 2.45854E+00
 -1      2368 3.89442E+03 9.52353E+01 1.12405E+00
 -1      2369 3.81128E+03-3.12477E+01 4.43596E-01
 -1      2370 3.75320E+03 9.86694E+01 1.15055E+00
 -1      2371 4.77774E+03 3.90538E+02 2.18138E+00
 -1      2372 4.95519E+03 4.64279E+02 2.38178E+00
 -1      2373 4.91242E+03 3.13437E+02 1.82438E+00
 -1      2374 5.05905E+03 2.65854E+02 1.60298E+00
 -1      2375 4.88084E+03 1.93868E+02 1.38178E+00
 -1      2376 4.59186E+03 3.63297E+02 2.16487E+00
 -1      2377 4.55197E+03 2.14719E+02 1.54139E+00
 -1      2378 4.40984E+03 3.35290E+02 2.11901E+00
 -1      2379 4.79675E+03 1.05556E+02 1.05305E+00
 -1      2380 4.70806E+03-2.91725E+01 5.12027E-01
 -1      2381 4.64678E+03 1.06356E+02 1.06669E+00
 -1      2382 5.49367E+03 3.73589E+02 1.83593E+00
 -1      2383 5.69367E+03 3.75245E+02 1.76130E+00
 -1      2384 5.44774E+03 2.18587E+02 1.34602E+00
 -1      2385 5.33496E+03 3.53968E+02 1.81984E+00
 -1      2386 5.69283E+03 1.04881E+02 9.66280E-01
 -1      2387 5.62929E+03-2.58311E+01 5.70159E-01
 -1      2388 5.54364E+03 1.06592E+02 9.73997E-01
 -1      2389 5.75368E+03 2.27701E+02 1.31516E+00
 -1      2390 5.84060E+03 3.66386E+02 1.69390E+00
 -1      2391 6.47399E+03 3.88510E+02 1.56775E+00
 -1      2392 6.68146E+03 3.86647E+02 1.49658E+00
 -1      2393 6.41687E+03 2.33658E+02 1.21551E+00
 -1      2394 6.30202E+03 3.74362E+02 1.57388E+00
 -1      2395 6.67662E+03 1.12397E+02 9.19213E-01
 -1      2396 6.60890E+03-2.35583E+01 6.20776E-01
 -1      2397 6.52169E+03 1.11089E+02 9.15463E-01
 -1      2398 6.72629E+03 2.34627E+02 1.17034E+00
 -1      2399 6.81864E+03 3.74696E+02 1.44572E+00
 -1      2400 7.48470E+03 3.96723E+02 1.33740E+00
 -1      2401 7.69559E+03 3.96603E+02 1.28711E+00
 -1      2402 7.46282E+03 2.39833E+02 1.08263E+00
 -1      2403 7.34796E+03 3.81899E+02 1.33669E+00
 -1      2404 7.68875E+03 1.16264E+02 8.76161E-01
 -1      2405 7.62347E+03-2.29483E+01 6.62633E-01
 -1      2406 7.53456E+03 1.15035E+02 8.76213E-01
 -1      2407 7.74021E+03 2.41245E+02 1.05458E+00
 -1      2408 7.83615E+03 3.83915E+02 1.24604E+00
 -1      2409 8.51456E+03 4.04522E+02 1.15697E+00
 -1      2410 8.72818E+03 4.03962E+02 1.11817E+00
 -1      2411 8.49070E+03 2.45105E+02 9.87321E-01
 -1      2412 8.37588E+03 3.89873E+02 1.15892E+00
 -1      2413 8.71835E+03 1.19188E+02 8.46395E-01
 -1      2414 8.65113E+03-2.23134E+01 7.03509E-01
 -1      2415 8.56233E+03 1.17972E+02 8.46376E-01
 -1      2416 8.77177E+03 2.46078E+02 9.64651E-01
 -1      2417 8.87051E+03 3.90763E+02 1.09018E+00
 -1      2418 1.18868E+04-4.49372E+02 7.73551E-01
 -1      2419 1.16736E+04-4.51433E+02 7.52950E-01
 -1      2420 1.15322E+04-4.38943E+02 7.42903E-01
 -1      2421 1.16394E+04-2.92863E+02 7.73814E-01
 -1      2422 1.19271E+04-2.93620E+02 7.94070E-01
 -1      2423 1.20331E+04-4.37692E+02 7.86618E-01
 -1      2424 1.17058E+04-1.56881E+02 7.98661E-01
 -1      2425 1.17961E+04-1.61472E+01 8.21301E-01
 -1      2426 1.18710E+04-1.64569E+02 8.05301E-01
 -1      2427 1.08393E+04-4.51284E+02 6.60196E-01
 -1      2428 1.06271E+04-4.46043E+02 6.29836E-01
 -1      2429 1.04832E+04-4.25835E+02 6.20772E-01
 -1      2430 1.05900E+04-2.84848E+02 6.83099E-01
 -1      2431 1.08749E+04-2.93566E+02 7.07505E-01
 -1      2432 1.09804E+04-4.39932E+02 6.80339E-01
 -1      2433 1.06459E+04-1.55598E+02 7.33870E-01
 -1      2434 1.07238E+04-1.18122E+01 7.84214E-01
 -1      2435 1.08118E+04-1.61148E+02 7.40507E-01
 -1      2436 9.56343E+03 4.06681E+02 1.01769E+00
 -1      2437 9.77696E+03 4.05714E+02 9.91375E-01
 -1      2438 9.53551E+03 2.46726E+02 9.13871E-01
 -1      2439 9.42149E+03 3.93197E+02 1.02166E+00
 -1      2440 9.76222E+03 1.20863E+02 8.29396E-01
 -1      2441 9.69019E+03-2.00809E+01 7.43398E-01
 -1      2442 9.60552E+03 1.19073E+02 8.27202E-01
 -1      2443 9.81881E+03 2.46351E+02 8.99250E-01
 -1      2444 9.91827E+03 3.92141E+02 9.73231E-01
 -1      2445 2.28398E+03-3.17169E+02-2.34763E+00
 -1      2446 2.13755E+03-3.11548E+02-2.48942E+00
 -1      2447 2.01661E+03-2.94797E+02-2.46391E+00
 -1      2448 2.08862E+03-2.02495E+02-1.43689E+00
 -1      2449 2.15622E+03-1.17091E+02-5.33839E-01
 -1      2450 2.27042E+03-1.25666E+02-5.72000E-01
 -1      2451 2.30954E+03-2.13984E+02-1.36942E+00
 -1      2452 2.38347E+03-3.15484E+02-2.22494E+00
 -1      2453 1.29986E+04 5.30588E+02 8.93069E-01
 -1      2454 1.31460E+04 5.00965E+02 9.05061E-01
 -1      2455 1.31259E+04 3.40871E+02 8.96411E-01
 -1      2456 1.28465E+04 4.84650E+02 8.85134E-01
 -1      2457 1.30956E+04 1.93626E+02 8.88024E-01
 -1      2458 1.29640E+04 2.43353E+02 8.82440E-01
 -1      2459 1.28727E+04 3.38082E+02 8.82255E-01
 -1      2460 1.27249E+04 4.32129E+02 8.78969E-01
 -1      2461 1.28424E+04 1.90842E+02 8.74449E-01
 -1      2462 1.57720E+03 2.66992E+02 4.07356E+00
 -1      2463 1.69689E+03 3.14424E+02 4.45484E+00
 -1      2464 1.66709E+03 2.12843E+02 3.25233E+00
 -1      2465 1.77428E+03 1.82896E+02 2.76664E+00
 -1      2466 1.65265E+03 1.39010E+02 2.36289E+00
 -1      2467 1.42124E+03 1.97603E+02 3.43037E+00
 -1      2468 1.48571E+03 2.57425E+02 4.13663E+00
 -1      2469 1.44519E+03 1.25708E+02 2.38281E+00
 -1      2470 1.32156E+03 1.54686E+02 2.95893E+00
 -1      2471 1.59824E+03 7.55408E+01 1.60091E+00
 -1      2472 1.55107E+03-2.02949E+01 3.67804E-01
 -1      2473 1.50111E+03 7.28585E+01 1.60549E+00
 -1      2474 3.05572E+03-3.50586E+02-1.83211E+00
 -1      2475 2.89310E+03-3.44879E+02-1.94909E+00
 -1      2476 2.78368E+03-3.32556E+02-1.95010E+00
 -1      2477 2.86508E+03-2.29676E+02-1.10889E+00
 -1      2478 2.90964E+03-1.32075E+02-3.58399E-01
 -1      2479 3.04005E+03-1.38505E+02-3.67639E-01
 -1      2480 3.08420E+03-2.36016E+02-1.02290E+00
 -1      2481 3.16523E+03-3.47221E+02-1.72941E+00
 -1      2482 3.89909E+03-3.78357E+02-1.37160E+00
 -1      2483 3.72313E+03-3.73938E+02-1.47880E+00
 -1      2484 3.60403E+03-3.61578E+02-1.48052E+00
 -1      2485 3.69309E+03-2.48828E+02-7.89053E-01
 -1      2486 3.74164E+03-1.42483E+02-1.74145E-01
 -1      2487 3.88276E+03-1.48705E+02-1.81548E-01
 -1      2488 3.93021E+03-2.54148E+02-7.11374E-01
 -1      2489 4.01695E+03-3.73424E+02-1.27671E+00
 -1      2490 4.80061E+03-4.00746E+02-9.47891E-01
 -1      2491 4.61394E+03-3.97514E+02-1.04687E+00
 -1      2492 4.48696E+03-3.85158E+02-1.05150E+00
 -1      2493 4.58229E+03-2.64376E+02-4.93030E-01
 -1      2494 4.63410E+03-1.50922E+02 2.71885E-03
 -1      2495 4.78397E+03-1.53948E+02 1.12584E-02
 -1      2496 4.83392E+03-2.68157E+02-4.18578E-01
 -1      2497 4.92512E+03-3.93846E+02-8.62703E-01
 -1      2498 5.74801E+03-4.19404E+02-5.65596E-01
 -1      2499 5.55311E+03-4.16159E+02-6.50872E-01
 -1      2500 5.41837E+03-4.03359E+02-6.64034E-01
 -1      2501 5.51871E+03-2.76204E+02-2.20982E-01
 -1      2502 5.56698E+03-1.55283E+02 1.71741E-01
 -1      2503 5.71631E+03-1.58595E+02 1.79367E-01
 -1      2504 5.77930E+03-2.79182E+02-1.55133E-01
 -1      2505 5.87372E+03-4.10889E+02-4.99417E-01
 -1      2506 6.73084E+03-4.32797E+02-2.29381E-01
 -1      2507 6.52950E+03-4.31547E+02-3.06745E-01
 -1      2508 6.38895E+03-4.18809E+02-3.22885E-01
 -1      2509 6.49333E+03-2.85625E+02 1.68270E-02
 -1      2510 6.54409E+03-1.60634E+02 3.13407E-01
 -1      2511 6.69911E+03-1.60535E+02 3.30680E-01
 -1      2512 6.76350E+03-2.83826E+02 8.31693E-02
 -1      2513 6.86033E+03-4.19239E+02-1.67817E-01
 -1      2514 7.73968E+03-4.42467E+02 5.56407E-02
 -1      2515 7.53379E+03-4.41908E+02-8.35872E-03
 -1      2516 7.39090E+03-4.25672E+02-1.86436E-02
 -1      2517 7.49822E+03-2.88916E+02 2.30543E-01
 -1      2518 7.55530E+03-1.63985E+02 4.40440E-01
 -1      2519 7.70954E+03-1.63598E+02 4.53702E-01
 -1      2520 7.77395E+03-2.89850E+02 2.82371E-01
 -1      2521 7.87244E+03-4.27845E+02 1.07494E-01
 -1      2522 8.76656E+03-4.49069E+02 2.99646E-01
 -1      2523 8.55763E+03-4.49176E+02 2.51918E-01
 -1      2524 8.41285E+03-4.32847E+02 2.36207E-01
 -1      2525 8.52223E+03-2.93493E+02 4.09821E-01
 -1      2526 8.58113E+03-1.66214E+02 5.52959E-01
 -1      2527 8.73717E+03-1.65556E+02 5.66348E-01
 -1      2528 8.80165E+03-2.93902E+02 4.52861E-01
 -1      2529 8.90113E+03-4.33599E+02 3.43586E-01
 -1      2530 9.80132E+03-4.45022E+02 5.07713E-01
 -1      2531 9.59063E+03-4.48741E+02 4.63620E-01
 -1      2532 9.44686E+03-4.35674E+02 4.48356E-01
 -1      2533 9.55496E+03-2.90826E+02 5.61513E-01
 -1      2534 9.61616E+03-1.62608E+02 6.53662E-01
 -1      2535 9.77286E+03-1.61143E+02 6.62707E-01
 -1      2536 9.83617E+03-2.85320E+02 6.00249E-01
 -1      2537 9.93872E+03-4.26718E+02 5.36769E-01
 -1      2538 1.06165E+04 4.12258E+02 9.27576E-01
 -1      2539 1.08285E+04 4.15486E+02 9.13290E-01
 -1      2540 1.05839E+04 2.52176E+02 8.72423E-01
 -1      2541 1.04709E+04 3.97518E+02 9.29893E-01
 -1      2542 1.08097E+04 1.24806E+02 8.29641E-01
 -1      2543 1.06438E+04 1.30173E+02 8.28989E-01
 -1      2544 1.08697E+04 2.53546E+02 8.66007E-01
 -1      2545 1.09685E+04 4.02264E+02 9.03115E-01
 -1      2546 1.18507E+04 4.57084E+02 8.79435E-01
 -1      2547 1.19773E+04 3.90798E+02 8.70545E-01
 -1      2548 1.21324E+04 3.43266E+02 8.66227E-01
 -1      2549 1.19787E+04 2.48090E+02 8.57300E-01
 -1      2550 1.16622E+04 2.72250E+02 8.58677E-01
 -1      2551 1.15247E+04 4.09414E+02 8.81509E-01
 -1      2552 1.16860E+04 4.32822E+02 8.81934E-01
 -1      2553 1.18924E+04 1.35915E+02 8.43361E-01
 -1      2554 1.17272E+04 1.43533E+02 8.40090E-01
 -1      2555 1.50032E+03-1.07398E+02-8.01837E-01
 -1      2556 1.59741E+03-1.09547E+02-7.74734E-01
 -1      2557 1.46070E+03-1.78896E+02-1.82040E+00
 -1      2558 1.60660E+03-2.81226E+02-2.93901E+00
 -1      2559 1.47841E+03-2.69493E+02-3.03804E+00
 -1      2560 1.39398E+03-2.50008E+02-2.92138E+00
 -1      2561 1.63615E+03-1.80258E+02-1.63378E+00
 -1      2562 1.69722E+03-2.66303E+02-2.61360E+00
 -1      2563 2.67842E+02-8.76968E+01-3.06040E+00
 -1      2564 2.97312E+02-6.19762E+01-1.66277E+00
 -1      2565 3.36487E+02-4.97517E+01-9.85325E-01
 -1      2566 3.44878E+02-9.46475E+01-2.76793E+00
 -1      2567 3.33217E+02-1.42619E+02-4.81409E+00
 -1      2568 2.77703E+02-1.29670E+02-4.99021E+00
 -1      2569 2.42044E+02-1.11434E+02-4.59280E+00
 -1      2570 3.74053E+02-1.34727E+02-4.10467E+00
 -1      2571 3.43662E+02 1.15176E+02 5.69245E+00
 -1      2572 3.80410E+02 9.52280E+01 4.55526E+00
 -1      2573 3.41111E+02 4.35208E+01 2.81120E+00
 -1      2574 3.03163E+02 2.45370E+01 2.16260E+00
 -1      2575 2.79790E+02 5.33831E+01 3.60823E+00
 -1      2576 3.26684E+02-5.67675E+00 8.05757E-01
 -1      2577 2.61535E+02 8.11882E+01 5.19122E+00
 -1      2578 2.98350E+02 1.02247E+02 5.75274E+00
 -1      2579 1.11630E+03-2.00077E+02-2.72487E+00
 -1      2580 1.14125E+03-2.78604E+02-3.99176E+00
 -1      2581 1.04841E+03-2.58392E+02-3.92050E+00
 -1      2582 1.07412E+03-1.28533E+02-1.57673E+00
 -1      2583 1.00603E+03-9.44945E+01-1.04474E+00
 -1      2584 1.05615E+03-3.87774E+01-6.11601E-03
 -1      2585 9.61434E+02-1.54341E+02-2.23662E+00
 -1      2586 9.68909E+02-2.47367E+02-3.99847E+00
 -1      2587 9.07395E+02-2.17241E+02-3.61218E+00
 -1      2588 7.12138E+02-1.73165E+02-3.33931E+00
 -1      2589 6.56792E+02-2.03973E+02-4.34280E+00
 -1      2590 6.59633E+02-1.01980E+02-1.77530E+00
 -1      2591 5.69172E+02-1.22266E+02-2.57409E+00
 -1      2592 6.05119E+02-7.71281E+01-1.23672E+00
 -1      2593 6.40811E+02-3.32845E+01-5.08653E-02
 -1      2594 5.90407E+02-1.89313E+02-4.33878E+00
 -1      2595 5.36749E+02-1.64972E+02-3.94977E+00
 -1      2596 6.66655E+02 9.49222E+01 3.14743E+00
 -1      2597 6.53863E+02 3.23438E+01 1.59903E+00
 -1      2598 5.98943E+02 4.71999E+01 2.07563E+00
 -1      2599 5.63837E+02 8.47671E+01 3.20670E+00
 -1      2600 5.83252E+02 1.53159E+02 5.02094E+00
 -1      2601 6.46383E+02 1.61602E+02 4.89104E+00
 -1      2602 5.36494E+02 1.28876E+02 4.59442E+00
 -1      2603 7.02624E+02 1.50773E+02 4.38094E+00
 -1      2604 1.09669E+03 1.18587E+02 2.72303E+00
 -1      2605 1.07595E+03 3.86375E+01 1.34532E+00
 -1      2606 1.00848E+03 6.88879E+01 1.94913E+00
 -1      2607 9.58184E+02 1.30505E+02 3.18309E+00
 -1      2608 1.00263E+03 2.09749E+02 4.55846E+00
 -1      2609 1.08085E+03 2.09788E+02 4.32131E+00
 -1      2610 1.14966E+03 1.82290E+02 3.69811E+00
 -1      2611 9.32608E+02 1.91266E+02 4.41739E+00
 -1      2612 1.89179E+02 5.76217E+01 4.74675E+00
 -1      2613 1.84083E+02 8.70923E+01 6.87555E+00
 -1      2614 2.15294E+02 1.05628E+02 7.47694E+00
 -1      2615 2.44472E+02 1.03763E+02 6.66288E+00
 -1      2616 2.27765E+02 6.00756E+01 4.45988E+00
 -1      2617 2.12831E+02-8.95683E+01-3.79634E+00
 -1      2618 2.21717E+02-1.26189E+02-5.77898E+00
 -1      2619 1.90678E+02-1.24181E+02-6.39586E+00
 -1      2620 1.69078E+02-1.07597E+02-5.73087E+00
 -1      2621 1.80000E+02-7.77840E+01-3.52625E+00
 -1      2622 1.23005E+04 4.11968E+02 8.72007E-01
 -1      2623 1.24220E+04 4.80514E+02 8.75814E-01
 -1      2624 1.26105E+04 3.11744E+02 8.71494E-01
 -1      2625 1.27049E+04 1.55029E+02 8.66550E-01
 -1      2626 1.25843E+04 4.58304E+02 8.76318E-01
 -1      2627 5.23552E+03 4.47374E+02 2.17438E+00
 -1      2628 5.18988E+03 2.93822E+02 1.67477E+00
 -1      2629 5.09204E+03 4.99207E+02 2.43375E+00
 -1      2630 4.29392E+03 4.16335E+02 2.54913E+00
 -1      2631 4.25450E+03 2.70201E+02 1.89736E+00
 -1      2632 4.15374E+03 4.63667E+02 2.86303E+00
 -1      2633 6.20945E+03 4.66725E+02 1.82856E+00
 -1      2634 6.15262E+03 3.12875E+02 1.46522E+00
 -1      2635 6.06109E+03 5.21716E+02 2.03210E+00
 -1      2636 5.98056E+03 3.11111E+02 1.49399E+00
 -1      2637 5.92016E+03 4.59922E+02 1.92601E+00
 -1      2638 7.22254E+03 4.59020E+02 1.49689E+00
 -1      2639 7.07091E+03 5.09750E+02 1.63826E+00
 -1      2640 6.92443E+03 4.53799E+02 1.57780E+00
 -1      2641 3.41921E+03 3.86332E+02 2.98343E+00
 -1      2642 3.38400E+03 2.49844E+02 2.16984E+00
 -1      2643 3.28720E+03 4.28519E+02 3.36795E+00
 -1      2644 4.05945E+02-1.77095E+02-5.35873E+00
 -1      2645 4.18765E+02-1.23469E+02-3.34669E+00
 -1      2646 4.55664E+02-2.08012E+02-5.91347E+00
 -1      2647 4.83534E+02-1.35600E+02-3.37570E+00
 -1      2648 5.03826E+02-1.98070E+02-5.16585E+00
 -1      2649 8.24942E+03 4.69008E+02 1.27100E+00
 -1      2650 8.09524E+03 5.21356E+02 1.37326E+00
 -1      2651 7.94525E+03 4.64565E+02 1.33516E+00
 -1      2652 2.63107E+03 3.55714E+02 3.49800E+00
 -1      2653 2.60105E+03 2.31007E+02 2.52272E+00
 -1      2654 2.50685E+03 3.91148E+02 3.95283E+00
 -1      2655 9.29392E+03 4.74261E+02 1.09600E+00
 -1      2656 9.13558E+03 5.29187E+02 1.16484E+00
 -1      2657 8.98263E+03 4.72362E+02 1.14603E+00
 -1      2658 1.24704E+04-5.14080E+02 8.13813E-01
 -1      2659 1.23094E+04-5.68492E+02 7.98407E-01
 -1      2660 1.21527E+04-5.12685E+02 7.89295E-01
 -1      2661 1.14117E+04-5.37156E+02 7.12786E-01
 -1      2662 1.12570E+04-6.00890E+02 6.80540E-01
 -1      2663 1.11008E+04-5.37302E+02 6.71243E-01
 -1      2664 1.03491E+04 4.70235E+02 9.69016E-01
 -1      2665 1.01903E+04 5.20279E+02 1.00692E+00
 -1      2666 1.00355E+04 4.67401E+02 1.00014E+00
 -1      2667 1.03668E+04-4.99760E+02 5.75339E-01
 -1      2668 1.02125E+04-5.51181E+02 5.25701E-01
 -1      2669 1.00585E+04-4.99660E+02 5.19527E-01
 -1      2670 9.32733E+03-5.22464E+02 3.64300E-01
 -1      2671 9.17169E+03-5.80127E+02 2.82707E-01
 -1      2672 9.01906E+03-5.20366E+02 2.90529E-01
 -1      2673 1.13978E+04 4.85734E+02 8.98877E-01
 -1      2674 1.12430E+04 5.37481E+02 9.17769E-01
 -1      2675 1.10873E+04 4.82945E+02 9.17459E-01
 -1      2676 8.29428E+03-5.17245E+02 1.12935E-01
 -1      2677 8.14014E+03-5.73262E+02-3.85851E-03
 -1      2678 7.98920E+03-5.13725E+02 2.46796E-02
 -1      2679 7.27504E+03-5.08172E+02-1.93024E-01
 -1      2680 7.12385E+03-5.62678E+02-3.48325E-01
 -1      2681 6.97559E+03-5.03681E+02-2.96697E-01
 -1      2682 6.27744E+03-4.96296E+02-5.50377E-01
 -1      2683 6.13042E+03-5.48646E+02-7.53015E-01
 -1      2684 5.98604E+03-4.90463E+02-6.72112E-01
 -1      2685 5.31100E+03-4.70153E+02-9.33908E-01
 -1      2686 5.16967E+03-5.16119E+02-1.17167E+00
 -1      2687 5.03044E+03-4.63074E+02-1.06830E+00
 -1      2688 4.38343E+03-4.47636E+02-1.38824E+00
 -1      2689 4.24927E+03-4.90391E+02-1.68290E+00
 -1      2690 4.11694E+03-4.39034E+02-1.53648E+00
 -1      2691 3.50725E+03-4.19284E+02-1.88765E+00
 -1      2692 3.38207E+03-4.58080E+02-2.24428E+00
 -1      2693 3.25848E+03-4.08967E+02-2.05526E+00
 -1      2694 2.69517E+03-3.84453E+02-2.44075E+00
 -1      2695 2.58101E+03-4.18501E+02-2.86474E+00
 -1      2696 2.46816E+03-3.72509E+02-2.63066E+00
 -1      2697 1.91307E+03-2.50136E+02-2.12912E+00
 -1      2698 1.96085E+03-3.56359E+02-3.20124E+00
 -1      2699 1.86004E+03-3.89133E+02-3.74973E+00
 -1      2700 1.76198E+03-3.40427E+02-3.38767E+00
 -1      2701 1.79239E+03-2.35653E+02-2.10744E+00
 -1      2702 8.53253E+02 1.69890E+02 4.25700E+00
 -1      2703 7.70217E+02 1.49857E+02 4.08491E+00
 -1      2704 1.89667E+03 3.09977E+02 4.03672E+00
 -1      2705 1.87301E+03 2.03859E+02 2.91210E+00
 -1      2706 1.78480E+03 3.37220E+02 4.54891E+00
 -1      2707 1.31016E+03-2.77026E+02-3.49305E+00
 -1      2708 1.22305E+03-2.98455E+02-4.06613E+00
 -1      2709 1.23170E+03 1.54391E+02 3.08258E+00
 -1      2710 2.01341E+02-1.22596E+01 1.45022E-01
 -1      2711 4.53573E+02-1.95301E+01 4.30033E-01
 -1      2712 1.23197E+04-5.51785E+01 8.79200E-01
 -1      2713 1.12550E+04-1.40744E+01 8.44559E-01
 -1      2714 1.02060E+04-1.30975E+01 8.05577E-01
 -1      2715 9.17009E+03-1.96396E+01 7.71762E-01
 -1      2716 8.13833E+03-2.04409E+01 7.39702E-01
 -1      2717 7.11877E+03-2.13727E+01 7.06451E-01
 -1      2718 6.12459E+03-5.33491E+01 7.52150E-01
 -1      2719 5.16864E+03-6.94661E+01 8.04775E-01
 -1      2720 4.24766E+03-6.70083E+01 8.14454E-01
 -1      2721 3.37982E+03-6.37643E+01 8.33478E-01
 -1      2722 2.57804E+03-5.96466E+01 8.62358E-01
 -1      2723 8.16432E+02-2.00827E+01 4.58009E-01
 -1      2724 1.86745E+03-1.83827E+01 4.89871E-01
 -1      2725 1.27306E+03-3.48958E+01 7.05906E-01
 -1      2726 1.16675E+02 3.82304E+01-3.47872E+00
 -1      2727 1.14374E+02-6.22991E+01 3.94384E+00
 -1      2728 1.29224E+04-2.66168E+02 8.77337E-01
 -1      2729 2.23497E+03 1.83405E+02-1.37539E+00
 -1      2730 2.99652E+03 2.06133E+02-1.01768E+00
 -1      2731 3.83641E+03 2.25511E+02-6.91247E-01
 -1      2732 4.73552E+03 2.41375E+02-3.95397E-01
 -1      2733 5.60722E+03 2.37233E+02-9.82506E-02
 -1      2734 6.58945E+03 2.47000E+02 1.27083E-01
 -1      2735 7.59989E+03 2.54215E+02 3.33170E-01
 -1      2736 8.62961E+03 2.59448E+02 5.07989E-01
 -1      2737 1.17808E+04-3.05331E+02 8.64128E-01
 -1      2738 1.07340E+04-3.04979E+02 8.78186E-01
 -1      2739 9.67759E+03 2.60009E+02 6.55588E-01
 -1      2740 2.21119E+03-2.17109E+02 2.38088E+00
 -1      2741 1.29943E+04 3.90577E+02 9.32619E-01
 -1      2742 1.54846E+03 1.68721E+02-1.94450E+00
 -1      2743 2.97560E+03-2.40585E+02 2.10178E+00
 -1      2744 3.81311E+03-2.60028E+02 1.83591E+00
 -1      2745 4.71000E+03-2.75800E+02 1.61161E+00
 -1      2746 5.65404E+03-2.88259E+02 1.42643E+00
 -1      2747 6.63434E+03-2.97786E+02 1.25771E+00
 -1      2748 7.64143E+03-3.04753E+02 1.11684E+00
 -1      2749 8.66723E+03-3.09558E+02 1.00837E+00
 -1      2750 9.69888E+03-3.03729E+02 9.25205E-01
 -1      2751 1.07297E+04 2.66797E+02 7.73120E-01
 -1      2752 1.18236E+04 2.95596E+02 8.66585E-01
 -1      2753 1.54675E+03-1.96661E+02 2.77566E+00
 -1      2754 3.05595E+02-1.04097E+02 4.10076E+00
 -1      2755 3.17820E+02 7.24450E+01-3.45160E+00
 -1      2756 1.02438E+03-1.82883E+02 3.38348E+00
 -1      2757 6.24281E+02-1.44679E+02 3.66690E+00
 -1      2758 6.11584E+02 1.07300E+02-2.87343E+00
 -1      2759 1.02905E+03 1.46884E+02-2.49783E+00
 -1      2760 2.11965E+02 8.10239E+01-5.26628E+00
 -1      2761 1.94053E+02-1.03677E+02 5.55616E+00
 -1      2762 1.24700E+04 3.37897E+02 9.09631E-01
 -1      2763 5.09106E+03 3.86690E+02-7.70545E-01
 -1      2764 4.13970E+03 3.50651E+02-1.14527E+00
 -1      2765 6.06047E+03 4.04835E+02-3.98425E-01
 -1      2766 7.07565E+03 3.79844E+02 8.07364E-03
 -1      2767 3.27635E+03 3.23693E+02-1.60367E+00
 -1      2768 4.52199E+02-1.67198E+02 5.23624E+00
 -1      2769 8.09939E+03 3.89084E+02 2.71418E-01
 -1      2770 2.51640E+03 3.01152E+02-2.14636E+00
 -1      2771 9.13862E+03 3.95559E+02 4.92783E-01
 -1      2772 1.23125E+04-4.31876E+02 8.59135E-01
 -1      2773 1.12570E+04-4.76806E+02 8.81174E-01
 -1      2774 1.01948E+04 3.82945E+02 6.79061E-01
 -1      2775 1.02133E+04-4.12597E+02 9.33486E-01
 -1      2776 9.17233E+03-4.51498E+02 1.05588E+00
 -1      2777 1.12473E+04 4.01489E+02 8.09517E-01
 -1      2778 8.14061E+03-4.46274E+02 1.21651E+00
 -1      2779 7.12405E+03-4.38203E+02 1.41490E+00
 -1      2780 6.13039E+03-4.28566E+02 1.66759E+00
 -1      2781 5.17007E+03-3.98059E+02 1.90659E+00
 -1      2782 4.24932E+03-3.78377E+02 2.22745E+00
 -1      2783 3.38175E+03-3.53658E+02 2.59366E+00
 -1      2784 2.58026E+03-3.23341E+02 3.00268E+00
 -1      2785 1.85835E+03-3.10639E+02 3.71431E+00
 -1      2786 8.18328E+02 2.22823E+02-4.66908E+00
 -1      2787 1.78931E+03 2.59049E+02-2.67676E+00
 -1      2788 1.21169E+03-2.17930E+02 3.58234E+00
 -1      2789 4.49072E+02 1.20456E+02-4.15981E+00
 -1      2790 1.29889E+03 2.23527E+02-3.12638E+00
 -1      2791 8.05510E+02-2.03922E+02 4.39078E+00
 -1      2792 9.37734E+01 5.51531E+01-5.18399E+00
 -1      2793 1.32095E+04-5.06387E+02 8.64565E-01
 -1      2794 9.25814E+01-1.29051E+01 2.87146E-01
 -1      2795 9.00221E+01-7.94731E+01 5.76440E+00
 -1      2796 1.21310E+04 4.85986E+02 8.96134E-01
 -1      2797 1.59710E+02 8.96750E+01-6.98217E+00
 -1      2798 1.37409E+02-1.07388E+01 1.27201E-01
 -1      2799 1.31894E+04-9.58722E+00 9.01780E-01
 -1      2800 1.26588E+04 2.44796E+01 8.93681E-01
 -1      2801 1.26285E+04-5.96330E+02 8.48536E-01
 -1      2802 5.38101E+03 5.08720E+02-1.01567E+00
 -1      2803 2.90159E+02-2.10819E+01 5.24766E-01
 -1      2804 4.44982E+03 4.83135E+02-1.52635E+00
 -1      2805 6.35920E+03 5.29108E+02-5.59794E-01
 -1      2806 3.56410E+03 4.50397E+02-2.10081E+00
 -1      2807 2.74765E+03 4.11730E+02-2.73999E+00
 -1      2808 7.36998E+03 5.38635E+02-1.52212E-01
 -1      2809 6.27685E+01-7.26763E+01 5.73209E+00
 -1      2810 1.32976E+04 6.11299E+02 9.48212E-01
 -1      2811 8.39985E+03 5.49206E+02 1.82100E-01
 -1      2812 9.44950E+03 5.53120E+02 4.64672E-01
 -1      2813 1.05036E+04 5.57599E+02 6.80883E-01
 -1      2814 2.00657E+03 3.62755E+02-3.42278E+00
 -1      2815 1.15484E+04 5.69979E+02 8.38946E-01
 -1      2816 9.88952E+02-7.67681E+00 2.42492E-01
 -1      2817 5.87403E+02-1.16957E+01 2.29515E-01
 -1      2818 9.48260E+03-5.93624E+02 1.09631E+00
 -1      2819 8.44834E+03-5.88518E+02 1.29723E+00
 -1      2820 7.42659E+03-5.78604E+02 1.55548E+00
 -1      2821 6.42525E+03-5.64630E+02 1.87774E+00
 -1      2822 1.15665E+04-5.97558E+02 8.71612E-01
 -1      2823 5.45292E+03-5.43135E+02 2.24648E+00
 -1      2824 1.19929E+04-5.93507E+02 8.55103E-01
 -1      2825 1.05204E+04-5.87072E+02 9.50816E-01
 -1      2826 4.51879E+03-5.18014E+02 2.68187E+00
 -1      2827 1.09448E+04-5.97771E+02 9.14221E-01
 -1      2828 3.63428E+03-4.86302E+02 3.17472E+00
 -1      2829 1.05580E+04-6.37890E+00 8.18379E-01
 -1      2830 2.81194E+03-4.47253E+02 3.72339E+00
 -1      2831 1.16309E+04-8.51562E+00 8.57722E-01
 -1      2832 2.06557E+03-4.03637E+02 4.36189E+00
 -1      2833 9.53360E+03-2.17243E+01 7.87005E-01
 -1      2834 8.49527E+03-2.32631E+01 7.53920E-01
 -1      2835 7.46950E+03-2.37782E+01 7.22989E-01
 -1      2836 6.45429E+03-2.42783E+01 6.88463E-01
 -1      2837 5.48051E+03-2.33485E+01 6.57829E-01
 -1      2838 4.55886E+03-2.72525E+01 6.45715E-01
 -1      2839 3.67099E+03-2.64154E+01 6.11195E-01
 -1      2840 2.84464E+03-2.53628E+01 5.89015E-01
 -1      2841 2.10237E+03-1.90976E+01 5.10102E-01
 -1      2842 1.45518E+03-2.04768E+01 4.97186E-01
 -1      2843 2.33081E+03-3.24404E+01 6.41362E-01
 -1      2844 3.10542E+03-3.49958E+01 6.63968E-01
 -1      2845 2.35813E+03-4.19813E+02 4.07168E+00
 -1      2846 1.41206E+03-3.39517E+02 4.93459E+00
 -1      2847 3.95320E+03-3.62183E+01 6.71066E-01
 -1      2848 4.85859E+03-3.11718E+01 6.64063E-01
 -1      2849 3.13694E+03-4.62758E+02 3.48525E+00
 -1      2850 5.77902E+03-2.83822E+01 6.81382E-01
 -1      2851 6.76424E+03-2.28625E+01 6.99395E-01
 -1      2852 3.98598E+03-4.98452E+02 2.95639E+00
 -1      2853 7.77794E+03-2.21576E+01 7.29027E-01
 -1      2854 8.80733E+03-2.13907E+01 7.64592E-01
 -1      2855 1.08897E+04-1.72919E+01 8.32337E-01
 -1      2856 9.84700E+03-1.84711E+01 7.95594E-01
 -1      2857 4.89194E+03-5.27117E+02 2.49185E+00
 -1      2858 1.19613E+04-2.38196E+01 8.69281E-01
 -1      2859 5.84256E+03-5.51678E+02 2.09055E+00
 -1      2860 6.82778E+03-5.68668E+02 1.74097E+00
 -1      2861 7.83825E+03-5.80817E+02 1.44213E+00
 -1      2862 2.52245E+02-1.51383E+02 7.12018E+00
 -1      2863 8.86612E+03-5.89022E+02 1.20610E+00
 -1      2864 9.90393E+03-5.86599E+02 1.02674E+00
 -1      2865 8.28771E+01 2.22886E+01-2.22396E+00
 -1      2866 9.87648E+03 5.51644E+02 5.62279E-01
 -1      2867 2.80394E+02 1.29201E+02-6.65183E+00
 -1      2868 8.82699E+03 5.48856E+02 3.07230E-01
 -1      2869 1.66790E+03-3.68536E+02 4.71660E+00
 -1      2870 7.79161E+03 5.39568E+02-1.33018E-03
 -1      2871 1.09273E+04 5.64282E+02 7.51913E-01
 -1      2872 1.25684E+04-2.65004E+02 8.71714E-01
 -1      2873 6.77390E+03 5.27090E+02-3.70342E-01
 -1      2874 1.47042E+02-1.09021E+02 7.02157E+00
 -1      2875 5.78067E+03 5.14322E+02-8.10362E-01
 -1      2876 1.68541E+02 3.66427E+01-2.96250E+00
 -1      2877 1.13419E+03 2.75341E+02-4.39433E+00
 -1      2878 4.82047E+03 5.40664E+02-1.49153E+00
 -1      2879 3.90738E+03 5.05566E+02-2.07603E+00
 -1      2880 1.64952E+03-2.01283E+01 5.01615E-01
 -1      2881 3.05951E+03 4.65355E+02-2.74217E+00
 -1      2882 8.24569E+01-4.70006E+01 2.85803E+00
 -1      2883 2.29036E+03 4.18085E+02-3.46466E+00
 -1      2884 3.62737E+02-1.84525E+02 6.74170E+00
 -1      2885 5.58336E+02-2.31257E+02 6.35329E+00
 -1      2886 6.24522E+03 2.20327E+02 1.08800E-01
 -1      2887 2.33235E+02-7.29411E+01 3.27919E+00
 -1      2888 5.28938E+03 2.00052E+02-7.08736E-02
 -1      2889 7.94401E+01 5.70547E+01-5.43938E+00
 -1      2890 7.32617E+03 2.25453E+02 3.22803E-01
 -1      2891 6.90762E+02-2.66256E+02 6.34743E+00
 -1      2892 4.37045E+03 1.88422E+02-3.01256E-01
 -1      2893 8.35209E+03 2.30748E+02 4.90869E-01
 -1      2894 3.49305E+03 1.74343E+02-5.65978E-01
 -1      2895 1.30029E+04 6.70559E+02 9.64404E-01
 -1      2896 2.68705E+03 1.59097E+02-8.55125E-01
 -1      2897 9.39364E+03 2.33414E+02 6.32033E-01
 -1      2898 1.60693E+03 3.67026E+02-4.33497E+00
 -1      2899 9.77282E+02 2.71184E+02-4.91465E+00
 -1      2900 5.56452E+02 1.96648E+02-5.62126E+00
 -1      2901 2.44885E+02 3.64098E+01-2.35025E+00
 -1      2902 6.82672E+02 2.18716E+02-5.29624E+00
 -1      2903 3.71412E+02 1.61435E+02-6.43426E+00
 -1      2904 1.95859E+03 1.46426E+02-1.23883E+00
 -1      2905 1.07343E+03-3.35763E+02 5.90744E+00
 -1      2906 1.72770E+03-1.62879E+02 2.17719E+00
 -1      2907 1.04383E+04 2.37523E+02 7.48820E-01
 -1      2908 6.86919E+01 5.15044E+01-5.03377E+00
 -1      2909 1.15010E+04 2.48869E+02 8.43540E-01
 -1      2910 1.04462E+04-2.64766E+02 8.79027E-01
 -1      2911 1.14980E+04-2.80428E+02 8.63969E-01
 -1      2912 1.30023E+04-6.88995E+02 8.45221E-01
 -1      2913 3.65978E+02 1.18444E+01-7.63624E-01
 -1      2914 1.96879E+03-1.88244E+02 2.27627E+00
 -1      2915 2.75608E+03-2.18943E+02 2.05848E+00
 -1      2916 3.57432E+03-2.37782E+02 1.81154E+00
 -1      2917 4.45559E+03-2.53085E+02 1.59747E+00
 -1      2918 5.38420E+03-2.64247E+02 1.41107E+00
 -1      2919 6.35296E+03-2.73532E+02 1.24629E+00
 -1      2920 7.35547E+03-2.73167E+02 1.10606E+00
 -1      2921 8.37756E+03-2.77491E+02 1.00549E+00
 -1      2922 9.41126E+03-2.77963E+02 9.28611E-01
 -1      2923 1.67165E+02-5.37279E+01 2.75653E+00
 -1      2924 1.37679E+03-1.61764E+02 2.49710E+00
 -1      2925 2.40955E+03-2.10595E+02 2.18906E+00
 -1      2926 1.10160E+04-2.82163E+02 8.69590E-01
 -1      2927 1.16646E+03 8.83215E+01-1.27791E+00
 -1      2928 1.18778E+04 6.18584E+02 8.77475E-01
 -1      2929 1.20734E+04-2.81935E+02 8.65098E-01
 -1      2930 3.19414E+03-2.31245E+02 1.92854E+00
 -1      2931 4.04842E+03-2.48084E+02 1.70158E+00
 -1      2932 4.95871E+03-2.60355E+02 1.49604E+00
 -1      2933 5.16671E+02-1.01399E+02 2.84745E+00
 -1      2934 5.90522E+03-2.70006E+02 1.32097E+00
 -1      2935 6.89317E+03-2.69764E+02 1.16198E+00
 -1      2936 7.90684E+03-2.74876E+02 1.04776E+00
 -1      2937 8.93633E+03-2.78205E+02 9.60931E-01
 -1      2938 9.97365E+03-2.66895E+02 8.95378E-01
 -1      2939 3.87129E+02-8.29948E+01 2.73938E+00
 -1      2940 6.96604E+02-5.67744E+01 1.33265E+00
 -1      2941 1.12550E+03-7.17586E+01 1.33607E+00
 -1      2942 8.89645E+02 1.14723E+02-2.20889E+00
 -1      2943 7.24190E+02 8.08979E+01-1.87605E+00
 -1      2944 7.54308E+01-8.01646E+01 6.03090E+00
 -1      2945 1.35670E+04 7.20394E+02 9.53265E-01
 -1      2946 1.35635E+04-7.70795E+02 8.55310E-01
 -1      2947 1.33365E+04-7.21014E+02 8.51109E-01
 -1      2948 1.10097E+04 2.40232E+02 8.03673E-01
 -1      2949 9.96021E+03 2.32609E+02 7.01383E-01
 -1      2950 5.18108E+02 6.36297E+01-2.01053E+00
 -1      2951 1.32576E+04 2.91120E+02 9.25439E-01
 -1      2952 1.26987E+04 5.78680E+02 9.44681E-01
 -1      2953 8.91421E+03 2.32596E+02 5.74212E-01
 -1      2954 1.22461E+02 8.14314E+01-7.24580E+00
 -1      2955 9.00407E+02-1.27187E+02 2.57373E+00
 -1      2956 9.15795E+02-3.08418E+02 6.06684E+00
 -1      2957 7.88094E+03 2.28127E+02 4.18043E-01
 -1      2958 2.19376E+02 1.30141E+02-8.44289E+00
 -1      2959 1.21338E+04 2.00526E+02 8.84627E-01
 -1      2960 6.86370E+03 2.22076E+02 2.41112E-01
 -1      2961 5.90101E+03 2.17944E+02 3.13891E-02
 -1      2962 1.23740E+04 6.23107E+02 9.25778E-01
 -1      2963 1.36331E+04 8.46428E+02 9.61922E-01
 -1      2964 1.36323E+04-8.82991E+02 8.49844E-01
 -1      2965 1.18737E+02-1.08127E+02 7.92904E+00
 -1      2966 1.32662E+04-2.48679E+02 8.84879E-01
 -1      2967 5.02738E+03 1.45487E+02 4.54687E-02
 -1      2968 1.42500E+03 3.43055E+02-4.51459E+00
 -1      2969 4.10788E+03 1.32368E+02-1.29352E-01
 -1      2970 3.24826E+03 1.21225E+02-3.33311E-01
 -1      2971 1.34503E+03 8.48436E+01-1.03256E+00
 -1      2972 2.46703E+03 1.10277E+02-5.72937E-01
 -1      2973 1.78082E+03 4.15435E+02-4.47113E+00
 -1      2974 1.29337E+04 9.60919E+01 9.05525E-01
 -1      2975 1.87987E+02-1.43548E+02 8.50932E+00
 -1      2976 2.49776E+03 4.81107E+02-3.66018E+00
 -1      2977 3.29847E+03 5.33772E+02-2.88618E+00
 -1      2978 1.23521E+03-3.79982E+02 6.03847E+00
 -1      2979 4.16813E+03 5.77101E+02-2.17909E+00
 -1      2980 5.09329E+03 6.11893E+02-1.54253E+00
 -1      2981 1.27511E+04 2.85546E+02 9.17506E-01
 -1      2982 6.06192E+03 6.38746E+02-9.74567E-01
 -1      2983 1.75975E+03 1.07333E+02-9.66880E-01
 -1      2984 7.06638E+03 6.39746E+02-4.41546E-01
 -1      2985 8.09125E+03 6.53703E+02-2.80572E-02
 -1      2986 1.23064E+04-7.05170E+02 8.42255E-01
 -1      2987 1.12571E+04-7.25057E+02 8.97955E-01
 -1      2988 9.13267E+03 6.62881E+02 3.14122E-01
 -1      2989 1.02119E+04-6.89884E+02 1.01824E+00
 -1      2990 9.17117E+03-7.08894E+02 1.22344E+00
 -1      2991 4.59801E+02-2.49298E+02 7.83650E+00
 -1      2992 1.01858E+04 6.57645E+02 5.92721E-01
 -1      2993 8.13982E+03-7.00406E+02 1.49491E+00
 -1      2994 7.12384E+03-6.87345E+02 1.83325E+00
 -1      2995 1.12387E+04 6.73480E+02 7.89754E-01
 -1      2996 6.13067E+03-6.68944E+02 2.24620E+00
 -1      2997 5.16953E+03-6.34414E+02 2.69789E+00
 -1      2998 4.24954E+03-6.02655E+02 3.24025E+00
 -1      2999 6.66429E+01 4.86286E+01-4.41823E+00
 -1      3000 3.38280E+03-5.62790E+02 3.85588E+00
 -1      3001 2.58222E+03-5.13966E+02 4.53914E+00
 -1      3002 1.86221E+03-4.67968E+02 5.42945E+00
 -1      3003 2.78302E+02-1.95781E+02 8.77343E+00
 -1      3004 2.35560E+02-1.77204E+02 9.08092E+00
 -1      3005 1.70769E+02-1.52145E+02 1.00557E+01
 -1      3006 2.03793E+02-1.70036E+02 9.92064E+00
 -1      3007 2.18352E+02-1.48513E+02 7.84682E+00
 -1      3008 1.29150E+04-7.96033E+02 8.34569E-01
 -1      3009 1.30895E+04-7.96037E+02 8.37858E-01
 -1      3010 1.33985E+04-8.23449E+02 8.45219E-01
 -1      3011 1.32567E+04-8.12044E+02 8.41208E-01
 -1      3012 1.31694E+04-7.05007E+02 8.47564E-01
 -1      3013 5.45270E+01-6.47250E+01 4.83649E+00
 -1      3014 1.37525E+04-9.17643E+02 8.52095E-01
 -1      3015 5.98366E+01 4.44054E+01-4.14485E+00
 -1      3016 1.37525E+04 8.85699E+02 9.69328E-01
 -1      3017 1.33791E+04 7.52611E+02 9.51925E-01
 -1      3018 1.32373E+04 7.41216E+02 9.58513E-01
 -1      3019 1.29138E+04 7.70822E+02 9.79155E-01
 -1      3020 1.30900E+04 7.70845E+02 9.74413E-01
 -1      3021 1.31503E+04 6.40936E+02 9.55981E-01
 -1      3022 3.18467E+02 1.78573E+02-8.12957E+00
 -1      3023 2.70949E+02 1.59522E+02-8.56417E+00
 -1      3024 2.07003E+02 1.41251E+02-9.88785E+00
 -1      3025 2.40256E+02 1.57632E+02-9.61004E+00
 -1      3026 2.48535E+02 1.30905E+02-7.53918E+00
 -1      3027 3.84864E+02-2.34560E+02 8.32021E+00
 -1      3028 3.33200E+02-2.16798E+02 8.52189E+00
 -1      3029 3.04605E+02-1.68106E+02 6.93520E+00
 -1      3030 4.92535E+02-2.87922E+02 8.67108E+00
 -1      3031 4.33367E+02-2.69431E+02 8.84807E+00
 -1      3032 4.09776E+02-2.15751E+02 7.29599E+00
 -1      3033 6.08142E+02-2.97125E+02 7.73913E+00
 -1      3034 5.41774E+02-2.80709E+02 7.91023E+00
 -1      3035 5.07658E+02-2.41459E+02 7.08954E+00
 -1      3036 7.48842E+02-3.33558E+02 7.53576E+00
 -1      3037 6.75117E+02-3.17598E+02 7.70738E+00
 -1      3038 6.22839E+02-2.48630E+02 6.35356E+00
 -1      3039 9.43825E+02-3.73700E+02 7.17662E+00
 -1      3040 8.61385E+02-3.58566E+02 7.34374E+00
 -1      3041 7.46843E+02-2.36600E+02 5.36018E+00
 -1      3042 8.06523E+02-3.04139E+02 6.52889E+00
 -1      3043 8.59743E+02-2.54789E+02 5.23783E+00
 -1      3044 1.11102E+03-4.04196E+02 6.90903E+00
 -1      3045 1.02213E+03-3.89663E+02 7.07582E+00
 -1      3046 9.93215E+02-3.22129E+02 5.98666E+00
 -1      3047 1.28672E+03-4.42453E+02 6.78882E+00
 -1      3048 1.19180E+03-4.28204E+02 6.95494E+00
 -1      3049 1.15310E+03-3.57633E+02 5.97411E+00
 -1      3050 1.47585E+03-4.36651E+02 6.06303E+00
 -1      3051 1.37503E+03-4.24049E+02 6.21476E+00
 -1      3052 1.32228E+03-3.60725E+02 5.48063E+00
 -1      3053 1.71094E+03-4.66292E+02 5.77822E+00
 -1      3054 1.60366E+03-4.54361E+02 5.92803E+00
 -1      3055 1.53780E+03-3.54140E+02 4.82218E+00
 -1      3056 1.92048E+03-5.30143E+02 5.96377E+00
 -1      3057 1.80810E+03-5.17814E+02 6.11616E+00
 -1      3058 1.76399E+03-4.17421E+02 5.07852E+00
 -1      3059 2.13937E+03-5.10098E+02 5.26633E+00
 -1      3060 2.02205E+03-4.99322E+02 5.41173E+00
 -1      3061 1.96277E+03-4.36717E+02 4.88902E+00
 -1      3062 2.40831E+03-5.30824E+02 4.96005E+00
 -1      3063 2.28556E+03-5.20775E+02 5.09644E+00
 -1      3064 2.21003E+03-4.11957E+02 4.21500E+00
 -1      3065 2.64742E+03-5.89716E+02 5.03929E+00
 -1      3066 2.52035E+03-5.79510E+02 5.17593E+00
 -1      3067 2.46926E+03-4.66307E+02 4.30772E+00
 -1      3068 2.89338E+03-5.66511E+02 4.48323E+00
 -1      3069 2.76218E+03-5.57558E+02 4.61479E+00
 -1      3070 2.69616E+03-4.81302E+02 4.12831E+00
 -1      3071 3.19151E+03-5.84761E+02 4.21944E+00
 -1      3072 3.05579E+03-5.76440E+02 4.33846E+00
 -1      3073 2.97294E+03-4.55182E+02 3.60217E+00
 -1      3074 3.45368E+03-6.44530E+02 4.25841E+00
 -1      3075 3.31443E+03-6.36129E+02 4.38756E+00
 -1      3076 3.25911E+03-5.12292E+02 3.67590E+00
 -1      3077 3.72199E+03-6.14592E+02 3.78331E+00
 -1      3078 3.57934E+03-6.07257E+02 3.90219E+00
 -1      3079 3.50778E+03-5.25119E+02 3.51216E+00
 -1      3080 4.04407E+03-6.29200E+02 3.54341E+00
 -1      3081 3.89776E+03-6.22439E+02 3.65507E+00
 -1      3082 3.80891E+03-4.92541E+02 3.06296E+00
 -1      3083 4.32501E+03-6.89186E+02 3.56031E+00
 -1      3084 4.17584E+03-6.82404E+02 3.66925E+00
 -1      3085 4.11716E+03-5.50178E+02 3.10200E+00
 -1      3086 4.61146E+03-6.53508E+02 3.15980E+00
 -1      3087 4.45956E+03-6.47633E+02 3.26569E+00
 -1      3088 4.38355E+03-5.60806E+02 2.95562E+00
 -1      3089 4.95277E+03-6.64831E+02 2.94964E+00
 -1      3090 4.79796E+03-6.59468E+02 3.04720E+00
 -1      3091 4.70440E+03-5.22712E+02 2.58478E+00
 -1      3092 5.24861E+03-7.24694E+02 2.94188E+00
 -1      3093 5.09155E+03-7.19361E+02 3.03955E+00
 -1      3094 5.03027E+03-5.80472E+02 2.59685E+00
 -1      3095 5.54941E+03-6.84218E+02 2.61120E+00
 -1      3096 5.39024E+03-6.79641E+02 2.70436E+00
 -1      3097 5.31075E+03-5.89146E+02 2.46787E+00
 -1      3098 5.90559E+03-6.93707E+02 2.43105E+00
 -1      3099 5.74417E+03-6.89573E+02 2.51467E+00
 -1      3100 5.64700E+03-5.47524E+02 2.16636E+00
 -1      3101 6.21277E+03-7.57097E+02 2.41242E+00
 -1      3102 6.04964E+03-7.53015E+02 2.49716E+00
 -1      3103 5.98626E+03-6.10074E+02 2.17040E+00
 -1      3104 6.52472E+03-7.08795E+02 2.13680E+00
 -1      3105 6.36000E+03-7.05349E+02 2.21741E+00
 -1      3106 6.27759E+03-6.17089E+02 2.06007E+00
 -1      3107 6.89232E+03-7.14673E+02 1.98133E+00
 -1      3108 6.72594E+03-7.11614E+02 2.05212E+00
 -1      3109 6.62596E+03-5.66753E+02 1.80652E+00
 -1      3110 7.20796E+03-7.77492E+02 1.94817E+00
 -1      3111 7.04034E+03-7.74519E+02 2.01911E+00
 -1      3112 6.97555E+03-6.27841E+02 1.78873E+00
 -1      3113 7.52806E+03-7.25871E+02 1.73416E+00
 -1      3114 7.35929E+03-7.23401E+02 1.80075E+00
 -1      3115 7.27495E+03-6.33198E+02 1.69174E+00
 -1      3116 7.90378E+03-7.29685E+02 1.60587E+00
 -1      3117 7.73385E+03-7.27542E+02 1.66518E+00
 -1      3118 7.63204E+03-5.79801E+02 1.49790E+00
 -1      3119 8.22533E+03-7.91885E+02 1.56408E+00
 -1      3120 8.05455E+03-7.89844E+02 1.62346E+00
 -1      3121 7.98886E+03-6.40501E+02 1.46960E+00
 -1      3122 8.55109E+03-7.37769E+02 1.40930E+00
 -1      3123 8.37955E+03-7.36115E+02 1.45840E+00
 -1      3124 8.29390E+03-6.44617E+02 1.39306E+00
 -1      3125 8.93224E+03-7.39780E+02 1.30339E+00
 -1      3126 8.75995E+03-7.38394E+02 1.34799E+00
 -1      3127 8.65698E+03-5.88838E+02 1.25033E+00
 -1      3128 9.25756E+03-8.01241E+02 1.25788E+00
 -1      3129 9.08475E+03-7.99962E+02 1.30572E+00
 -1      3130 9.01853E+03-6.48892E+02 1.21685E+00
 -1      3131 9.58652E+03-7.44699E+02 1.15048E+00
 -1      3132 9.41325E+03-7.43698E+02 1.18949E+00
 -1      3133 9.32677E+03-6.51359E+02 1.15837E+00
 -1      3134 9.97085E+03-7.42195E+02 1.07416E+00
 -1      3135 9.79716E+03-7.41398E+02 1.10882E+00
 -1      3136 9.69312E+03-5.90170E+02 1.06043E+00
 -1      3137 1.02988E+04-7.94674E+02 1.03396E+00
 -1      3138 1.01248E+04-7.93987E+02 1.06449E+00
 -1      3139 1.00579E+04-6.38219E+02 1.02287E+00
 -1      3140 1.06272E+04-7.43819E+02 9.71145E-01
 -1      3141 1.04530E+04-7.43310E+02 9.95756E-01
 -1      3142 1.03661E+04-6.38532E+02 9.83562E-01
 -1      3143 1.10138E+04-7.49647E+02 9.24820E-01
 -1      3144 1.08394E+04-7.49276E+02 9.45971E-01
 -1      3145 1.07325E+04-5.92456E+02 9.32375E-01
 -1      3146 1.13443E+04-8.13652E+02 8.94595E-01
 -1      3147 1.11699E+04-8.13365E+02 9.13603E-01
 -1      3148 1.11009E+04-6.61403E+02 9.07362E-01
 -1      3149 1.16736E+04-7.50084E+02 8.66484E-01
 -1      3150 1.14991E+04-7.49898E+02 8.78861E-01
 -1      3151 1.14118E+04-6.61332E+02 8.83990E-01
 -1      3152 1.20613E+04-7.48193E+02 8.46337E-01
 -1      3153 1.18868E+04-7.48086E+02 8.54622E-01
 -1      3154 1.17797E+04-5.95556E+02 8.62888E-01
 -1      3155 1.23926E+04-8.04103E+02 8.33978E-01
 -1      3156 1.22181E+04-8.04045E+02 8.38341E-01
 -1      3157 1.21497E+04-6.49341E+02 8.48673E-01
 -1      3158 1.27281E+04-7.49698E+02 8.36162E-01
 -1      3159 1.25536E+04-7.49674E+02 8.36286E-01
 -1      3160 1.24674E+04-6.50756E+02 8.44805E-01
 -1      3161 1.28154E+04-6.42666E+02 8.46473E-01
 -1      3162 7.08462E+01-8.03582E+01 6.70719E+00
 -1      3163 6.06703E+01-7.06431E+01 5.61690E+00
 -1      3164 5.65402E+01-6.69070E+01 4.96126E+00
 -1      3165 9.10228E+01-9.74108E+01 8.06945E+00
 -1      3166 7.77145E+01-8.62671E+01 7.09323E+00
 -1      3167 6.89800E+01-7.73157E+01 6.07846E+00
 -1      3168 1.35831E+02-1.29763E+02 9.67995E+00
 -1      3169 1.14175E+02-1.15400E+02 9.13709E+00
 -1      3170 8.21890E+01-8.11822E+01 5.99140E+00
 -1      3171 9.93830E+01-1.00194E+02 7.94354E+00
 -1      3172 1.03290E+02-9.28887E+01 6.87186E+00
 -1      3173 1.31993E+02-1.09526E+02 7.47755E+00
 -1      3174 1.50703E+02-1.33064E+02 9.15436E+00
 -1      3175 1.66392E+02-1.25302E+02 7.80777E+00
 -1      3176 1.36846E+04-9.38360E+02 8.48025E-01
 -1      3177 1.35464E+04-9.04435E+02 8.44962E-01
 -1      3178 1.34500E+04-7.45905E+02 8.53036E-01
 -1      3179 1.35120E+04-8.48338E+02 8.47630E-01
 -1      3180 1.35979E+04-8.26893E+02 8.52518E-01
 -1      3181 1.37002E+04-8.62273E+02 8.53944E-01
 -1      3182 5.94508E+01-6.81705E+01 4.85702E+00
 -1      3183 6.68921E+01-6.51070E+01 4.57256E+00
 -1      3184 6.54263E+01-7.06740E+01 4.94467E+00
 -1      3185 7.12193E+01-3.60732E+01 2.13408E+00
 -1      3186 7.00307E+01-4.96358E+01 3.00530E+00
 -1      3187 8.59470E+01-6.35717E+01 4.28663E+00
 -1      3188 7.31968E+01-6.35542E+01 4.42226E+00
 -1      3189 7.59731E+01-4.98627E+00-2.19228E-01
 -1      3190 7.51466E+01-2.16219E+01 9.25049E-01
 -1      3191 8.70726E+01-3.10163E+01 1.59390E+00
 -1      3192 7.23314E+01 2.42924E+01-2.31993E+00
 -1      3193 7.22059E+01 1.02458E+01-1.27112E+00
 -1      3194 8.72349E+01 5.88125E+00-1.00890E+00
 -1      3195 7.01182E+01 4.78509E+01-4.29700E+00
 -1      3196 7.06857E+01 4.12157E+01-3.69361E+00
 -1      3197 8.79998E+01 3.89661E+01-3.68249E+00
 -1      3198 7.69259E+01 3.86368E+01-3.69206E+00
 -1      3199 8.61285E+01 5.76382E+01-5.36242E+00
 -1      3200 6.14986E+01 4.50996E+01-4.03525E+00
 -1      3201 6.40265E+01 4.42006E+01-3.75139E+00
 -1      3202 7.28508E+01 5.29594E+01-4.95297E+00
 -1      3203 6.58913E+01 4.91187E+01-4.80881E+00
 -1      3204 6.24269E+01 4.62537E+01-4.28316E+00
 -1      3205 6.77193E+01 5.04063E+01-4.75152E+00
 -1      3206 1.35851E+04-6.50874E+02 8.64400E-01
 -1      3207 1.36659E+04-8.06176E+02 8.56623E-01
 -1      3208 1.33949E+04-2.19790E+02 8.89399E-01
 -1      3209 1.34364E+04-3.89813E+02 8.78511E-01
 -1      3210 1.32730E+04-6.13700E+02 8.57784E-01
 -1      3211 1.34716E+04-6.25983E+02 8.62598E-01
 -1      3212 1.34081E+04-5.18670E+02 8.68521E-01
 -1      3213 1.32378E+04-3.77532E+02 8.74888E-01
 -1      3214 1.33565E+04 7.47749E+01 9.10080E-01
 -1      3215 1.33565E+04-1.00240E+02 8.97450E-01
 -1      3216 1.32278E+04-1.29131E+02 8.93291E-01
 -1      3217 1.34322E+04 3.95126E+02 9.33493E-01
 -1      3218 1.33906E+04 2.25128E+02 9.21819E-01
 -1      3219 1.32235E+04 1.40767E+02 9.13678E-01
 -1      3220 1.36676E+04 7.65013E+02 9.59300E-01
 -1      3221 1.35869E+04 6.09759E+02 9.47707E-01
 -1      3222 1.34323E+04 6.65846E+02 9.49422E-01
 -1      3223 1.34522E+04 5.55211E+02 9.43651E-01
 -1      3224 1.32776E+04 4.51213E+02 9.37335E-01
 -1      3225 1.36850E+04 9.04096E+02 9.67477E-01
 -1      3226 1.37007E+04 8.28030E+02 9.63825E-01
 -1      3227 1.36001E+04 7.83410E+02 9.57398E-01
 -1      3228 1.35468E+04 8.70174E+02 9.58931E-01
 -1      3229 1.35138E+04 8.07158E+02 9.54515E-01
 -1      3230 1.25854E+04 7.24854E+02 9.53279E-01
 -1      3231 1.27617E+04 7.24892E+02 9.66256E-01
 -1      3232 1.28508E+04 6.24624E+02 9.55646E-01
 -1      3233 1.22467E+04 7.47002E+02 9.24288E-01
 -1      3234 1.24230E+04 7.47076E+02 9.42137E-01
 -1      3235 1.25364E+04 6.00900E+02 9.35891E-01
 -1      3236 1.18223E+04 7.44586E+02 8.74093E-01
 -1      3237 1.19986E+04 7.44734E+02 8.96126E-01
 -1      3238 1.20044E+04 5.52292E+02 8.87688E-01
 -1      3239 1.21252E+04 6.78411E+02 9.07136E-01
 -1      3240 1.22525E+04 5.54546E+02 9.10972E-01
 -1      3241 1.14813E+04 7.20040E+02 8.26049E-01
 -1      3242 1.16576E+04 7.20258E+02 8.51171E-01
 -1      3243 1.17131E+04 5.94291E+02 8.57605E-01
 -1      3244 1.11502E+04 7.71465E+02 7.67673E-01
 -1      3245 1.13264E+04 7.71789E+02 7.99441E-01
 -1      3246 1.13936E+04 6.21755E+02 8.15256E-01
 -1      3247 1.08183E+04 7.16382E+02 7.10131E-01
 -1      3248 1.09945E+04 7.16793E+02 7.44933E-01
 -1      3249 1.10830E+04 6.18876E+02 7.70402E-01
 -1      3250 1.04305E+04 7.12381E+02 6.30838E-01
 -1      3251 1.06065E+04 7.12935E+02 6.70322E-01
 -1      3252 1.07154E+04 5.60978E+02 7.17141E-01
 -1      3253 1.00959E+04 7.61622E+02 5.36788E-01
 -1      3254 1.02716E+04 7.62356E+02 5.81455E-01
 -1      3255 1.03446E+04 6.07680E+02 6.38596E-01
 -1      3256 9.76581E+03 7.07618E+02 4.70060E-01
 -1      3257 9.94126E+03 7.08464E+02 5.15736E-01
 -1      3258 1.00311E+04 6.04621E+02 5.75862E-01
 -1      3259 9.37734E+03 7.07073E+02 3.59364E-01
 -1      3260 9.55235E+03 7.08128E+02 4.13069E-01
 -1      3261 9.66284E+03 5.52439E+02 5.14761E-01
 -1      3262 9.04443E+03 7.60508E+02 2.20131E-01
 -1      3263 9.21896E+03 7.61845E+02 2.78139E-01
 -1      3264 9.29097E+03 6.08103E+02 3.91653E-01
 -1      3265 8.71761E+03 7.01786E+02 1.49670E-01
 -1      3266 8.89160E+03 7.03240E+02 2.10057E-01
 -1      3267 8.97972E+03 6.05807E+02 3.09597E-01
 -1      3268 8.33088E+03 6.99839E+02 1.07521E-02
 -1      3269 8.50408E+03 7.01568E+02 7.74338E-02
 -1      3270 8.61315E+03 5.49111E+02 2.47007E-01
 -1      3271 8.00421E+03 7.49785E+02-1.76708E-01
 -1      3272 8.17662E+03 7.51894E+02-1.03606E-01
 -1      3273 8.24537E+03 6.01607E+02 7.84474E-02
 -1      3274 7.68288E+03 6.90109E+02-2.42795E-01
 -1      3275 7.85441E+03 6.92333E+02-1.71226E-01
 -1      3276 7.94125E+03 5.96530E+02-1.61551E-02
 -1      3277 7.30180E+03 6.86475E+02-4.08416E-01
 -1      3278 7.47212E+03 6.89037E+02-3.30963E-01
 -1      3279 7.58038E+03 5.39198E+02-7.58161E-02
 -1      3280 6.98093E+03 7.33653E+02-6.49509E-01
 -1      3281 7.15005E+03 7.36721E+02-5.61717E-01
 -1      3282 7.21791E+03 5.89406E+02-2.94989E-01
 -1      3283 6.66686E+03 6.73635E+02-7.10870E-01
 -1      3284 6.83471E+03 6.76793E+02-6.24451E-01
 -1      3285 6.91989E+03 5.83258E+02-4.06915E-01
 -1      3286 6.29349E+03 6.70214E+02-9.14844E-01
 -1      3287 6.45958E+03 6.73791E+02-8.22413E-01
 -1      3288 6.56596E+03 5.28232E+02-4.62532E-01
 -1      3289 5.98048E+03 7.20371E+02-1.23500E+00
 -1      3290 6.14490E+03 7.24622E+02-1.13174E+00
 -1      3291 6.21018E+03 5.84247E+02-7.62976E-01
 -1      3292 5.67720E+03 6.53201E+02-1.25970E+00
 -1      3293 5.83987E+03 6.57481E+02-1.16317E+00
 -1      3294 5.92094E+03 5.76273E+02-8.94522E-01
 -1      3295 5.31713E+03 6.44512E+02-1.48490E+00
 -1      3296 5.47745E+03 6.49259E+02-1.38012E+00
 -1      3297 5.58004E+03 5.11657E+02-9.11820E-01
 -1      3298 5.01525E+03 6.89942E+02-1.87589E+00
 -1      3299 5.17334E+03 6.95523E+02-1.75918E+00
 -1      3300 5.23664E+03 5.60729E+02-1.27618E+00
 -1      3301 4.72312E+03 6.47830E+02-1.97635E+00
 -1      3302 4.87889E+03 6.53593E+02-1.86174E+00
 -1      3303 4.95642E+03 5.76126E+02-1.51791E+00
 -1      3304 4.38509E+03 6.11621E+02-2.13226E+00
 -1      3305 4.53785E+03 6.17700E+02-2.01216E+00
 -1      3306 4.63418E+03 5.11785E+02-1.50979E+00
 -1      3307 4.09446E+03 6.50718E+02-2.59753E+00
 -1      3308 4.24435E+03 6.57802E+02-2.47166E+00
 -1      3309 4.30828E+03 5.30673E+02-1.84829E+00
 -1      3310 3.81725E+03 6.06763E+02-2.69190E+00
 -1      3311 3.96415E+03 6.14011E+02-2.56021E+00
 -1      3312 4.03715E+03 5.41122E+02-2.12889E+00
 -1      3313 3.50250E+03 5.69910E+02-2.85740E+00
 -1      3314 3.64567E+03 5.77489E+02-2.72415E+00
 -1      3315 3.73456E+03 4.77831E+02-2.09066E+00
 -1      3316 3.23027E+03 6.01796E+02-3.40566E+00
 -1      3317 3.36982E+03 6.10557E+02-3.26512E+00
 -1      3318 3.43040E+03 4.92763E+02-2.48841E+00
 -1      3319 2.97499E+03 5.57543E+02-3.48755E+00
 -1      3320 3.11087E+03 5.66450E+02-3.34744E+00
 -1      3321 3.17826E+03 4.99302E+02-2.81778E+00
 -1      3322 2.68786E+03 5.19453E+02-3.65687E+00
 -1      3323 2.81919E+03 5.28704E+02-3.51070E+00
 -1      3324 2.90217E+03 4.38363E+02-2.74229E+00
 -1      3325 2.43625E+03 5.42172E+02-4.28814E+00
 -1      3326 2.56309E+03 5.52788E+02-4.13473E+00
 -1      3327 2.62157E+03 4.47251E+02-3.19341E+00
 -1      3328 2.21019E+03 4.98611E+02-4.36277E+00
 -1      3329 2.33267E+03 5.09354E+02-4.20542E+00
 -1      3330 2.39325E+03 4.49299E+02-3.56487E+00
 -1      3331 1.95156E+03 4.57411E+02-4.52554E+00
 -1      3332 2.06852E+03 4.68482E+02-4.36577E+00
 -1      3333 2.14671E+03 3.90154E+02-3.44517E+00
 -1      3334 1.72737E+03 4.69410E+02-5.23599E+00
 -1      3335 1.83892E+03 4.82021E+02-5.06863E+00
 -1      3336 1.89228E+03 3.90070E+02-3.94400E+00
 -1      3337 1.53418E+03 4.30927E+02-5.35178E+00
 -1      3338 1.64063E+03 4.43758E+02-5.18346E+00
 -1      3339 1.69299E+03 3.90996E+02-4.40554E+00
 -1      3340 1.34312E+03 4.03632E+02-5.63275E+00
 -1      3341 1.44396E+03 4.17043E+02-5.46356E+00
 -1      3342 1.51485E+03 3.55091E+02-4.42272E+00
 -1      3343 1.10517E+03 3.52109E+02-5.78965E+00
 -1      3344 1.19811E+03 3.65843E+02-5.62127E+00
 -1      3345 1.21522E+03 2.50525E+02-3.75731E+00
 -1      3346 1.28060E+03 3.42380E+02-4.95882E+00
 -1      3347 1.36124E+03 2.82192E+02-3.82499E+00
 -1      3348 9.39994E+02 3.32900E+02-6.25206E+00
 -1      3349 1.02660E+03 3.47608E+02-6.07188E+00
 -1      3350 1.05441E+03 2.73642E+02-4.65519E+00
 -1      3351 7.80686E+02 2.90752E+02-6.32626E+00
 -1      3352 8.60440E+02 3.05610E+02-6.15560E+00
 -1      3353 8.96212E+02 2.46582E+02-4.79477E+00
 -1      3354 6.40583E+02 2.69735E+02-6.86340E+00
 -1      3355 7.13316E+02 2.85734E+02-6.67188E+00
 -1      3356 7.49021E+02 2.21259E+02-4.97755E+00
 -1      3357 5.12804E+02 2.38901E+02-7.24455E+00
 -1      3358 5.78197E+02 2.55686E+02-7.04835E+00
 -1      3359 6.17994E+02 2.07852E+02-5.45557E+00
 -1      3360 3.65052E+02 1.98034E+02-7.94883E+00
 -1      3361 4.20246E+02 2.16300E+02-7.70632E+00
 -1      3362 5.01297E+02 1.57006E+02-4.89588E+00
 -1      3363 4.59595E+02 1.97270E+02-6.55101E+00
 -1      3364 4.08991E+02 1.42560E+02-5.28174E+00
 -1      3365 3.24217E+02 1.45215E+02-6.54705E+00
 -1      3366 1.51609E+02 1.05745E+02-8.82974E+00
 -1      3367 1.76499E+02 1.17912E+02-9.02411E+00
 -1      3368 1.87470E+02 1.08670E+02-7.82574E+00
 -1      3369 1.15138E+02 8.66232E+01-8.34312E+00
 -1      3370 1.33099E+02 9.76924E+01-8.89994E+00
 -1      3371 1.39716E+02 8.64576E+01-7.16416E+00
 -1      3372 8.12273E+01 6.17812E+01-6.23485E+00
 -1      3373 9.26944E+01 7.06409E+01-7.20914E+00
 -1      3374 1.00849E+02 7.32497E+01-7.13565E+00
 -1      3375 1.07109E+02 6.75148E+01-6.24204E+00
 -1      3376 7.53362E+01 5.71370E+01-5.80155E+00
 -1      3377 7.40868E+01 5.53872E+01-5.38505E+00
 -1      3378 1.52128E+02 1.16237E+01-1.38846E+00
 -1      3379 1.66904E+02-1.14149E+01 1.24928E-01
 -1      3380 1.84107E+02 1.38069E+01-1.40751E+00
 -1      3381 1.51494E+02-3.09961E+01 1.43458E+00
 -1      3382 1.83468E+02-3.42873E+01 1.45404E+00
 -1      3383 2.60425E+02-4.88566E+01 1.89187E+00
 -1      3384 2.43042E+02-1.62531E+01 3.28026E-01
 -1      3385 2.16599E+02-4.13442E+01 1.71211E+00
 -1      3386 2.66672E+02 9.19895E+00-9.04361E-01
 -1      3387 2.22177E+02 1.07426E+01-1.10402E+00
 -1      3388 2.04056E+02 3.71310E+01-2.66779E+00
 -1      3389 1.98152E+02-6.27888E+01 3.02562E+00
 -1      3390 4.05894E+02 6.33130E+01-2.47052E+00
 -1      3391 4.08484E+02-2.87670E+00-1.57210E-01
 -1      3392 4.50360E+02 5.06224E+01-1.86308E+00
 -1      3393 4.82724E+02 9.33212E+01-3.07721E+00
 -1      3394 4.85021E+02 2.05925E+01-8.04193E-01
 -1      3395 5.51124E+02-5.80770E+01 1.53584E+00
 -1      3396 5.18329E+02-1.58904E+01 3.26437E-01
 -1      3397 4.84366E+02-5.90932E+01 1.65001E+00
 -1      3398 5.51974E+02 2.72377E+01-8.88348E-01
 -1      3399 3.75979E+02-3.48288E+01 9.93666E-01
 -1      3400 4.19399E+02-5.27190E+01 1.57390E+00
 -1      3401 4.49494E+02-9.20101E+01 2.79550E+00
 -1      3402 1.25644E+04 1.81194E+02 9.02062E-01
 -1      3403 1.23949E+04 1.41348E+02 8.93560E-01
 -1      3404 1.24892E+04-1.53533E+01 8.86333E-01
 -1      3405 1.23019E+04 2.69206E+02 8.96900E-01
 -1      3406 1.22268E+04 7.26825E+01 8.82297E-01
 -1      3407 1.24404E+04-3.48445E+02 8.65031E-01
 -1      3408 1.24440E+04-1.60082E+02 8.76091E-01
 -1      3409 1.23161E+04-2.43516E+02 8.69120E-01
 -1      3410 1.21929E+04-3.56899E+02 8.62672E-01
 -1      3411 1.21965E+04-1.68566E+02 8.71645E-01
 -1      3412 1.26136E+04-1.20262E+02 8.82442E-01
 -1      3413 1.20173E+04-1.52866E+02 8.67686E-01
 -1      3414 1.21405E+04-3.94979E+01 8.74550E-01
 -1      3415 1.20475E+04 8.83417E+01 8.76789E-01
 -1      3416 1.13775E+04-3.78639E+02 8.71076E-01
 -1      3417 1.13765E+04-1.47210E+02 8.58020E-01
 -1      3418 1.12560E+04-2.45409E+02 8.64245E-01
 -1      3419 1.11355E+04-1.48153E+02 8.55686E-01
 -1      3420 1.11365E+04-3.79453E+02 8.77032E-01
 -1      3421 1.13780E+04 1.17357E+02 8.41131E-01
 -1      3422 1.13742E+04 3.25201E+02 8.27492E-01
 -1      3423 1.12511E+04 1.93689E+02 8.26995E-01
 -1      3424 1.11285E+04 3.20837E+02 8.05698E-01
 -1      3425 1.11323E+04 1.13115E+02 8.25553E-01
 -1      3426 1.15660E+04 1.20187E+02 8.51247E-01
 -1      3427 1.14430E+04-1.12961E+01 8.51545E-01
 -1      3428 1.15645E+04-1.44484E+02 8.59658E-01
 -1      3429 1.09529E+04-1.49696E+02 8.51919E-01
 -1      3430 1.10723E+04-1.56841E+01 8.38318E-01
 -1      3431 1.09497E+04 1.11441E+02 8.17087E-01
 -1      3432 1.03165E+04 3.10279E+02 7.15288E-01
 -1      3433 1.02004E+04 1.84901E+02 7.43129E-01
 -1      3434 1.03221E+04 1.12131E+02 7.74841E-01
 -1      3435 1.00775E+04 3.07726E+02 6.87985E-01
 -1      3436 1.00830E+04 1.09840E+02 7.57160E-01
 -1      3437 1.03260E+04-1.38848E+02 8.45520E-01
 -1      3438 1.02096E+04-2.12816E+02 8.69142E-01
 -1      3439 1.03297E+04-3.38726E+02 9.05228E-01
 -1      3440 1.00898E+04-1.40077E+02 8.47927E-01
 -1      3441 1.00934E+04-3.39697E+02 9.15436E-01
 -1      3442 1.04981E+04 1.15598E+02 7.84151E-01
 -1      3443 1.03819E+04-9.74106E+00 8.11617E-01
 -1      3444 1.05021E+04-1.35598E+02 8.48360E-01
 -1      3445 9.91030E+03-1.42622E+02 8.46504E-01
 -1      3446 1.00264E+04-1.57855E+01 8.00732E-01
 -1      3447 9.90358E+03 1.07013E+02 7.47070E-01
 -1      3448 9.28179E+03 1.06749E+02 6.98431E-01
 -1      3449 9.26605E+03 3.14582E+02 5.64912E-01
 -1      3450 9.15428E+03 1.87948E+02 6.32978E-01
 -1      3451 9.02635E+03 3.13980E+02 5.31296E-01
 -1      3452 9.04205E+03 1.06640E+02 6.78240E-01
 -1      3453 9.29172E+03-3.64826E+02 9.89614E-01
 -1      3454 9.29059E+03-1.48644E+02 8.53504E-01
 -1      3455 9.17113E+03-2.35505E+02 9.15216E-01
 -1      3456 9.05426E+03-3.64745E+02 1.01023E+00
 -1      3457 9.05311E+03-1.49064E+02 8.64107E-01
 -1      3458 9.46358E+03 1.05909E+02 7.11349E-01
 -1      3459 9.35172E+03-2.06778E+01 7.79152E-01
 -1      3460 9.47239E+03-1.49899E+02 8.57528E-01
 -1      3461 8.87178E+03-1.49687E+02 8.63954E-01
 -1      3462 8.98855E+03-2.05170E+01 7.68506E-01
 -1      3463 8.86073E+03 1.05511E+02 6.67673E-01
 -1      3464 8.24510E+03 1.04941E+02 6.12400E-01
 -1      3465 8.22560E+03 3.10074E+02 3.83967E-01
 -1      3466 8.11875E+03 1.84334E+02 5.07477E-01
 -1      3467 7.99006E+03 3.08462E+02 3.43109E-01
 -1      3468 8.00946E+03 1.04098E+02 5.85493E-01
 -1      3469 8.25896E+03-3.62033E+02 1.10947E+00
 -1      3470 8.25781E+03-1.48723E+02 8.76126E-01
 -1      3471 8.13936E+03-2.33293E+02 9.77126E-01
 -1      3472 8.02361E+03-3.60414E+02 1.13385E+00
 -1      3473 8.02244E+03-1.47888E+02 8.87593E-01
 -1      3474 8.42361E+03 1.03858E+02 6.25157E-01
 -1      3475 8.31659E+03-2.18483E+01 7.46831E-01
 -1      3476 8.43635E+03-1.50463E+02 8.78064E-01
 -1      3477 7.84231E+03-1.48360E+02 8.89899E-01
 -1      3478 7.95788E+03-2.13022E+01 7.34341E-01
 -1      3479 7.82937E+03 1.02859E+02 5.72573E-01
 -1      3480 7.22230E+03 1.01733E+02 5.08461E-01
 -1      3481 7.20071E+03 3.02881E+02 1.68143E-01
 -1      3482 7.09705E+03 1.79280E+02 3.58338E-01
 -1      3483 6.96952E+03 3.00755E+02 1.21796E-01
 -1      3484 6.99098E+03 1.00730E+02 4.78296E-01
 -1      3485 7.23958E+03-3.55902E+02 1.25847E+00
 -1      3486 7.23692E+03-1.46913E+02 9.10004E-01
 -1      3487 7.12125E+03-2.29683E+02 1.06137E+00
 -1      3488 7.00844E+03-3.53746E+02 1.29062E+00
 -1      3489 7.00575E+03-1.45896E+02 9.30110E-01
 -1      3490 7.39773E+03 1.01016E+02 5.24549E-01
 -1      3491 7.29381E+03-2.25731E+01 7.13874E-01
 -1      3492 7.41240E+03-1.48603E+02 9.12117E-01
 -1      3493 6.82859E+03-1.46081E+02 9.33115E-01
 -1      3494 6.94112E+03-2.21247E+01 7.02563E-01
 -1      3495 6.81388E+03 9.94254E+01 4.68559E-01
 -1      3496 6.24144E+03-3.51339E+02 1.45314E+00
 -1      3497 6.23851E+03-1.63016E+02 1.00255E+00
 -1      3498 6.12730E+03-2.40842E+02 1.21076E+00
 -1      3499 6.01757E+03-3.48976E+02 1.49949E+00
 -1      3500 6.01463E+03-1.62082E+02 1.03240E+00
 -1      3501 6.34951E+03 9.84112E+01 4.03473E-01
 -1      3502 6.18475E+03 8.31944E+01 4.27495E-01
 -1      3503 6.28902E+03-3.88935E+01 7.18501E-01
 -1      3504 6.40351E+03-1.49081E+02 9.67087E-01
 -1      3505 5.84197E+03-1.48883E+02 1.00167E+00
 -1      3506 5.95128E+03-4.07893E+01 7.16945E-01
 -1      3507 5.83986E+03 9.44779E+01 3.55284E-01
 -1      3508 6.01248E+03 8.28222E+01 3.98319E-01
 -1      3509 6.07263E+03 2.19174E+02 6.96868E-02
 -1      3510 5.27683E+03-3.31497E+02 1.65342E+00
 -1      3511 5.27610E+03-1.66362E+02 1.11480E+00
 -1      3512 5.16915E+03-2.33679E+02 1.35731E+00
 -1      3513 5.06410E+03-3.28857E+02 1.70407E+00
 -1      3514 5.06333E+03-1.65404E+02 1.14246E+00
 -1      3515 5.38465E+03 8.88260E+01 2.96679E-01
 -1      3516 5.22880E+03 6.48895E+01 3.59985E-01
 -1      3517 5.32403E+03-4.65812E+01 7.29389E-01
 -1      3518 5.43220E+03-1.44024E+02 1.03165E+00
 -1      3519 4.90849E+03-1.45438E+02 1.08294E+00
 -1      3520 5.01302E+03-5.01738E+01 7.36882E-01
 -1      3521 4.94275E+03 5.67633E+01 3.52133E-01
 -1      3522 5.09780E+03 3.83809E+01 4.29429E-01
 -1      3523 5.15798E+03 1.72621E+02-1.53910E-02
 -1      3524 4.35206E+03-3.16177E+02 1.90888E+00
 -1      3525 4.35120E+03-1.59399E+02 1.21441E+00
 -1      3526 4.24823E+03-2.22599E+02 1.52061E+00
 -1      3527 4.14850E+03-3.12790E+02 1.96739E+00
 -1      3528 4.14760E+03-1.58176E+02 1.24858E+00
 -1      3529 4.46426E+03 8.12206E+01 1.75985E-01
 -1      3530 4.30877E+03 6.01660E+01 2.50070E-01
 -1      3531 4.40250E+03-4.73407E+01 7.26203E-01
 -1      3532 4.50702E+03-1.40507E+02 1.12018E+00
 -1      3533 4.00061E+03-1.41747E+02 1.18672E+00
 -1      3534 4.09967E+03-5.14608E+01 7.44524E-01
 -1      3535 4.03025E+03 4.75817E+01 2.69468E-01
 -1      3536 4.17749E+03 3.31617E+01 3.48198E-01
 -1      3537 4.23859E+03 1.60175E+02-2.18041E-01
 -1      3538 3.47754E+03-2.96273E+02 2.19550E+00
 -1      3539 3.47654E+03-1.49976E+02 1.32762E+00
 -1      3540 3.38046E+03-2.08588E+02 1.71508E+00
 -1      3541 3.28747E+03-2.91896E+02 2.26640E+00
 -1      3542 3.28643E+03-1.48288E+02 1.37153E+00
 -1      3543 3.58153E+03 7.47466E+01 2.92207E-02
 -1      3544 3.43609E+03 5.46369E+01 1.27416E-01
 -1      3545 3.52446E+03-4.53505E+01 7.19365E-01
 -1      3546 3.62240E+03-1.32514E+02 1.20886E+00
 -1      3547 3.14953E+03-1.32623E+02 1.29977E+00
 -1      3548 3.24167E+03-4.91933E+01 7.49155E-01
 -1      3549 3.17648E+03 4.25087E+01 1.59074E-01
 -1      3550 3.31369E+03 2.93381E+01 2.53471E-01
 -1      3551 3.36994E+03 1.47514E+02-4.51184E-01
 -1      3552 2.66757E+03-2.71816E+02 2.52623E+00
 -1      3553 2.66642E+03-1.38333E+02 1.47003E+00
 -1      3554 2.57877E+03-1.91381E+02 1.93326E+00
 -1      3555 2.49434E+03-2.66309E+02 2.60035E+00
 -1      3556 2.49314E+03-1.36074E+02 1.52003E+00
 -1      3557 2.76527E+03 6.77953E+01-1.29265E-01
 -1      3558 2.63210E+03 4.88765E+01-5.24499E-03
 -1      3559 2.71019E+03-4.28215E+01 7.21619E-01
 -1      3560 2.80004E+03-1.22681E+02 1.31948E+00
 -1      3561 2.36988E+03-1.20936E+02 1.42005E+00
 -1      3562 2.45330E+03-4.58020E+01 7.52959E-01
 -1      3563 2.39845E+03 3.81531E+01 2.95159E-02
 -1      3564 2.52215E+03 2.59926E+01 1.48234E-01
 -1      3565 2.57620E+03 1.34373E+02-7.15588E-01
 -1      3566 7.49711E+02-1.27842E+02 2.88075E+00
 -1      3567 8.10158E+02-1.12176E+02 2.42361E+00
 -1      3568 7.55375E+02-3.91797E+01 8.91818E-01
 -1      3569 8.52148E+02-1.66684E+02 3.46993E+00
 -1      3570 8.57725E+02-7.23809E+01 1.52176E+00
 -1      3571 9.38368E+02 5.50769E+01-9.74229E-01
 -1      3572 8.52319E+02 4.59544E+01-8.82922E-01
 -1      3573 9.00823E+02-1.41453E+01 3.50147E-01
 -1      3574 9.43902E+02-6.87577E+01 1.39925E+00
 -1      3575 7.09816E+02 1.13868E+01-2.72651E-01
 -1      3576 7.69377E+02 3.19216E+01-6.91228E-01
 -1      3577 8.04962E+02 9.73164E+01-2.04332E+00
 -1      3578 2.02976E+03 6.48290E+01-3.58056E-01
 -1      3579 1.91260E+03 6.32217E+01-3.82177E-01
 -1      3580 1.98357E+03-1.87330E+01 4.99982E-01
 -1      3581 2.03492E+03-1.04768E+02 1.38722E+00
 -1      3582 1.91764E+03-1.02399E+02 1.39148E+00
 -1      3583 1.68824E+03-9.08053E+01 1.33992E+00
 -1      3584 1.79684E+03-9.17791E+01 1.32576E+00
 -1      3585 1.75715E+03-1.92791E+01 4.95571E-01
 -1      3586 1.70414E+03 4.27529E+01-2.34682E-01
 -1      3587 1.81314E+03 4.52344E+01-2.33783E-01
 -1      3588 1.85813E+03 1.26559E+02-1.10839E+00
 -1      3589 1.84671E+03-1.75393E+02 2.23057E+00
 -1      3590 1.29304E+03-1.90814E+02 3.03409E+00
 -1      3591 1.32431E+03-9.72428E+01 1.61093E+00
 -1      3592 1.24171E+03-1.27360E+02 2.13728E+00
 -1      3593 1.16798E+03-1.43636E+02 2.46255E+00
 -1      3594 1.19828E+03-5.38711E+01 1.01555E+00
 -1      3595 1.41550E+03-9.19523E+01 1.49277E+00
 -1      3596 1.36284E+03-2.79087E+01 5.99764E-01
 -1      3597 1.39951E+03 3.30903E+01-2.63393E-01
 -1      3598 1.30866E+03 2.42509E+01-1.68059E-01
 -1      3599 1.14551E+03 7.61574E+00 2.78187E-02
 -1      3600 1.21903E+03 2.79204E+01-2.75170E-01
 -1      3601 1.25440E+03 8.67785E+01-1.15422E+00
 -1      3602 9.82149E+01 2.97819E+01-2.91593E+00
 -1      3603 1.04128E+02 4.89246E+01-4.48499E+00
 -1      3604 1.19032E+02 6.09316E+01-5.35756E+00
 -1      3605 1.12751E+02-1.19269E+01 2.15100E-01
 -1      3606 1.26155E+02 1.57162E+01-1.71154E+00
 -1      3607 1.03592E+02 1.10345E+01-1.53079E+00
 -1      3608 1.63544E+02 6.46982E+01-4.92867E+00
 -1      3609 1.36493E+02 6.19716E+01-5.16726E+00
 -1      3610 1.40315E+02 3.83127E+01-3.26178E+00
 -1      3611 1.02515E+02-3.59795E+01 2.06293E+00
 -1      3612 1.24917E+02-3.85823E+01 2.06788E+00
 -1      3613 9.70335E+01-5.42372E+01 3.49434E+00
 -1      3614 1.01000E+02-7.31455E+01 4.99585E+00
 -1      3615 1.15979E+02-8.63330E+01 5.91251E+00
 -1      3616 1.38420E+02-5.92800E+01 3.41037E+00
 -1      3617 1.56267E+02-8.34972E+01 4.88518E+00
 -1      3618 1.29625E+02-8.42882E+01 5.43204E+00
 -1      3619 1.31059E+04-5.97690E+02 8.54879E-01
 -1      3620 1.30659E+04-3.86274E+02 8.70918E-01
 -1      3621 1.29623E+04-4.77571E+02 8.61591E-01
 -1      3622 1.30943E+04-2.57424E+02 8.81120E-01
 -1      3623 1.30559E+04-1.37880E+02 8.89587E-01
 -1      3624 1.30616E+04 4.32553E+01 9.03670E-01
 -1      3625 1.29281E+04-8.50343E+01 8.91353E-01
 -1      3626 1.27454E+04-2.65588E+02 8.74512E-01
 -1      3627 1.27906E+04-1.20834E+02 8.85825E-01
 -1      3628 1.27962E+04 6.02850E+01 8.99697E-01
 -1      3629 1.25984E+04-4.30655E+02 8.60458E-01
 -1      3630 1.27754E+04-4.31249E+02 8.62741E-01
 -1      3631 2.40226E+03 3.60795E+02-2.79855E+00
 -1      3632 2.26228E+03 3.00050E+02-2.42301E+00
 -1      3633 2.37413E+03 2.41154E+02-1.77013E+00
 -1      3634 2.49147E+03 2.05288E+02-1.36069E+00
 -1      3635 2.34990E+03 1.47623E+02-9.64827E-01
 -1      3636 2.11927E+03 2.75064E+02-2.38739E+00
 -1      3637 1.98219E+03 2.53941E+02-2.33655E+00
 -1      3638 2.09505E+03 1.64629E+02-1.31027E+00
 -1      3639 2.21549E+03-2.56406E+01 5.77082E-01
 -1      3640 2.28239E+03 7.63189E+01-3.61613E-01
 -1      3641 2.16802E+03 8.09359E+01-4.43351E-01
 -1      3642 3.16719E+03 3.95402E+02-2.16102E+00
 -1      3643 3.02769E+03 3.35124E+02-1.88399E+00
 -1      3644 3.13538E+03 2.64141E+02-1.31717E+00
 -1      3645 3.26214E+03 2.22245E+02-9.71344E-01
 -1      3646 3.12151E+03 1.64328E+02-6.74072E-01
 -1      3647 2.87089E+03 3.10530E+02-1.86951E+00
 -1      3648 2.71699E+03 2.84757E+02-1.80202E+00
 -1      3649 2.84034E+03 1.82315E+02-9.39786E-01
 -1      3650 2.97407E+03-3.01059E+01 6.24695E-01
 -1      3651 3.05055E+03 8.62724E+01-1.73124E-01
 -1      3652 2.92001E+03 8.93087E+01-2.26477E-01
 -1      3653 4.02295E+03 4.28809E+02-1.60684E+00
 -1      3654 3.87163E+03 3.65006E+02-1.38820E+00
 -1      3655 3.98719E+03 2.87441E+02-9.26888E-01
 -1      3656 4.12365E+03 2.41326E+02-6.38136E-01
 -1      3657 3.97143E+03 1.79472E+02-4.03005E-01
 -1      3658 3.69926E+03 3.39253E+02-1.38318E+00
 -1      3659 3.52827E+03 3.11786E+02-1.33661E+00
 -1      3660 3.66350E+03 1.99664E+02-6.33962E-01
 -1      3661 3.81132E+03-3.12649E+01 6.42043E-01
 -1      3662 3.89446E+03 9.52113E+01-3.82438E-03
 -1      3663 3.75323E+03 9.86559E+01-4.84130E-02
 -1      3664 4.95522E+03 4.64255E+02-1.12342E+00
 -1      3665 4.77777E+03 3.90541E+02-9.46817E-01
 -1      3666 4.91246E+03 3.13431E+02-5.93209E-01
 -1      3667 5.05909E+03 2.65832E+02-3.64519E-01
 -1      3668 4.88087E+03 1.93843E+02-1.71068E-01
 -1      3669 4.59190E+03 3.63280E+02-9.52392E-01
 -1      3670 4.40988E+03 3.35277E+02-9.18496E-01
 -1      3671 4.55200E+03 2.14685E+02-3.49902E-01
 -1      3672 4.70811E+03-2.91996E+01 6.54452E-01
 -1      3673 4.79679E+03 1.05537E+02 1.38546E-01
 -1      3674 4.64681E+03 1.06344E+02 1.18384E-01
 -1      3675 5.49370E+03 3.73583E+02-5.50106E-01
 -1      3676 5.69370E+03 3.75228E+02-4.60418E-01
 -1      3677 5.33499E+03 3.53954E+02-5.48137E-01
 -1      3678 5.44777E+03 2.18556E+02-8.59462E-02
 -1      3679 5.62933E+03-2.58546E+01 6.69475E-01
 -1      3680 5.69286E+03 1.04869E+02 2.96212E-01
 -1      3681 5.54367E+03 1.06571E+02 2.74649E-01
 -1      3682 5.75371E+03 2.27682E+02-3.11658E-02
 -1      3683 5.84063E+03 3.66378E+02-3.88294E-01
 -1      3684 6.47402E+03 3.88478E+02-2.09901E-01
 -1      3685 6.68150E+03 3.86627E+02-1.26950E-01
 -1      3686 6.30206E+03 3.74343E+02-2.29012E-01
 -1      3687 6.41691E+03 2.33635E+02 1.17813E-01
 -1      3688 6.60894E+03-2.35708E+01 6.94558E-01
 -1      3689 6.67666E+03 1.12383E+02 4.19498E-01
 -1      3690 6.52172E+03 1.11068E+02 4.05207E-01
 -1      3691 6.72633E+03 2.34612E+02 1.84763E-01
 -1      3692 6.81867E+03 3.74671E+02-6.24145E-02
 -1      3693 7.48473E+03 3.96713E+02 9.51332E-02
 -1      3694 7.69562E+03 3.96585E+02 1.60707E-01
 -1      3695 7.34799E+03 3.81887E+02 8.48908E-02
 -1      3696 7.46285E+03 2.39811E+02 3.27301E-01
 -1      3697 7.62350E+03-2.29710E+01 7.24798E-01
 -1      3698 7.68878E+03 1.16246E+02 5.35786E-01
 -1      3699 7.53460E+03 1.15018E+02 5.26359E-01
 -1      3700 7.74025E+03 2.41223E+02 3.76884E-01
 -1      3701 7.83618E+03 3.83901E+02 2.08819E-01
 -1      3702 8.51459E+03 4.04509E+02 3.49796E-01
 -1      3703 8.72821E+03 4.03936E+02 4.04511E-01
 -1      3704 8.37591E+03 3.89856E+02 3.36294E-01
 -1      3705 8.49073E+03 2.45085E+02 4.98819E-01
 -1      3706 8.65116E+03-2.23319E+01 7.57870E-01
 -1      3707 8.71838E+03 1.19169E+02 6.38969E-01
 -1      3708 8.56237E+03 1.17954E+02 6.27632E-01
 -1      3709 8.77180E+03 2.46059E+02 5.41311E-01
 -1      3710 8.87054E+03 3.90741E+02 4.41626E-01
 -1      3711 1.18869E+04-4.49391E+02 8.60039E-01
 -1      3712 1.16737E+04-4.51453E+02 8.66524E-01
 -1      3713 1.15323E+04-4.38962E+02 8.68519E-01
 -1      3714 1.16394E+04-2.92881E+02 8.63576E-01
 -1      3715 1.20332E+04-4.37711E+02 8.60214E-01
 -1      3716 1.19271E+04-2.93639E+02 8.64033E-01
 -1      3717 1.17961E+04-1.61652E+01 8.63826E-01
 -1      3718 1.17059E+04-1.56900E+02 8.61842E-01
 -1      3719 1.18710E+04-1.64587E+02 8.66342E-01
 -1      3720 1.08394E+04-4.51302E+02 8.97540E-01
 -1      3721 1.06272E+04-4.46062E+02 9.13114E-01
 -1      3722 1.04833E+04-4.25853E+02 9.16378E-01
 -1      3723 1.05901E+04-2.84870E+02 8.79032E-01
 -1      3724 1.09804E+04-4.39953E+02 8.91743E-01
 -1      3725 1.08750E+04-2.93583E+02 8.73923E-01
 -1      3726 1.07238E+04-1.18310E+01 8.25155E-01
 -1      3727 1.06459E+04-1.55620E+02 8.50132E-01
 -1      3728 1.08118E+04-1.61168E+02 8.54107E-01
 -1      3729 9.56346E+03 4.06658E+02 5.62819E-01
 -1      3730 9.77699E+03 4.05697E+02 6.06240E-01
 -1      3731 9.42153E+03 3.93173E+02 5.47152E-01
 -1      3732 9.53555E+03 2.46709E+02 6.43498E-01
 -1      3733 9.69023E+03-2.01005E+01 7.91098E-01
 -1      3734 9.76225E+03 1.20840E+02 7.27349E-01
 -1      3735 9.60556E+03 1.19050E+02 7.19266E-01
 -1      3736 9.81885E+03 2.46332E+02 6.79235E-01
 -1      3737 9.91831E+03 3.92123E+02 6.32715E-01
 -1      3738 2.28402E+03-3.17193E+02 3.23403E+00
 -1      3739 2.13760E+03-3.11586E+02 3.36370E+00
 -1      3740 2.01666E+03-2.94827E+02 3.32942E+00
 -1      3741 2.08865E+03-2.02501E+02 2.33137E+00
 -1      3742 2.15626E+03-1.17111E+02 1.45478E+00
 -1      3743 2.27047E+03-1.25694E+02 1.50692E+00
 -1      3744 2.30959E+03-2.13993E+02 2.28522E+00
 -1      3745 2.38351E+03-3.15510E+02 3.12792E+00
 -1      3746 1.29986E+04 5.30571E+02 9.47655E-01
 -1      3747 1.31460E+04 5.00946E+02 9.41773E-01
 -1      3748 1.31260E+04 3.40852E+02 9.28946E-01
 -1      3749 1.28465E+04 4.84631E+02 9.39205E-01
 -1      3750 1.30957E+04 1.93607E+02 9.15778E-01
 -1      3751 1.29640E+04 2.43334E+02 9.18759E-01
 -1      3752 1.27249E+04 4.32111E+02 9.30829E-01
 -1      3753 1.28727E+04 3.38062E+02 9.25195E-01
 -1      3754 1.28424E+04 1.90823E+02 9.11496E-01
 -1      3755 1.69693E+03 3.14419E+02-3.49198E+00
 -1      3756 1.57724E+03 2.66962E+02-3.14384E+00
 -1      3757 1.66712E+03 2.12823E+02-2.31857E+00
 -1      3758 1.77431E+03 1.82872E+02-1.82348E+00
 -1      3759 1.65268E+03 1.39010E+02-1.44490E+00
 -1      3760 1.42129E+03 1.97563E+02-2.52039E+00
 -1      3761 1.48574E+03 2.57397E+02-3.21646E+00
 -1      3762 1.32161E+03 1.54650E+02-2.07781E+00
 -1      3763 1.44523E+03 1.25693E+02-1.49370E+00
 -1      3764 1.55110E+03-2.03155E+01 4.98414E-01
 -1      3765 1.59827E+03 7.55328E+01-7.13586E-01
 -1      3766 1.50115E+03 7.28493E+01-7.32250E-01
 -1      3767 3.05575E+03-3.50615E+02 2.80198E+00
 -1      3768 2.89313E+03-3.44884E+02 2.90326E+00
 -1      3769 2.78372E+03-3.32566E+02 2.89273E+00
 -1      3770 2.86512E+03-2.29691E+02 2.08040E+00
 -1      3771 2.90967E+03-1.32105E+02 1.35086E+00
 -1      3772 3.04008E+03-1.38521E+02 1.37525E+00
 -1      3773 3.08423E+03-2.36041E+02 2.01461E+00
 -1      3774 3.16526E+03-3.47232E+02 2.70409E+00
 -1      3775 3.89912E+03-3.78367E+02 2.40383E+00
 -1      3776 3.72317E+03-3.73958E+02 2.49521E+00
 -1      3777 3.60407E+03-3.61590E+02 2.49550E+00
 -1      3778 3.69313E+03-2.48854E+02 1.82500E+00
 -1      3779 3.74168E+03-1.42499E+02 1.23385E+00
 -1      3780 3.88280E+03-1.48720E+02 1.24755E+00
 -1      3781 3.93025E+03-2.54161E+02 1.76734E+00
 -1      3782 4.01698E+03-3.73450E+02 2.32700E+00
 -1      3783 4.80064E+03-4.00759E+02 2.05971E+00
 -1      3784 4.61397E+03-3.97535E+02 2.13905E+00
 -1      3785 4.48700E+03-3.85173E+02 2.14217E+00
 -1      3786 4.58233E+03-2.64404E+02 1.60623E+00
 -1      3787 4.63414E+03-1.50952E+02 1.13447E+00
 -1      3788 4.78401E+03-1.53969E+02 1.13387E+00
 -1      3789 4.83395E+03-2.68167E+02 1.55367E+00
 -1      3790 4.92515E+03-3.93870E+02 1.99226E+00
 -1      3791 5.74805E+03-4.19425E+02 1.76386E+00
 -1      3792 5.55314E+03-4.16172E+02 1.82988E+00
 -1      3793 5.41841E+03-4.03385E+02 1.83236E+00
 -1      3794 5.51875E+03-2.76219E+02 1.41816E+00
 -1      3795 5.56701E+03-1.55297E+02 1.04817E+00
 -1      3796 5.71634E+03-1.58619E+02 1.04808E+00
 -1      3797 5.77934E+03-2.79208E+02 1.37250E+00
 -1      3798 5.87375E+03-4.10906E+02 1.70322E+00
 -1      3799 6.73087E+03-4.32815E+02 1.50362E+00
 -1      3800 6.52954E+03-4.31566E+02 1.56237E+00
 -1      3801 6.38899E+03-4.18830E+02 1.56513E+00
 -1      3802 6.49337E+03-2.85633E+02 1.25345E+00
 -1      3803 6.54412E+03-1.60646E+02 9.80173E-01
 -1      3804 6.69914E+03-1.60550E+02 9.75757E-01
 -1      3805 6.76354E+03-2.83847E+02 1.20786E+00
 -1      3806 6.86036E+03-4.19256E+02 1.44982E+00
 -1      3807 7.73971E+03-4.42493E+02 1.28375E+00
 -1      3808 7.53382E+03-4.41921E+02 1.33198E+00
 -1      3809 7.39094E+03-4.25691E+02 1.33275E+00
 -1      3810 7.49825E+03-2.88937E+02 1.11204E+00
 -1      3811 7.55534E+03-1.64008E+02 9.22421E-01
 -1      3812 7.70958E+03-1.63619E+02 9.19283E-01
 -1      3813 7.77399E+03-2.89866E+02 1.08139E+00
 -1      3814 7.87247E+03-4.27866E+02 1.24429E+00
 -1      3815 8.76659E+03-4.49086E+02 1.11330E+00
 -1      3816 8.55766E+03-4.49193E+02 1.14621E+00
 -1      3817 8.41289E+03-4.32861E+02 1.15257E+00
 -1      3818 8.52227E+03-2.93512E+02 1.00690E+00
 -1      3819 8.58117E+03-1.66232E+02 8.85073E-01
 -1      3820 8.73721E+03-1.65576E+02 8.82785E-01
 -1      3821 8.80168E+03-2.93921E+02 9.83879E-01
 -1      3822 8.90117E+03-4.33612E+02 1.08228E+00
 -1      3823 9.80136E+03-4.45036E+02 9.78936E-01
 -1      3824 9.59066E+03-4.48763E+02 1.00666E+00
 -1      3825 9.44689E+03-4.35697E+02 1.01278E+00
 -1      3826 9.55500E+03-2.90844E+02 9.27414E-01
 -1      3827 9.61619E+03-1.62626E+02 8.58700E-01
 -1      3828 9.77290E+03-1.61163E+02 8.58187E-01
 -1      3829 9.83621E+03-2.85339E+02 9.09537E-01
 -1      3830 9.93876E+03-4.26734E+02 9.60821E-01
 -1      3831 1.06166E+04 4.12241E+02 7.29180E-01
 -1      3832 1.08285E+04 4.15467E+02 7.60795E-01
 -1      3833 1.04709E+04 3.97501E+02 7.14456E-01
 -1      3834 1.05840E+04 2.52160E+02 7.61087E-01
 -1      3835 1.08097E+04 1.24785E+02 8.04040E-01
 -1      3836 1.06438E+04 1.30154E+02 7.94150E-01
 -1      3837 1.08697E+04 2.53528E+02 7.88652E-01
 -1      3838 1.09685E+04 4.02241E+02 7.78323E-01
 -1      3839 1.18507E+04 4.57063E+02 8.71398E-01
 -1      3840 1.19773E+04 3.90778E+02 8.80773E-01
 -1      3841 1.21324E+04 3.43245E+02 8.90029E-01
 -1      3842 1.19787E+04 2.48072E+02 8.76235E-01
 -1      3843 1.15247E+04 4.09393E+02 8.40238E-01
 -1      3844 1.16623E+04 2.72233E+02 8.55065E-01
 -1      3845 1.16860E+04 4.32803E+02 8.54308E-01
 -1      3846 1.18924E+04 1.35895E+02 8.68701E-01
 -1      3847 1.17272E+04 1.43513E+02 8.61257E-01
 -1      3848 1.50036E+03-1.07400E+02 1.64305E+00
 -1      3849 1.59745E+03-1.09568E+02 1.62834E+00
 -1      3850 1.46074E+03-1.78918E+02 2.63982E+00
 -1      3851 1.60664E+03-2.81235E+02 3.75283E+00
 -1      3852 1.47845E+03-2.69529E+02 3.84181E+00
 -1      3853 1.39402E+03-2.50039E+02 3.71498E+00
 -1      3854 1.69726E+03-2.66307E+02 3.44120E+00
 -1      3855 1.63619E+03-1.80291E+02 2.47512E+00
 -1      3856 2.67862E+02-8.77163E+01 3.69012E+00
 -1      3857 2.97361E+02-6.20023E+01 2.31789E+00
 -1      3858 3.36520E+02-4.97643E+01 1.64039E+00
 -1      3859 3.44898E+02-9.46574E+01 3.41191E+00
 -1      3860 3.33245E+02-1.42629E+02 5.43626E+00
 -1      3861 2.77738E+02-1.29679E+02 5.60092E+00
 -1      3862 2.42069E+02-1.11429E+02 5.20171E+00
 -1      3863 3.74090E+02-1.34762E+02 4.73581E+00
 -1      3864 3.43684E+02 1.15127E+02-4.96566E+00
 -1      3865 3.80421E+02 9.52009E+01-3.81900E+00
 -1      3866 3.41145E+02 4.35100E+01-2.09473E+00
 -1      3867 3.03172E+02 2.45033E+01-1.46992E+00
 -1      3868 2.79819E+02 5.33545E+01-2.90567E+00
 -1      3869 3.26718E+02-5.69728E+00-1.23681E-01
 -1      3870 2.61519E+02 8.11102E+01-4.50000E+00
 -1      3871 2.98355E+02 1.02219E+02-5.03863E+00
 -1      3872 1.14129E+03-2.78627E+02 4.73851E+00
 -1      3873 1.11633E+03-2.00095E+02 3.48719E+00
 -1      3874 1.04845E+03-2.58427E+02 4.65023E+00
 -1      3875 1.07416E+03-1.28566E+02 2.35234E+00
 -1      3876 1.05619E+03-3.87858E+01 7.97953E-01
 -1      3877 1.00606E+03-9.45223E+01 1.81429E+00
 -1      3878 9.61474E+02-1.54344E+02 2.98322E+00
 -1      3879 9.68951E+02-2.47403E+02 4.71397E+00
 -1      3880 9.07432E+02-2.17283E+02 4.31725E+00
 -1      3881 7.12187E+02-1.73192E+02 4.03898E+00
 -1      3882 6.56833E+02-2.04004E+02 5.01261E+00
 -1      3883 6.59675E+02-1.01986E+02 2.49451E+00
 -1      3884 5.69218E+02-1.22281E+02 3.26535E+00
 -1      3885 6.05158E+02-7.71252E+01 1.95484E+00
 -1      3886 6.40839E+02-3.32997E+01 7.87002E-01
 -1      3887 5.90444E+02-1.89337E+02 4.99678E+00
 -1      3888 5.36785E+02-1.65010E+02 4.60796E+00
 -1      3889 6.53889E+02 3.23083E+01-8.39249E-01
 -1      3890 6.66688E+02 9.49027E+01-2.36542E+00
 -1      3891 5.98978E+02 4.71638E+01-1.32898E+00
 -1      3892 5.63877E+02 8.47458E+01-2.45205E+00
 -1      3893 5.83287E+02 1.53143E+02-4.23507E+00
 -1      3894 6.46424E+02 1.61576E+02-4.09527E+00
 -1      3895 5.36525E+02 1.28872E+02-3.82003E+00
 -1      3896 7.02658E+02 1.50763E+02-3.57931E+00
 -1      3897 1.07598E+03 3.86025E+01-5.27573E-01
 -1      3898 1.09672E+03 1.18575E+02-1.87655E+00
 -1      3899 1.00851E+03 6.88483E+01-1.13401E+00
 -1      3900 9.58220E+02 1.30477E+02-2.35646E+00
 -1      3901 1.00267E+03 2.09740E+02-3.70145E+00
 -1      3902 1.08090E+03 2.09778E+02-3.45914E+00
 -1      3903 1.14970E+03 1.82296E+02-2.83538E+00
 -1      3904 9.32653E+02 1.91247E+02-3.57147E+00
 -1      3905 1.89171E+02 5.75551E+01-4.09951E+00
 -1      3906 1.84083E+02 8.70484E+01-6.21861E+00
 -1      3907 2.15303E+02 1.05583E+02-6.81302E+00
 -1      3908 2.44480E+02 1.03701E+02-5.98916E+00
 -1      3909 2.27777E+02 6.00698E+01-3.79438E+00
 -1      3910 2.12848E+02-8.95707E+01 4.40614E+00
 -1      3911 2.21744E+02-1.26186E+02 6.37792E+00
 -1      3912 1.90699E+02-1.24177E+02 6.98763E+00
 -1      3913 1.69099E+02-1.07578E+02 6.33812E+00
 -1      3914 1.80007E+02-7.77663E+01 4.14499E+00
 -1      3915 1.23005E+04 4.11950E+02 9.04515E-01
 -1      3916 1.24220E+04 4.80494E+02 9.17728E-01
 -1      3917 1.27049E+04 1.55010E+02 9.05287E-01
 -1      3918 1.26106E+04 3.11725E+02 9.13911E-01
 -1      3919 1.25844E+04 4.58284E+02 9.26343E-01
 -1      3920 5.23555E+03 4.47348E+02-8.96893E-01
 -1      3921 5.18991E+03 2.93798E+02-4.15145E-01
 -1      3922 5.09208E+03 4.99191E+02-1.15800E+00
 -1      3923 4.29396E+03 4.16307E+02-1.34045E+00
 -1      3924 4.25454E+03 2.70186E+02-7.19865E-01
 -1      3925 4.15377E+03 4.63653E+02-1.66306E+00
 -1      3926 6.20948E+03 4.66715E+02-4.83775E-01
 -1      3927 6.15265E+03 3.12851E+02-1.42220E-01
 -1      3928 6.06112E+03 5.21705E+02-6.87316E-01
 -1      3929 5.98059E+03 3.11100E+02-1.86759E-01
 -1      3930 5.92019E+03 4.59901E+02-5.98616E-01
 -1      3931 7.22258E+03 4.58996E+02-7.72599E-02
 -1      3932 7.07095E+03 5.09733E+02-2.17240E-01
 -1      3933 6.92447E+03 4.53772E+02-1.74888E-01
 -1      3934 3.41925E+03 3.86325E+02-1.86321E+00
 -1      3935 3.38404E+03 2.49828E+02-1.08007E+00
 -1      3936 3.28724E+03 4.28492E+02-2.24529E+00
 -1      3937 4.05978E+02-1.77097E+02 5.98534E+00
 -1      3938 4.18797E+02-1.23501E+02 3.99459E+00
 -1      3939 4.55698E+02-2.08033E+02 6.53645E+00
 -1      3940 4.83571E+02-1.35622E+02 4.03036E+00
 -1      3941 5.03856E+02-1.98080E+02 5.79877E+00
 -1      3942 8.24946E+03 4.68983E+02 2.22890E-01
 -1      3943 8.09527E+03 5.21339E+02 1.20809E-01
 -1      3944 7.94528E+03 4.64541E+02 1.39827E-01
 -1      3945 2.63111E+03 3.55713E+02-2.44893E+00
 -1      3946 2.60108E+03 2.30989E+02-1.49439E+00
 -1      3947 2.50688E+03 3.91143E+02-2.90201E+00
 -1      3948 9.29396E+03 4.74245E+02 4.74713E-01
 -1      3949 9.13562E+03 5.29173E+02 4.03276E-01
 -1      3950 8.98267E+03 4.72349E+02 4.04894E-01
 -1      3951 1.24705E+04-5.14100E+02 8.54196E-01
 -1      3952 1.23094E+04-5.68512E+02 8.50905E-01
 -1      3953 1.21527E+04-5.12703E+02 8.56105E-01
 -1      3954 1.14117E+04-5.37173E+02 8.76857E-01
 -1      3955 1.12570E+04-6.00909E+02 8.89688E-01
 -1      3956 1.11009E+04-5.37323E+02 8.96074E-01
 -1      3957 1.03491E+04 4.70214E+02 6.79045E-01
 -1      3958 1.01903E+04 5.20257E+02 6.35629E-01
 -1      3959 1.00356E+04 4.67378E+02 6.22265E-01
 -1      3960 1.03668E+04-4.99777E+02 9.44750E-01
 -1      3961 1.02126E+04-5.51202E+02 9.75538E-01
 -1      3962 1.00585E+04-4.99683E+02 9.76222E-01
 -1      3963 9.32737E+03-5.22480E+02 1.07891E+00
 -1      3964 9.17172E+03-5.80147E+02 1.13978E+00
 -1      3965 9.01910E+03-5.20388E+02 1.12776E+00
 -1      3966 1.13979E+04 4.85715E+02 8.23561E-01
 -1      3967 1.12430E+04 5.37460E+02 7.99793E-01
 -1      3968 1.10873E+04 4.82923E+02 7.82977E-01
 -1      3969 8.29431E+03-5.17264E+02 1.26050E+00
 -1      3970 8.14018E+03-5.73281E+02 1.35619E+00
 -1      3971 7.98923E+03-5.13736E+02 1.32409E+00
 -1      3972 7.27507E+03-5.08202E+02 1.49078E+00
 -1      3973 7.12389E+03-5.62698E+02 1.62408E+00
 -1      3974 6.97562E+03-5.03707E+02 1.57386E+00
 -1      3975 6.27747E+03-4.96313E+02 1.77855E+00
 -1      3976 6.13046E+03-5.48670E+02 1.95785E+00
 -1      3977 5.98608E+03-4.90477E+02 1.87269E+00
 -1      3978 5.31104E+03-4.70178E+02 2.08206E+00
 -1      3979 5.16970E+03-5.16143E+02 2.30284E+00
 -1      3980 5.03048E+03-4.63091E+02 2.19099E+00
 -1      3981 4.38346E+03-4.47649E+02 2.46023E+00
 -1      3982 4.24930E+03-4.90403E+02 2.73382E+00
 -1      3983 4.11698E+03-4.39046E+02 2.58458E+00
 -1      3984 3.50728E+03-4.19297E+02 2.89202E+00
 -1      3985 3.38211E+03-4.58104E+02 3.22434E+00
 -1      3986 3.25851E+03-4.08993E+02 3.03004E+00
 -1      3987 2.69520E+03-3.84467E+02 3.37302E+00
 -1      3988 2.58105E+03-4.18525E+02 3.77132E+00
 -1      3989 2.46819E+03-3.72521E+02 3.52655E+00
 -1      3990 1.91310E+03-2.50148E+02 2.98966E+00
 -1      3991 1.96089E+03-3.56381E+02 4.04485E+00
 -1      3992 1.86008E+03-3.89160E+02 4.57348E+00
 -1      3993 1.76202E+03-3.40441E+02 4.20586E+00
 -1      3994 1.79242E+03-2.35678E+02 2.95369E+00
 -1      3995 8.53294E+02 1.69883E+02-3.43150E+00
 -1      3996 7.70250E+02 1.49835E+02-3.28499E+00
 -1      3997 1.89671E+03 3.09950E+02-3.05748E+00
 -1      3998 1.87305E+03 2.03832E+02-1.94808E+00
 -1      3999 1.78484E+03 3.37209E+02-3.57438E+00
 -1      4000 1.31020E+03-2.77037E+02 4.27349E+00
 -1      4001 1.22309E+03-2.98488E+02 4.81514E+00
 -1      4002 1.23174E+03 1.54387E+02-2.21725E+00
 -1      4003 1.02020E+01-3.96393E+01 2.62702E-01
 -1      4004 2.65329E+01 3.02763E+01-3.99345E-02
 -1      4005 2.01177E+01 2.92804E+01-3.97602E-02
 -1      4006 3.80491E+00-3.58555E+01 1.84503E-01
 -1      4007 1.65778E+01-4.16995E+01 3.42221E-01
 -1      4008 3.24999E+01 3.04021E+01-3.25913E-02
 -1      4009 1.37269E+01 2.69918E+01-4.20770E-02
 -1      4010-1.67814E+00-3.03579E+01 1.07284E-01
 -1      4011 3.77716E+01 3.04481E+01-1.15541E-02
 -1      4012 2.22163E+01-4.24600E+01 4.00693E-01
 -1      4013 7.96991E+00 2.32973E+01-2.94045E-02
 -1      4014-5.35679E+00-2.37726E+01 4.30507E-02
 -1      4015 2.68404E+01-4.25824E+01 4.50033E-01
 -1      4016-6.94387E+00-1.69427E+01 7.27125E-04
 -1      4017 3.53759E+00 1.85615E+01-2.16193E-02
 -1      4018 3.04799E+01-4.27001E+01 4.83517E-01
 -1      4019-6.48620E+00-1.07837E+01-1.73790E-02
 -1      4020 6.71851E-01 1.31978E+01-1.26474E-02
 -1      4021 3.34689E+01-4.33350E+01 4.93981E-01
 -1      4022-3.84439E+00-4.56189E+00-2.89019E-01
 -1      4023-6.25950E-01 6.37999E+00 2.92140E-01
 -1      4024 3.63203E+01-4.50560E+01 4.94199E-01
 -1      4025 2.33696E+01 2.99280E+01-4.00507E-02
 -1      4026 6.94569E+00-3.79680E+01 2.23984E-01
 -1      4027 1.34512E+01-4.08618E+01 2.98931E-01
 -1      4028 2.95873E+01 3.04039E+01-3.89282E-02
 -1      4029 1.68843E+01 2.83089E+01-3.43461E-02
 -1      4030 8.94559E-01-3.33055E+01 1.45604E-01
 -1      4031 3.52149E+01 3.03799E+01-3.11701E-02
 -1      4032 1.95207E+01-4.22016E+01 3.69781E-01
 -1      4033-3.77247E+00-2.71125E+01 7.23497E-02
 -1      4034 1.07263E+01 2.53089E+01-3.49995E-02
 -1      4035 2.46683E+01-4.25640E+01 4.27752E-01
 -1      4036 4.21354E+01 3.13568E+01 3.84231E-03
 -1      4037 5.57694E+00 2.10336E+01-2.67781E-02
 -1      4038-6.42158E+00-2.03401E+01 1.95535E-02
 -1      4039 2.87617E+01-4.26120E+01 4.71830E-01
 -1      4040-6.93273E+00-1.37476E+01-1.10379E-02
 -1      4041 1.87692E+00 1.59190E+01-1.61592E-02
 -1      4042-5.44018E+00-7.54777E+00 9.36544E-02
 -1      4043 3.20543E+01-4.29343E+01 4.87162E-01
 -1      4044-2.46526E-01 9.86143E+00-1.23382E-01
 -1      4045 3.48723E+01-4.39955E+01 4.99737E-01
 -1      4046-2.32155E+00-2.49030E+00 3.13534E-01
 -1      4047-5.60426E-01 3.63933E+00-3.49216E-01
 -1      4048 3.90713E+01-4.77952E+01 4.83560E-01
 -1      4049-1.59039E+00-1.64289E+00-1.50390E-01
 -1      4050-4.24225E-01 2.43819E+00 1.53793E-01
 -1      4051 4.45988E+01 3.24923E+01-2.03573E+00
 -1      4052 4.46674E+01 3.24211E+01 2.13708E+00
 -1      4053 4.03524E+01-4.96031E+01 2.14759E+00
 -1      4054 4.04171E+01-4.95492E+01-1.19213E+00
 -1      4055-4.23890E+00-5.07724E+00 6.00728E-01
 -1      4056-6.65734E-01 7.06168E+00-6.35403E-01
 -1      4057 4.22687E+01-5.15625E+01-5.44466E-01
 -1      4058 4.17893E+01-5.10634E+01-1.98984E+00
 -1      4059 4.51359E+01-5.46802E+01-3.71939E+00
 -1      4060 4.83423E+01-5.67437E+01-3.33671E+00
 -1      4061 4.23874E+01-5.16871E+01-3.46841E+00
 -1      4062 4.00603E+01-4.89884E+01-2.37695E+00
 -1      4063 3.91122E+01-4.77941E+01-1.66105E+00
 -1      4064 4.22361E+01-5.15913E+01 1.49463E+00
 -1      4065 4.17039E+01-5.11308E+01 2.93734E+00
 -1      4066 4.81739E+01-5.69019E+01 4.19565E+00
 -1      4067 4.49746E+01-5.47989E+01 4.62558E+00
 -1      4068 4.22447E+01-5.17921E+01 4.40458E+00
 -1      4069 3.99298E+01-4.90933E+01 3.33310E+00
 -1      4070 3.89997E+01-4.78880E+01 2.62622E+00
 -1      4071 5.29343E+01 3.68180E+01 3.92686E+00
 -1      4072 4.94621E+01 3.52900E+01 4.15210E+00
 -1      4073 4.64594E+01 3.35625E+01 3.62607E+00
 -1      4074 4.50206E+01 3.25994E+01 3.01618E+00
 -1      4075 4.62298E+01 3.37109E+01 2.60918E+00
 -1      4076 4.66814E+01 3.41361E+01 1.31656E+00
 -1      4077 4.94137E+01 3.52943E+01-4.01682E+00
 -1      4078 5.29009E+01 3.68488E+01-3.78523E+00
 -1      4079 4.64781E+01 3.35552E+01-3.61860E+00
 -1      4080 4.50231E+01 3.26333E+01-2.98458E+00
 -1      4081 4.63461E+01 3.36455E+01-2.61549E+00
 -1      4082 4.67169E+01 3.40031E+01-1.21902E+00
 -1      4083-2.20218E-01 1.27483E+00 6.91173E-02
 -1      4084-2.24799E-01 1.24844E+00 1.82041E-01
 -1      4085-6.64265E-01 3.77270E+00 6.23779E-01
 -1      4086-3.10879E-01 1.87293E+00-1.39211E-01
 -1      4087-3.50734E-01 1.84481E+00-3.52512E-01
 -1      4088-7.41301E-01 4.38279E+00-8.01115E-01
 -1      4089-2.86540E+00-2.96883E+00 7.31103E-01
 -1      4090-1.22585E+00-1.22921E+00 3.28471E-01
 -1      4091-1.20702E+00-1.27254E+00 1.26988E-01
 -1      4092-8.29626E-01-8.62850E-01-6.70556E-02
 -1      4093-8.18213E-01-8.39539E-01-1.71476E-01
 -1      4094-2.47118E+00-2.54033E+00-5.98748E-01
 -1      4095 3.96914E+01-4.86678E+01 1.25288E+00
 -1      4096 4.12974E+01-5.04636E+01 4.78083E-01
 -1      4097 3.97235E+01-4.86397E+01-2.91327E-01
 -1      4098 5.13728E+01-5.71032E+01-2.47555E+00
 -1      4099 5.44652E+01-5.56131E+01-1.96423E+00
 -1      4100 5.71892E+01-5.11539E+01-8.48871E-01
 -1      4101 5.99140E+01-4.41546E+01-5.63492E-01
 -1      4102 6.18783E+01-3.47815E+01-9.11584E-02
 -1      4103 6.35394E+01-2.39930E+01-2.95377E-02
 -1      4104 6.44590E+01-1.20928E+01 2.91133E-01
 -1      4105 6.47205E+01 2.69498E-02 5.79646E-01
 -1      4106 6.42551E+01 1.10882E+01 4.79558E-01
 -1      4107 6.30345E+01 2.11297E+01 9.63296E-01
 -1      4108 6.14272E+01 2.85711E+01 1.35797E+00
 -1      4109 5.90719E+01 3.42028E+01 2.50809E+00
 -1      4110 5.61162E+01 3.62517E+01 3.02426E+00
 -1      4111 5.12664E+01-5.72121E+01 3.48981E+00
 -1      4112 5.71025E+01-5.13071E+01 1.88374E+00
 -1      4113 5.43649E+01-5.58729E+01 2.97248E+00
 -1      4114 6.17685E+01-3.48106E+01 1.01543E+00
 -1      4115 5.98055E+01-4.42755E+01 1.59974E+00
 -1      4116 6.43587E+01-1.22020E+01 2.38941E-01
 -1      4117 6.34204E+01-2.40689E+01 7.60109E-01
 -1      4118 6.41209E+01 1.10751E+01-2.89963E-01
 -1      4119 6.46040E+01 2.11435E-02-1.81510E-01
 -1      4120 6.12841E+01 2.85168E+01-1.41438E+00
 -1      4121 6.29111E+01 2.10229E+01-9.97370E-01
 -1      4122 5.60412E+01 3.62996E+01-2.83226E+00
 -1      4123 5.89296E+01 3.41855E+01-2.43232E+00
 -1      4124-2.31586E-01 1.28812E+00-8.75989E-03
 -1      4125-4.84266E-01 3.05283E+00-3.39218E-02
 -1      4126-6.45469E-01 8.72096E+00-1.11838E+00
 -1      4127-8.54038E-01 6.08439E+00-1.03914E+00
 -1      4128-6.69805E-01 5.32475E+00-5.11889E-01
 -1      4129 1.14768E+00 1.45466E+01-7.79737E-01
 -1      4130 1.26860E-01 1.18121E+01-7.93361E-01
 -1      4131-3.09952E-01 1.01442E+01-8.46220E-01
 -1      4132 1.36705E-01 1.15235E+01-6.87201E-02
 -1      4133-4.97138E-01 8.45067E+00-3.96569E-01
 -1      4134 2.58772E+00 1.72345E+01-7.58623E-01
 -1      4135 4.45064E+00 1.98068E+01-7.27796E-01
 -1      4136 1.81705E+00 1.59005E+01-7.68460E-01
 -1      4137 2.65427E+00 1.72520E+01-1.87854E-02
 -1      4138 1.21962E+00 1.45623E+01-1.43847E-02
 -1      4139 9.28004E+00 2.43471E+01-6.66392E-01
 -1      4140 6.68522E+00 2.21911E+01-7.00283E-01
 -1      4141 5.52716E+00 2.10254E+01-7.14514E-01
 -1      4142 6.72930E+00 2.21933E+01-2.84823E-02
 -1      4143 4.50622E+00 1.98196E+01-2.41594E-02
 -1      4144 1.21757E+01 2.61977E+01-6.43258E-01
 -1      4145 1.52648E+01 2.76998E+01-6.06569E-01
 -1      4146 1.06982E+01 2.53138E+01-6.54993E-01
 -1      4147 1.21976E+01 2.61909E+01-3.82906E-02
 -1      4148 9.31369E+00 2.43413E+01-3.22664E-02
 -1      4149 2.17559E+01 2.96649E+01-5.66654E-01
 -1      4150 1.84871E+01 2.88524E+01-5.83090E-01
 -1      4151 1.68666E+01 2.83187E+01-5.93749E-01
 -1      4152 1.84910E+01 2.88349E+01-3.79034E-02
 -1      4153 1.52892E+01 2.76932E+01-3.78748E-02
 -1      4154 2.49906E+01 3.01645E+01-5.52406E-01
 -1      4155 2.81206E+01 3.04105E+01-5.49332E-01
 -1      4156 2.33830E+01 2.99529E+01-5.58970E-01
 -1      4157 2.49649E+01 3.01325E+01-4.01436E-02
 -1      4158 2.17469E+01 2.96421E+01-4.01485E-02
 -1      4159 3.39599E+01 3.04361E+01-6.11566E-01
 -1      4160 3.11321E+01 3.04751E+01-5.72726E-01
 -1      4161 2.96496E+01 3.04634E+01-5.59703E-01
 -1      4162 2.80717E+01 3.03627E+01-3.95212E-02
 -1      4163 3.10649E+01 3.04093E+01-3.66491E-02
 -1      4164 3.66122E+01 3.04388E+01-7.09216E-01
 -1      4165 3.91136E+01 3.05806E+01-9.47377E-01
 -1      4166 3.53007E+01 3.04297E+01-6.60646E-01
 -1      4167 3.38717E+01 3.03864E+01-3.35899E-02
 -1      4168 3.65079E+01 3.03953E+01-2.36228E-02
 -1      4169 4.24189E+01 3.14363E+01-2.04826E+00
 -1      4170 4.12060E+01 3.10051E+01-1.22003E+00
 -1      4171 3.99302E+01 3.07258E+01-3.43950E-03
 -1      4172 4.33456E+01 3.18619E+01-8.98672E-01
 -1      4173 3.71018E+01-4.57940E+01 1.57151E+00
 -1      4174 3.56508E+01-4.45742E+01 1.23798E+00
 -1      4175 3.83823E+01-4.71440E+01 1.89184E+00
 -1      4176 3.76158E+01-4.62324E+01 4.89515E-01
 -1      4177 3.42394E+01-4.37237E+01 1.05506E+00
 -1      4178 3.28321E+01-4.31882E+01 9.26440E-01
 -1      4179 3.49519E+01-4.40880E+01 1.14050E+00
 -1      4180 3.41663E+01-4.36318E+01 4.97051E-01
 -1      4181 3.55796E+01-4.44775E+01 4.97259E-01
 -1      4182 2.96772E+01-4.26972E+01 7.67707E-01
 -1      4183 3.13132E+01-4.28667E+01 8.42154E-01
 -1      4184 3.20937E+01-4.30063E+01 8.82149E-01
 -1      4185 3.12806E+01-4.27967E+01 4.85884E-01
 -1      4186 3.27728E+01-4.31055E+01 4.91606E-01
 -1      4187 2.58094E+01-4.26232E+01 6.53122E-01
 -1      4188 2.78542E+01-4.26388E+01 7.06248E-01
 -1      4189 2.87922E+01-4.26567E+01 7.35985E-01
 -1      4190 2.78284E+01-4.25917E+01 4.60931E-01
 -1      4191 2.96443E+01-4.26414E+01 4.78049E-01
 -1      4192 2.09238E+01-4.23968E+01 5.66550E-01
 -1      4193 2.34953E+01-4.25690E+01 6.05217E-01
 -1      4194 2.46879E+01-4.26076E+01 6.28542E-01
 -1      4195 2.34729E+01-4.25258E+01 4.14823E-01
 -1      4196 2.57859E+01-4.25763E+01 4.39271E-01
 -1      4197 1.50446E+01-4.13707E+01 5.26307E-01
 -1      4198 1.80936E+01-4.20267E+01 5.40420E-01
 -1      4199 1.95428E+01-4.22433E+01 5.51798E-01
 -1      4200 1.80768E+01-4.19852E+01 3.55781E-01
 -1      4201 2.09011E+01-4.23555E+01 3.85597E-01
 -1      4202 1.18364E+01-4.03474E+01 5.18885E-01
 -1      4203 8.55768E+00-3.89045E+01 5.22539E-01
 -1      4204 1.34571E+01-4.09077E+01 5.20801E-01
 -1      4205 1.18345E+01-4.03024E+01 2.81215E-01
 -1      4206 1.50351E+01-4.13252E+01 3.20812E-01
 -1      4207 2.27525E+00-3.46537E+01 5.58399E-01
 -1      4208 5.33358E+00-3.70041E+01 5.36818E-01
 -1      4209 6.93280E+00-3.80122E+01 5.28187E-01
 -1      4210 8.56804E+00-3.88598E+01 2.43399E-01
 -1      4211 5.35231E+00-3.69661E+01 2.04188E-01
 -1      4212-4.88732E-01-3.18888E+01 5.82660E-01
 -1      4213-2.84107E+00-2.87743E+01 6.07329E-01
 -1      4214 8.49362E-01-3.33201E+01 5.71923E-01
 -1      4215 2.31280E+00-3.46311E+01 1.64840E-01
 -1      4216-4.43009E-01-3.18732E+01 1.26080E-01
 -1      4217-4.68332E+00-2.54538E+01 6.31535E-01
 -1      4218-6.01384E+00-2.20234E+01 6.63067E-01
 -1      4219-3.82567E+00-2.71278E+01 6.17932E-01
 -1      4220-2.78782E+00-2.87656E+01 8.93883E-02
 -1      4221-4.63103E+00-2.54562E+01 5.70556E-02
 -1      4222-7.04046E+00-1.52675E+01 7.08041E-01
 -1      4223-6.79397E+00-1.85883E+01 6.85486E-01
 -1      4224-6.47747E+00-2.02965E+01 6.74925E-01
 -1      4225-5.95883E+00-2.20543E+01 3.04237E-02
 -1      4226-6.74936E+00-1.86260E+01 9.29555E-03
 -1      4227-6.81527E+00-1.21639E+01 7.31219E-01
 -1      4228-6.18130E+00-9.32693E+00 7.44395E-01
 -1      4229-6.98369E+00-1.36812E+01 7.20955E-01
 -1      4230-6.99783E+00-1.53189E+01-5.97408E-03
 -1      4231-6.76248E+00-1.22303E+01-1.50090E-02
 -1      4232-5.12974E+00-6.38405E+00 1.06388E+00
 -1      4233-3.84338E+00-4.21767E+00 9.59255E-01
 -1      4234-5.63613E+00-7.72474E+00 7.99774E-01
 -1      4235-6.02766E+00-9.10631E+00 3.77043E-02
 -1      4236-4.86960E+00-6.27184E+00 3.65137E-01
 -1      4237-3.31060E+00-3.73178E+00 4.76455E-01
 -1      4238-8.44419E-01-8.65798E-01 5.46883E-03
 -1      4239-1.95870E+00-2.08340E+00 2.21269E-02
 -1      4240-6.29423E-01 8.37937E+00 9.38215E-01
 -1      4241-7.52397E-01 5.75289E+00 8.06172E-01
 -1      4242-6.00231E-01 4.38387E+00 2.53333E-01
 -1      4243 1.30099E-01 1.18029E+01 7.76949E-01
 -1      4244 1.15013E+00 1.45434E+01 7.51475E-01
 -1      4245-2.74062E-01 1.01449E+01 7.14691E-01
 -1      4246-5.06209E-01 8.10602E+00 1.05036E-01
 -1      4247 4.46136E+00 1.98094E+01 6.79702E-01
 -1      4248 2.59310E+00 1.72343E+01 7.21485E-01
 -1      4249 1.82062E+00 1.58986E+01 7.36295E-01
 -1      4250 6.70326E+00 2.21948E+01 6.42907E-01
 -1      4251 9.29413E+00 2.43492E+01 5.99539E-01
 -1      4252 5.54142E+00 2.10290E+01 6.61107E-01
 -1      4253 1.52909E+01 2.76934E+01 5.30099E-01
 -1      4254 1.21934E+01 2.61994E+01 5.68759E-01
 -1      4255 1.07140E+01 2.53162E+01 5.84854E-01
 -1      4256 1.85066E+01 2.88500E+01 5.02576E-01
 -1      4257 2.17795E+01 2.96674E+01 4.85657E-01
 -1      4258 1.68808E+01 2.83103E+01 5.16705E-01
 -1      4259 2.81531E+01 3.04118E+01 4.73669E-01
 -1      4260 2.50192E+01 3.01671E+01 4.72448E-01
 -1      4261 2.34093E+01 2.99555E+01 4.78285E-01
 -1      4262 3.11676E+01 3.04783E+01 5.04957E-01
 -1      4263 3.39827E+01 3.04419E+01 5.62885E-01
 -1      4264 2.96831E+01 3.04650E+01 4.86971E-01
 -1      4265 3.91394E+01 3.05993E+01 9.31465E-01
 -1      4266 3.66305E+01 3.04369E+01 6.78770E-01
 -1      4267 3.53455E+01 3.04111E+01 6.06645E-01
 -1      4268 4.24933E+01 3.14345E+01 2.08010E+00
 -1      4269 4.12411E+01 3.10194E+01 1.22749E+00
 -1      4270 4.33660E+01 3.18382E+01 9.50259E-01
 -1      4271 3.57302E+01-4.45010E+01-2.46353E-01
 -1      4272 3.71803E+01-4.57235E+01-5.89918E-01
 -1      4273 3.84612E+01-4.70752E+01-9.21068E-01
 -1      4274 3.29085E+01-4.31089E+01 6.38209E-02
 -1      4275 3.43165E+01-4.36496E+01-6.07613E-02
 -1      4276 3.50304E+01-4.40143E+01-1.45674E-01
 -1      4277 3.14020E+01-4.27837E+01 1.35259E-01
 -1      4278 2.97700E+01-4.26248E+01 1.84842E-01
 -1      4279 3.21746E+01-4.29190E+01 1.03355E-01
 -1      4280 2.79410E+01-4.25651E+01 2.14312E-01
 -1      4281 2.58968E+01-4.25463E+01 2.26636E-01
 -1      4282 2.88838E+01-4.25870E+01 2.02993E-01
 -1      4283 2.35829E+01-4.24928E+01 2.26393E-01
 -1      4284 2.10095E+01-4.23212E+01 2.06896E-01
 -1      4285 2.47768E+01-4.25308E+01 2.28037E-01
 -1      4286 1.81813E+01-4.19528E+01 1.71610E-01
 -1      4287 1.51309E+01-4.12985E+01 1.11239E-01
 -1      4288 1.96249E+01-4.21678E+01 1.90183E-01
 -1      4289 8.63263E+00-3.88407E+01-3.53292E-02
 -1      4290 1.19150E+01-4.02802E+01 4.49836E-02
 -1      4291 1.35398E+01-4.08382E+01 7.76606E-02
 -1      4292 5.40294E+00-3.69433E+01-1.28572E-01
 -1      4293 2.33882E+00-3.45980E+01-2.29160E-01
 -1      4294 7.00475E+00-3.79501E+01-8.05446E-02
 -1      4295-2.79673E+00-2.87235E+01-4.26283E-01
 -1      4296-4.34349E-01-3.18371E+01-3.29550E-01
 -1      4297 9.09162E-01-3.32668E+01-2.81127E-01
 -1      4298-5.98488E+00-2.19773E+01-6.00559E-01
 -1      4299-4.64749E+00-2.54056E+01-5.14509E-01
 -1      4300-3.78569E+00-2.70782E+01-4.70039E-01
 -1      4301-6.77082E+00-1.85461E+01-6.65691E-01
 -1      4302-7.02286E+00-1.52289E+01-7.18276E-01
 -1      4303-6.45176E+00-2.02520E+01-6.34837E-01
 -1      4304-6.16817E+00-9.29420E+00-7.78761E-01
 -1      4305-6.80301E+00-1.21278E+01-7.59730E-01
 -1      4306-6.96934E+00-1.36433E+01-7.41306E-01
 -1      4307-4.92486E+00-6.10997E+00-9.24056E-01
 -1      4308-3.59760E+00-4.00027E+00-7.82925E-01
 -1      4309-5.60344E+00-7.71918E+00-7.17459E-01
 -1      4310-4.68659E+00-5.99022E+00-1.24938E-01
 -1      4311-2.75084E+00-3.04182E+00-2.49899E-01
 -1      4312 4.51902E+01 3.30181E+01 2.91298E-02
 -1      4313-4.01918E+00-4.83726E+00 1.32839E-01
 -1      4314-3.09034E+00-3.51126E+00 8.24066E-02
 -1      4315-6.09539E-01 6.72597E+00-1.53666E-01
 -1      4316-6.10429E-01 5.00224E+00-1.04626E-01
 -1      4317 1.63883E+04-4.03506E+02 9.79349E-01
 -1      4318 1.64088E+04-3.19013E+02 9.84902E-01
 -1      4319 1.63378E+04 5.22627E+02 1.03797E+00
 -1      4320 1.59870E+04 1.04313E+03 1.05928E+00
 -1      4321 1.44348E+04 1.34367E+03 1.02374E+00
 -1      4322 1.54643E+04 1.36413E+03 1.06216E+00
 -1      4323 1.44390E+04 1.34537E+03 1.02505E+00
 -1      4324 1.52039E+04 1.42999E+03 1.05745E+00
 -1      4325 1.52439E+04-1.45511E+03 8.70224E-01
 -1      4326 1.62888E+04 6.32936E+02 1.04314E+00
 -1      4327 1.55636E+04-1.35690E+03 8.87883E-01
 -1      4328 1.55356E+04-1.36885E+03 8.85872E-01
 -1      4329 1.50810E+04-1.47596E+03 8.63581E-01
 -1      4330 1.57240E+04 1.24259E+03 1.06322E+00
 -1      4331 1.63694E+04 4.34444E+02 1.03270E+00
 -1      4332 1.64329E+04 1.32392E+02 1.01512E+00
 -1      4333 1.64227E+04 2.11906E+02 1.02073E+00
 -1      4334 1.62227E+04-7.84266E+02 9.48092E-01
 -1      4335 1.60892E+04-9.67388E+02 9.31949E-01
 -1      4336 1.62039E+04 7.81939E+02 1.05023E+00
 -1      4337 1.60556E+04-1.00526E+03 9.27843E-01
 -1      4338 1.59282E+04-1.12834E+03 9.15630E-01
 -1      4339 1.54383E+04-1.40502E+03 8.80519E-01
 -1      4340 1.46960E+04 1.42054E+03 1.03846E+00
 -1      4341 1.41703E+04 1.20548E+03 1.00593E+00
 -1      4342 1.47335E+04 1.42735E+03 1.03957E+00
 -1      4343 1.47323E+04 1.42716E+03 1.04090E+00
 -1      4344 1.64222E+04-2.46477E+02 9.90484E-01
 -1      4345 1.57194E+04-1.27734E+03 8.98458E-01
 -1      4346 1.57473E+04 1.22845E+03 1.06299E+00
 -1      4347 1.59253E+04-1.13082E+03 9.15258E-01
 -1      4348 1.45524E+04-1.41678E+03 8.48420E-01
 -1      4349 1.59030E+04 1.11735E+03 1.06127E+00
 -1      4350 1.64403E+04 6.74957E+00 1.00768E+00
 -1      4351 1.47295E+04-1.45863E+03 8.51276E-01
 -1      4352 1.60782E+04-9.80025E+02 9.30570E-01
 -1      4353 1.48164E+04-1.47085E+03 8.54614E-01
 -1      4354 1.45141E+04-1.40459E+03 8.48607E-01
 -1      4355 1.64402E+04-4.44208E+01 1.00403E+00
 -1      4356 1.61519E+04 8.56629E+02 1.05307E+00
 -1      4357 1.62192E+04 7.57865E+02 1.04868E+00
 -1      4358 1.58381E+04-1.19946E+03 9.07664E-01
 -1      4359 1.57646E+04-1.24962E+03 9.01877E-01
 -1      4360 1.63865E+04 3.77995E+02 1.03059E+00
 -1      4361 1.55791E+04 1.31802E+03 1.06297E+00
 -1      4362 1.64126E+04 2.68226E+02 1.02368E+00
 -1      4363 1.54868E+04-1.38799E+03 8.83017E-01
 -1      4364 1.61570E+04-8.81821E+02 9.39631E-01
 -1      4365 1.63344E+04-5.63130E+02 9.66607E-01
 -1      4366 1.61261E+04 8.90295E+02 1.05423E+00
 -1      4367 1.49457E+04-1.47935E+03 8.58037E-01
 -1      4368 1.62432E+04-7.50035E+02 9.51510E-01
 -1      4369 1.64392E+04-7.90560E+01 1.00233E+00
 -1      4370 1.43242E+04-1.32612E+03 8.46833E-01
 -1      4371 1.52228E+04-1.45888E+03 8.68881E-01
 -1      4372 1.52840E+04-1.44708E+03 8.72369E-01
 -1      4373 1.41920E+04-1.25147E+03 8.46424E-01
 -1      4374 1.44197E+04-1.36950E+03 8.46036E-01
 -1      4375 1.54677E+04 1.36292E+03 1.06174E+00
 -1      4376 1.52644E+04 1.41916E+03 1.05842E+00
 -1      4377 1.50336E+04-1.47857E+03 8.61472E-01
 -1      4378 1.41756E+04-1.24088E+03 8.45539E-01
 -1      4379 1.41739E+04 1.20785E+03 1.00532E+00
 -1      4380 1.41746E+04 1.20838E+03 1.00717E+00
 -1      4381 1.49687E+04-1.47966E+03 8.58467E-01
 -1      4382 1.60365E+04 9.93648E+02 1.05802E+00
 -1      4383 1.52046E+04 1.42986E+03 1.05660E+00
 -1      4384 1.40924E+04-1.18221E+03 8.47420E-01
 -1      4385 1.40924E+04-1.18220E+03 8.47831E-01
 -1      4386 1.37702E+04-8.44480E+02 8.58244E-01
 -1      4387 1.38779E+04-9.82824E+02 8.53513E-01
 -1      4388 1.41413E+04-1.21773E+03 8.48152E-01
 -1      4389 1.40025E+04-1.10824E+03 8.50297E-01
 -1      4390 1.41540E+04-1.22650E+03 8.47490E-01
 -1      4391 1.43104E+04-1.31914E+03 8.47326E-01
 -1      4392 1.42571E+04-1.29051E+03 8.46484E-01
 -1      4393 1.40924E+04-1.18221E+03 8.46982E-01
 -1      4394 1.38780E+04-9.82849E+02 8.52242E-01
 -1      4395 1.37702E+04-8.44505E+02 8.57965E-01
 -1      4396 1.40025E+04-1.10827E+03 8.47894E-01
 -1      4397 1.40846E+04-1.17628E+03 8.46607E-01
 -1      4398 1.40886E+04-1.17932E+03 8.46169E-01
 -1      4399 1.41838E+04-1.24620E+03 8.46050E-01
 -1      4400 1.38779E+04 9.50911E+02 9.79450E-01
 -1      4401 1.37702E+04 8.12600E+02 9.66081E-01
 -1      4402 1.40024E+04 1.07631E+03 9.92685E-01
 -1      4403 1.40841E+04 1.14401E+03 9.99713E-01
 -1      4404 1.40880E+04 1.14706E+03 1.00043E+00
 -1      4405 1.40820E+04 1.14240E+03 9.98702E-01
 -1      4406 1.40820E+04 1.14241E+03 9.99089E-01
 -1      4407 1.41724E+04 1.20693E+03 1.00646E+00
 -1      4408 1.37702E+04 8.12575E+02 9.66277E-01
 -1      4409 1.38779E+04 9.50886E+02 9.78560E-01
 -1      4410 1.40024E+04 1.07628E+03 9.90463E-01
 -1      4411 1.40877E+04 1.14675E+03 9.97942E-01
 -1      4412 1.40838E+04 1.14371E+03 9.98020E-01
 -1      4413 1.40820E+04 1.14240E+03 9.98317E-01
 -1      4414 1.41721E+04 1.20667E+03 1.00571E+00
 -1      4415 1.52657E+04 1.41891E+03 1.05903E+00
 -1      4416 1.50906E+04 1.44328E+03 1.05462E+00
 -1      4417 1.48540E+04 1.44257E+03 1.04642E+00
 -1      4418 1.46791E+04 1.41715E+03 1.03875E+00
 -1      4419 1.50906E+04 1.44328E+03 1.05424E+00
 -1      4420 1.48541E+04 1.44257E+03 1.04597E+00
 -1      4421 1.48547E+04 1.44261E+03 1.04506E+00
 -1      4422 1.48547E+04 1.44260E+03 1.04462E+00
 -1      4423 1.50910E+04 1.44324E+03 1.05355E+00
 -1      4424 1.50910E+04 1.44323E+03 1.05318E+00
 -1      4425 1.52661E+04 1.41882E+03 1.05795E+00
 -1      4426 1.46798E+04 1.41726E+03 1.03664E+00
 -1      4427 1.36075E+04-5.32935E+02 8.72043E-01
 -1      4428 1.36791E+04-6.92977E+02 8.64433E-01
 -1      4429 1.35237E+04-1.91587E+02 8.89583E-01
 -1      4430 1.35551E+04-3.64089E+02 8.80494E-01
 -1      4431 1.35237E+04 1.59865E+02 9.11443E-01
 -1      4432 1.35131E+04-1.51407E+01 8.99927E-01
 -1      4433 1.35551E+04 3.32339E+02 9.24666E-01
 -1      4434 1.36791E+04 6.61141E+02 9.52214E-01
 -1      4435 1.36075E+04 5.01146E+02 9.38327E-01
 -1      4436 1.36792E+04-6.93003E+02 8.65131E-01
 -1      4437 1.36075E+04-5.32961E+02 8.73368E-01
 -1      4438 1.35552E+04-3.64114E+02 8.83256E-01
 -1      4439 1.35237E+04-1.91612E+02 8.94395E-01
 -1      4440 1.35131E+04-1.51657E+01 9.06369E-01
 -1      4441 1.35237E+04 1.59840E+02 9.18700E-01
 -1      4442 1.35552E+04 3.32314E+02 9.30117E-01
 -1      4443 1.36075E+04 5.01121E+02 9.42058E-01
 -1      4444 1.36791E+04 6.61116E+02 9.54011E-01
 -1      4445 1.55621E+04 1.32556E+03 1.06312E+00
 -1      4446 1.53961E+04 1.38634E+03 1.06138E+00
 -1      4447 1.53356E+04 1.40305E+03 1.06027E+00
 -1      4448 1.58395E+04 1.16638E+03 1.06224E+00
 -1      4449 1.56907E+04 1.26177E+03 1.06338E+00
 -1      4450 1.55971E+04 1.30974E+03 1.06322E+00
 -1      4451 1.60900E+04 9.34283E+02 1.05568E+00
 -1      4452 1.59674E+04 1.06155E+03 1.05977E+00
 -1      4453 1.58612E+04 1.15030E+03 1.06194E+00
 -1      4454 1.62885E+04 6.33512E+02 1.04281E+00
 -1      4455 1.62006E+04 7.86890E+02 1.04983E+00
 -1      4456 1.61121E+04 9.07818E+02 1.05477E+00
 -1      4457 1.64062E+04 2.98873E+02 1.02496E+00
 -1      4458 1.63578E+04 4.68879E+02 1.03441E+00
 -1      4459 1.63042E+04 6.00747E+02 1.04133E+00
 -1      4460 1.64404E+04-3.01206E+01 1.00463E+00
 -1      4461 1.64314E+04 1.46405E+02 1.01584E+00
 -1      4462 1.64092E+04 2.85096E+02 1.02430E+00
 -1      4463 1.64207E+04-2.55965E+02 9.89238E-01
 -1      4464 1.63812E+04-4.28254E+02 9.76618E-01
 -1      4465 1.64310E+04-1.82461E+02 9.94669E-01
 -1      4466 1.64369E+04-1.18571E+02 9.98841E-01
 -1      4467 1.64392E+04 4.40952E+01 1.00969E+00
 -1      4468 1.62899E+04-6.62577E+02 9.58201E-01
 -1      4469 1.62024E+04-8.16139E+02 9.45173E-01
 -1      4470 1.63769E+04-4.42696E+02 9.75839E-01
 -1      4471 1.63399E+04-5.49120E+02 9.67445E-01
 -1      4472 1.62832E+04-6.76067E+02 9.57364E-01
 -1      4473 1.61212E+04-9.28539E+02 9.35018E-01
 -1      4474 1.60029E+04-1.05982E+03 9.22400E-01
 -1      4475 1.61444E+04-8.98724E+02 9.37892E-01
 -1      4476 1.58938E+04-1.15683E+03 9.12326E-01
 -1      4477 1.57496E+04-1.25904E+03 9.00737E-01
 -1      4478 1.59517E+04-1.10779E+03 9.17563E-01
 -1      4479 1.55496E+04-1.36296E+03 8.87117E-01
 -1      4480 1.53830E+04-1.42217E+03 8.77557E-01
 -1      4481 1.56107E+04-1.33528E+03 8.90975E-01
 -1      4482 1.55015E+04-1.38239E+03 8.84119E-01
 -1      4483 1.57051E+04-1.28562E+03 8.97455E-01
 -1      4484 1.52049E+04-1.46179E+03 8.68881E-01
 -1      4485 1.50290E+04-1.47874E+03 8.61784E-01
 -1      4486 1.53056E+04-1.44227E+03 8.73549E-01
 -1      4487 1.51830E+04-1.46508E+03 8.67757E-01
 -1      4488 1.53617E+04-1.42816E+03 8.76334E-01
 -1      4489 1.48965E+04-1.47746E+03 8.57221E-01
 -1      4490 1.47209E+04-1.45712E+03 8.52537E-01
 -1      4491 1.49486E+04-1.47940E+03 8.58678E-01
 -1      4492 1.45700E+04-1.42199E+03 8.49715E-01
 -1      4493 1.44035E+04-1.36270E+03 8.47833E-01
 -1      4494 1.46635E+04-1.44573E+03 8.51029E-01
 -1      4495 1.44178E+04-1.36869E+03 8.47442E-01
 -1      4496 1.42347E+04 1.24569E+03 1.01214E+00
 -1      4497 1.45317E+04 1.37843E+03 1.03097E+00
 -1      4498 1.43669E+04 1.31463E+03 1.02107E+00
 -1      4499 1.43033E+04 1.28362E+03 1.01637E+00
 -1      4500 1.45835E+04 1.39391E+03 1.03343E+00
 -1      4501 1.48357E+04 1.44090E+03 1.04456E+00
 -1      4502 1.48357E+04 1.44090E+03 1.04490E+00
 -1      4503 1.51213E+04 1.44056E+03 1.05465E+00
 -1      4504 1.51213E+04 1.44056E+03 1.05491E+00
 -1      4505 1.52342E+04 1.42489E+03 1.05796E+00
 -1      4506 1.47141E+04 1.42396E+03 1.03968E+00
 -1      4507 1.47148E+04 1.42407E+03 1.03904E+00
 -1      4508 1.52346E+04 1.42482E+03 1.05753E+00
 -1      4509 1.55638E+04 1.32482E+03 1.06260E+00
 -1      4510 1.53979E+04 1.38581E+03 1.06057E+00
 -1      4511 1.53377E+04 1.40250E+03 1.05961E+00
 -1      4512 1.58506E+04 1.15828E+03 1.06211E+00
 -1      4513 1.57026E+04 1.25504E+03 1.06306E+00
 -1      4514 1.56111E+04 1.30312E+03 1.06298E+00
 -1      4515 1.61125E+04 9.07390E+02 1.05519E+00
 -1      4516 1.59929E+04 1.03755E+03 1.05936E+00
 -1      4517 1.58994E+04 1.12028E+03 1.06137E+00
 -1      4518 1.62821E+04 6.46253E+02 1.04430E+00
 -1      4519 1.61928E+04 7.98767E+02 1.05102E+00
 -1      4520 1.61251E+04 8.91658E+02 1.05455E+00
 -1      4521 1.64123E+04 2.70006E+02 1.02456E+00
 -1      4522 1.63674E+04 4.40952E+02 1.03408E+00
 -1      4523 1.63416E+04 5.12820E+02 1.03768E+00
 -1      4524 1.62773E+04 6.55629E+02 1.04455E+00
 -1      4525 1.63640E+04 4.50946E+02 1.03438E+00
 -1      4526 1.64394E+04 4.08479E+01 1.01038E+00
 -1      4527 1.64356E+04-1.35862E+02 9.98716E-01
 -1      4528 1.64265E+04 1.86170E+02 1.01941E+00
 -1      4529 1.64070E+04 2.95476E+02 1.02579E+00
 -1      4530 1.64382E+04 6.68355E+01 1.01178E+00
 -1      4531 1.64130E+04-2.98761E+02 9.87286E-01
 -1      4532 1.63684E+04-4.69802E+02 9.74525E-01
 -1      4533 1.64229E+04-2.42713E+02 9.91069E-01
 -1      4534 1.62133E+04-7.99382E+02 9.47404E-01
 -1      4535 1.62987E+04-6.44642E+02 9.60579E-01
 -1      4536 1.63269E+04-5.81448E+02 9.65519E-01
 -1      4537 1.60208E+04-1.04195E+03 9.24693E-01
 -1      4538 1.61369E+04-9.08642E+02 9.37596E-01
 -1      4539 1.61711E+04-8.62223E+02 9.41674E-01
 -1      4540 1.58587E+04-1.18420E+03 9.09564E-01
 -1      4541 1.57115E+04-1.28197E+03 8.97846E-01
 -1      4542 1.59379E+04-1.12002E+03 9.16586E-01
 -1      4543 1.60118E+04-1.05100E+03 9.23701E-01
 -1      4544 1.58485E+04-1.19183E+03 9.08649E-01
 -1      4545 1.55970E+04-1.34184E+03 8.89808E-01
 -1      4546 1.54327E+04-1.40692E+03 8.79628E-01
 -1      4547 1.56528E+04-1.31429E+03 8.93635E-01
 -1      4548 1.52752E+04-1.44897E+03 8.71270E-01
 -1      4549 1.51003E+04-1.47448E+03 8.63310E-01
 -1      4550 1.53817E+04-1.42259E+03 8.76901E-01
 -1      4551 1.48528E+04-1.47442E+03 8.54378E-01
 -1      4552 1.46779E+04-1.44882E+03 8.49716E-01
 -1      4553 1.48487E+04-1.47406E+03 8.54555E-01
 -1      4554 1.49728E+04-1.47968E+03 8.58366E-01
 -1      4555 1.50962E+04-1.47481E+03 8.63359E-01
 -1      4556 1.45219E+04-1.40718E+03 8.46820E-01
 -1      4557 1.43575E+04-1.34220E+03 8.45157E-01
 -1      4558 1.45721E+04-1.42262E+03 8.47976E-01
 -1      4559 1.42353E+04-1.27792E+03 8.44872E-01
 -1      4560 1.42946E+04-1.31095E+03 8.45367E-01
 -1      4561 1.42343E+04 1.24543E+03 1.00949E+00
 -1      4562 1.45296E+04 1.37771E+03 1.02882E+00
 -1      4563 1.43648E+04 1.31365E+03 1.01875E+00
 -1      4564 1.43009E+04 1.28233E+03 1.01489E+00
 -1      4565 1.45819E+04 1.39345E+03 1.03206E+00
 -1      4566 1.63872E+04-4.07277E+02 9.78693E-01
 -1      4567 1.64074E+04-3.25458E+02 9.84954E-01
 -1      4568 1.63636E+04-4.84094E+02 9.72996E-01
 -1      4569 1.64331E+04-1.63010E+02 9.96468E-01
 -1      4570 1.62921E+04-6.58206E+02 9.59086E-01
 -1      4571 1.64160E+04-2.82830E+02 9.87712E-01
 -1      4572 1.64347E+04-1.45761E+02 9.97351E-01
 -1      4573 1.62558E+04 6.95720E+02 1.04629E+00
 -1      4574 1.63144E+04 5.78287E+02 1.04061E+00
 -1      4575 1.62254E+04 7.47853E+02 1.04849E+00
 -1      4576 1.63627E+04 4.54672E+02 1.03409E+00
 -1      4577 1.63810E+04 3.97125E+02 1.03115E+00
 -1      4578 1.63888E+04 3.69607E+02 1.02982E+00
 -1      4579 1.64179E+04 2.40115E+02 1.02221E+00
 -1      4580 1.61785E+04 8.19688E+02 1.05169E+00
 -1      4581 1.58159E+04 1.18331E+03 1.06253E+00
 -1      4582 1.59457E+04 1.08105E+03 1.06036E+00
 -1      4583 1.60208E+04 1.00991E+03 1.05839E+00
 -1      4584 1.60593E+04 9.69172E+02 1.05701E+00
 -1      4585 1.61745E+04 8.25367E+02 1.05161E+00
 -1      4586 1.45636E+04 1.38819E+03 1.03146E+00
 -1      4587 1.45658E+04 1.38884E+03 1.03206E+00
 -1      4588 1.44369E+04 1.34452E+03 1.02440E+00
 -1      4589 1.43010E+04 1.28240E+03 1.01583E+00
 -1      4590 1.42990E+04 1.28133E+03 1.01514E+00
 -1      4591 1.53653E+04 1.39519E+03 1.06057E+00
 -1      4592 1.55222E+04 1.34229E+03 1.06265E+00
 -1      4593 1.56526E+04 1.28233E+03 1.06328E+00
 -1      4594 1.54246E+04 1.37750E+03 1.06138E+00
 -1      4595 1.53668E+04-1.42679E+03 8.76315E-01
 -1      4596 1.54066E+04-1.41517E+03 8.78571E-01
 -1      4597 1.55254E+04-1.37299E+03 8.85430E-01
 -1      4598 1.54261E+04-1.40903E+03 8.79736E-01
 -1      4599 1.52640E+04-1.45124E+03 8.71287E-01
 -1      4600 1.53564E+04-1.42961E+03 8.75631E-01
 -1      4601 1.52334E+04-1.45703E+03 8.69545E-01
 -1      4602 1.50954E+04-1.47487E+03 8.63641E-01
 -1      4603 1.50847E+04-1.47570E+03 8.63038E-01
 -1      4604 1.51392E+04-1.47064E+03 8.65605E-01
 -1      4605 1.49897E+04-1.47962E+03 8.59716E-01
 -1      4606 1.51595E+04-1.46823E+03 8.66606E-01
 -1      4607 1.62555E+04 6.96251E+02 1.04602E+00
 -1      4608 1.63327E+04 5.35168E+02 1.03816E+00
 -1      4609 1.63935E+04 3.51968E+02 1.02831E+00
 -1      4610 1.62142E+04 7.65854E+02 1.04920E+00
 -1      4611 1.61391E+04 8.73556E+02 1.05366E+00
 -1      4612 1.57527E+04-1.25710E+03 9.00970E-01
 -1      4613 1.58255E+04-1.20853E+03 9.06693E-01
 -1      4614 1.56427E+04-1.31945E+03 8.93044E-01
 -1      4615 1.56055E+04-1.33779E+03 8.90490E-01
 -1      4616 1.58823E+04-1.16596E+03 9.11420E-01
 -1      4617 1.57421E+04-1.26369E+03 9.00156E-01
 -1      4618 1.56291E+04-1.32632E+03 8.92030E-01
 -1      4619 1.55113E+04-1.37864E+03 8.84434E-01
 -1      4620 1.50573E+04-1.47746E+03 8.62505E-01
 -1      4621 1.49249E+04-1.47875E+03 8.57764E-01
 -1      4622 1.57476E+04 1.22827E+03 1.06304E+00
 -1      4623 1.64244E+04 2.00548E+02 1.01948E+00
 -1      4624 1.64348E+04 1.12643E+02 1.01420E+00
 -1      4625 1.64324E+04 1.38110E+02 1.01591E+00
 -1      4626 1.64351E+04 1.09639E+02 1.01434E+00
 -1      4627 1.64404E+04-3.61620E+01 1.00501E+00
 -1      4628 1.61080E+04-9.44923E+02 9.33703E-01
 -1      4629 1.61908E+04-8.33703E+02 9.43857E-01
 -1      4630 1.62556E+04-7.28025E+02 9.53109E-01
 -1      4631 1.60059E+04-1.05689E+03 9.23036E-01
 -1      4632 1.60837E+04-9.73722E+02 9.31257E-01
 -1      4633 1.61663E+04-8.69027E+02 9.40972E-01
 -1      4634 1.60963E+04 9.26906E+02 1.05574E+00
 -1      4635 1.59924E+04-1.07005E+03 9.21502E-01
 -1      4636 1.60484E+04-1.01307E+03 9.27268E-01
 -1      4637 1.59268E+04-1.12958E+03 9.15444E-01
 -1      4638 1.58271E+04-1.20742E+03 9.06850E-01
 -1      4639 1.60045E+04-1.05823E+03 9.22820E-01
 -1      4640 1.64368E+04-1.20257E+02 9.99246E-01
 -1      4641 1.64405E+04-1.88361E+01 1.00587E+00
 -1      4642 1.58270E+04 1.17544E+03 1.06237E+00
 -1      4643 1.56647E+04 1.27597E+03 1.06318E+00
 -1      4644 1.59717E+04 1.05758E+03 1.05983E+00
 -1      4645 1.55239E+04 1.34161E+03 1.06246E+00
 -1      4646 1.61186E+04-9.31770E+02 9.35090E-01
 -1      4647 1.46403E+04-1.44046E+03 8.49630E-01
 -1      4648 1.47469E+04-1.46150E+03 8.52247E-01
 -1      4649 1.48372E+04-1.47300E+03 8.54403E-01
 -1      4650 1.44855E+04-1.39473E+03 8.47119E-01
 -1      4651 1.46832E+04-1.44990E+03 8.51092E-01
 -1      4652 1.45332E+04-1.41081E+03 8.48479E-01
 -1      4653 1.48809E+04-1.47653E+03 8.56211E-01
 -1      4654 1.44364E+04-1.37624E+03 8.47236E-01
 -1      4655 1.43666E+04-1.34638E+03 8.46412E-01
 -1      4656 1.43033E+04-1.31548E+03 8.45793E-01
 -1      4657 1.60355E+04 9.94679E+02 1.05794E+00
 -1      4658 1.49572E+04-1.47955E+03 8.58249E-01
 -1      4659 1.62018E+04-8.17088E+02 9.45547E-01
 -1      4660 1.53671E+04 1.39471E+03 1.06034E+00
 -1      4661 9.61598E+01 7.35761E+01 2.36973E-01
 -1      4662 7.37406E+01 5.47563E+01 1.80168E-01
 -1      4663 5.94954E+01 4.42157E+01 1.01242E-01
 -1      4664 1.78120E+02 1.35451E+02 3.09138E-01
 -1      4665 1.29205E+02 1.00214E+02 3.03799E-01
 -1      4666 5.45580E+01 4.02556E+01 2.05743E+00
 -1      4667 5.42449E+01 4.02719E+01-1.76512E+00
 -1      4668 2.24287E+02 1.65168E+02 4.17558E+00
 -1      4669 2.23687E+02 1.64791E+02-3.50729E+00
 -1      4670 5.12067E+01 3.77083E+01 2.80623E+00
 -1      4671 5.81917E+01 4.28619E+01 3.08412E+00
 -1      4672 5.18347E+01 3.83131E+01 1.07340E+00
 -1      4673 2.10117E+02 1.56904E+02 8.12985E+00
 -1      4674 2.43183E+02 1.76891E+02 7.86020E+00
 -1      4675 2.43934E+02 1.76747E+02 2.23467E+00
 -1      4676 5.81000E+01 4.27687E+01-2.84427E+00
 -1      4677 5.10271E+01 3.75575E+01-2.70399E+00
 -1      4678 5.17024E+01 3.82115E+01-8.50180E-01
 -1      4679 2.42871E+02 1.76685E+02-7.16329E+00
 -1      4680 2.09837E+02 1.56709E+02-7.45983E+00
 -1      4681 2.43614E+02 1.76554E+02-1.53528E+00
 -1      4682 1.61377E+02 1.24500E+02 5.87217E+00
 -1      4683 1.87485E+02 1.42131E+02 6.16218E+00
 -1      4684 2.00223E+02 1.49945E+02 2.26779E+00
 -1      4685 1.18655E+02 9.22815E+01 5.11772E+00
 -1      4686 1.37467E+02 1.07003E+02 5.59400E+00
 -1      4687 1.51672E+02 1.17096E+02 3.36392E-01
 -1      4688 8.91366E+01 6.77023E+01 3.87664E+00
 -1      4689 1.02413E+02 7.90486E+01 4.60319E+00
 -1      4690 1.11337E+02 8.62092E+01 2.80127E-01
 -1      4691 6.83434E+01 5.04977E+01 2.40212E+00
 -1      4692 7.80548E+01 5.84079E+01 3.15985E+00
 -1      4693 8.41951E+01 6.34623E+01 1.88777E-01
 -1      4694 6.10925E+01 4.52155E+01 2.04000E+00
 -1      4695 6.61995E+01 4.91247E+01 1.32474E-01
 -1      4696 5.70629E+01 4.22980E+01 1.09647E+00
 -1      4697 1.87478E+02 1.42118E+02-5.50851E+00
 -1      4698 1.61417E+02 1.24458E+02-5.22752E+00
 -1      4699 1.99948E+02 1.49763E+02-1.61934E+00
 -1      4700 1.37517E+02 1.06958E+02-4.95447E+00
 -1      4701 1.18652E+02 9.22181E+01-4.53523E+00
 -1      4702 1.02420E+02 7.89640E+01-4.11129E+00
 -1      4703 8.91638E+01 6.76348E+01-3.51057E+00
 -1      4704 7.80574E+01 5.83531E+01-2.84932E+00
 -1      4705 6.83248E+01 5.04365E+01-2.12550E+00
 -1      4706 6.10532E+01 4.51066E+01-1.82616E+00
 -1      4707 5.69074E+01 4.23326E+01-8.44273E-01
 -1      4708 5.39662E+01 4.00003E+01 1.37457E-01
 -1      4709 2.24230E+02 1.64966E+02 3.35198E-01
 -1      4710 8.78234E+03 8.56387E+02 7.95020E-01
 -1      4711 1.26409E+04 8.71110E+02 9.29443E-01
 -1      4712 1.19431E+04 8.70807E+02 9.05907E-01
 -1      4713 1.12379E+04 8.69857E+02 8.79931E-01
 -1      4714 8.08965E+03 8.48170E+02 7.65546E-01
 -1      4715 5.41391E+03 7.85724E+02 6.71974E-01
 -1      4716 2.25321E+03 5.89848E+02 5.41380E-01
 -1      4717 1.36324E+03 4.76701E+02 4.84057E-01
 -1      4718 9.90270E+02 4.10261E+02 4.59007E-01
 -1      4719 5.36012E+02 2.97282E+02 4.18504E-01
 -1      4720 1.78595E+03 5.36472E+02 5.10112E-01
 -1      4721 1.01818E+04 8.66456E+02 8.44504E-01
 -1      4722 9.83065E+03 8.64625E+02 8.29667E-01
 -1      4723 7.06471E+03 8.30863E+02 7.31132E-01
 -1      4724 6.72794E+03 8.23583E+02 7.16231E-01
 -1      4725 4.17093E+03 7.31756E+02 6.28065E-01
 -1      4726 3.58462E+03 6.97804E+02 5.95364E-01
 -1      4727 1.22957E+04 8.71023E+02 9.18070E-01
 -1      4728 1.15904E+04 8.70434E+02 8.93944E-01
 -1      4729 1.05334E+04 8.67908E+02 8.55600E-01
 -1      4730 1.08855E+04 8.69030E+02 8.68262E-01
 -1      4731 9.48026E+03 8.62358E+02 8.18382E-01
 -1      4732 9.13075E+03 8.59635E+02 8.05273E-01
 -1      4733 8.43523E+03 8.52574E+02 7.80820E-01
 -1      4734 7.40412E+03 8.37350E+02 7.44069E-01
 -1      4735 7.74586E+03 8.43114E+02 7.56515E-01
 -1      4736 6.39412E+03 8.15467E+02 7.04527E-01
 -1      4737 6.06360E+03 8.06493E+02 6.90060E-01
 -1      4738 5.73675E+03 7.96600E+02 6.84215E-01
 -1      4739 3.87446E+03 7.15402E+02 6.14619E-01
 -1      4740 2.50198E+03 6.14270E+02 5.41071E-01
 -1      4741 2.01433E+03 5.63914E+02 5.23318E-01
 -1      4742 1.56872E+03 5.07407E+02 4.93217E-01
 -1      4743 1.17021E+03 4.44344E+02 4.67306E-01
 -1      4744 6.72497E+02 3.36765E+02 4.34543E-01
 -1      4745 8.24138E+02 3.74422E+02 4.49208E-01
 -1      4746 4.17753E+02 2.56732E+02 4.53555E-01
 -1      4747 2.76007E+03 6.37211E+02 5.57932E-01
 -1      4748 4.78190E+03 7.60940E+02 6.40923E-01
 -1      4749 3.30194E+03 6.78960E+02 5.82421E-01
 -1      4750 3.02692E+03 6.58774E+02 5.65944E-01
 -1      4751 5.09549E+03 7.73864E+02 6.54976E-01
 -1      4752 4.47356E+03 7.46904E+02 6.34394E-01
 -1      4753 1.29127E+04 8.71117E+02 9.35883E-01
 -1      4754 3.35485E+02 2.23380E+02 9.90371E-01
 -1      4755 1.28687E+04 8.71124E+02 9.08645E-01
 -1      4756 1.30449E+04 8.71108E+02 9.19197E-01
 -1      4757 1.30449E+04 8.71104E+02 9.42795E-01
 -1      4758 2.98549E+02 2.06431E+02 5.95583E+00
 -1      4759 3.47744E+02 2.28892E+02 5.66765E+00
 -1      4760 2.99003E+02 2.06326E+02 6.92741E-01
 -1      4761 1.30449E+04 8.71097E+02 9.65516E-01
 -1      4762 1.28687E+04 8.71114E+02 9.63581E-01
 -1      4763 3.47845E+02 2.28891E+02-4.28662E+00
 -1      4764 2.98659E+02 2.06434E+02-4.57059E+00
 -1      4765 1.25564E+04 8.71101E+02 9.06729E-01
 -1      4766 1.27327E+04 8.71121E+02 9.07497E-01
 -1      4767 1.27768E+04 8.71118E+02 9.32639E-01
 -1      4768 1.22076E+04 8.70985E+02 9.07708E-01
 -1      4769 1.23839E+04 8.71057E+02 9.06457E-01
 -1      4770 1.24683E+04 8.71078E+02 9.23830E-01
 -1      4771 1.18549E+04 8.70734E+02 9.12923E-01
 -1      4772 1.20312E+04 8.70877E+02 9.09249E-01
 -1      4773 1.21194E+04 8.70931E+02 9.11823E-01
 -1      4774 1.15023E+04 8.70310E+02 9.23180E-01
 -1      4775 1.16786E+04 8.70547E+02 9.16698E-01
 -1      4776 1.17667E+04 8.70641E+02 8.99791E-01
 -1      4777 1.11498E+04 8.69674E+02 9.35903E-01
 -1      4778 1.13260E+04 8.70021E+02 9.28604E-01
 -1      4779 1.14141E+04 8.70172E+02 8.87156E-01
 -1      4780 1.07974E+04 8.68777E+02 9.56728E-01
 -1      4781 1.09736E+04 8.69260E+02 9.44665E-01
 -1      4782 1.10617E+04 8.69474E+02 8.73622E-01
 -1      4783 1.04455E+04 8.67578E+02 9.81449E-01
 -1      4784 1.06214E+04 8.68217E+02 9.67513E-01
 -1      4785 1.07094E+04 8.68505E+02 8.62266E-01
 -1      4786 1.00939E+04 8.66035E+02 1.00944E+00
 -1      4787 1.02696E+04 8.66853E+02 9.94924E-01
 -1      4788 1.03575E+04 8.67224E+02 8.51017E-01
 -1      4789 9.74296E+03 8.64096E+02 1.04525E+00
 -1      4790 9.91835E+03 8.65118E+02 1.02455E+00
 -1      4791 1.00061E+04 8.65587E+02 8.37189E-01
 -1      4792 9.39276E+03 8.61721E+02 1.08287E+00
 -1      4793 9.56775E+03 8.62964E+02 1.06241E+00
 -1      4794 9.65535E+03 8.63543E+02 8.24185E-01
 -1      4795 9.04350E+03 8.58867E+02 1.12817E+00
 -1      4796 9.21801E+03 8.60358E+02 1.10363E+00
 -1      4797 9.30538E+03 8.61053E+02 8.11658E-01
 -1      4798 8.69539E+03 8.55483E+02 1.18072E+00
 -1      4799 8.86929E+03 8.57243E+02 1.15266E+00
 -1      4800 8.95640E+03 8.58073E+02 8.00030E-01
 -1      4801 8.34864E+03 8.51531E+02 1.23205E+00
 -1      4802 8.52183E+03 8.53578E+02 1.20459E+00
 -1      4803 8.60860E+03 8.54547E+02 7.88034E-01
 -1      4804 8.00348E+03 8.46961E+02 1.28948E+00
 -1      4805 8.17584E+03 8.49327E+02 1.25858E+00
 -1      4806 8.26223E+03 8.50444E+02 7.73559E-01
 -1      4807 7.66016E+03 8.41730E+02 1.35966E+00
 -1      4808 7.83157E+03 8.44431E+02 1.32165E+00
 -1      4809 7.91752E+03 8.45719E+02 7.60037E-01
 -1      4810 7.31897E+03 8.35792E+02 1.43052E+00
 -1      4811 7.48928E+03 8.38850E+02 1.39244E+00
 -1      4812 7.57471E+03 8.40314E+02 7.50295E-01
 -1      4813 6.98019E+03 8.29110E+02 1.50405E+00
 -1      4814 7.14926E+03 8.32547E+02 1.46473E+00
 -1      4815 7.23410E+03 8.34197E+02 7.37745E-01
 -1      4816 6.64412E+03 8.21623E+02 1.58489E+00
 -1      4817 6.81179E+03 8.25469E+02 1.54172E+00
 -1      4818 6.89597E+03 8.27317E+02 7.24597E-01
 -1      4819 6.31109E+03 8.13302E+02 1.66381E+00
 -1      4820 6.47720E+03 8.17566E+02 1.62141E+00
 -1      4821 6.56063E+03 8.19623E+02 7.09873E-01
 -1      4822 5.98144E+03 8.04094E+02 1.75466E+00
 -1      4823 6.14582E+03 8.08813E+02 1.70679E+00
 -1      4824 6.22843E+03 8.11085E+02 6.94964E-01
 -1      4825 5.65554E+03 7.93958E+02 1.85848E+00
 -1      4826 5.81800E+03 7.99146E+02 1.80329E+00
 -1      4827 5.89970E+03 8.01655E+02 6.85742E-01
 -1      4828 5.33377E+03 7.82848E+02 1.95521E+00
 -1      4829 5.49411E+03 7.88523E+02 1.90509E+00
 -1      4830 5.57479E+03 7.91274E+02 6.77822E-01
 -1      4831 5.01651E+03 7.70719E+02 2.06022E+00
 -1      4832 5.17455E+03 7.76914E+02 2.00379E+00
 -1      4833 5.25412E+03 7.79913E+02 6.62515E-01
 -1      4834 4.70418E+03 7.57520E+02 2.17425E+00
 -1      4835 4.85970E+03 7.64255E+02 2.11387E+00
 -1      4836 4.93806E+03 7.67528E+02 6.48385E-01
 -1      4837 4.39722E+03 7.43214E+02 2.28979E+00
 -1      4838 4.55000E+03 7.50505E+02 2.22847E+00
 -1      4839 4.62704E+03 7.54050E+02 6.37944E-01
 -1      4840 4.09606E+03 7.27762E+02 2.41384E+00
 -1      4841 4.24589E+03 7.35637E+02 2.34892E+00
 -1      4842 4.32151E+03 7.39463E+02 6.30749E-01
 -1      4843 3.80120E+03 7.11105E+02 2.53941E+00
 -1      4844 3.94782E+03 7.19585E+02 2.47391E+00
 -1      4845 4.02189E+03 7.23720E+02 6.19875E-01
 -1      4846 3.51310E+03 6.93202E+02 2.66395E+00
 -1      4847 3.65627E+03 7.02309E+02 2.59746E+00
 -1      4848 3.72867E+03 7.06746E+02 6.03768E-01
 -1      4849 3.23226E+03 6.74018E+02 2.80137E+00
 -1      4850 3.37174E+03 6.83776E+02 2.72953E+00
 -1      4851 3.44236E+03 6.88530E+02 5.88625E-01
 -1      4852 2.95923E+03 6.53493E+02 2.94381E+00
 -1      4853 3.09474E+03 6.63924E+02 2.87019E+00
 -1      4854 3.16343E+03 6.69024E+02 5.76547E-01
 -1      4855 2.69451E+03 6.31594E+02 3.08591E+00
 -1      4856 2.82579E+03 6.42715E+02 3.01087E+00
 -1      4857 2.89243E+03 6.48152E+02 5.62355E-01
 -1      4858 2.43868E+03 6.08278E+02 3.24057E+00
 -1      4859 2.56545E+03 6.20120E+02 3.15776E+00
 -1      4860 2.62990E+03 6.25904E+02 5.50053E-01
 -1      4861 2.19230E+03 5.83488E+02 3.40409E+00
 -1      4862 2.31427E+03 5.96067E+02 3.32021E+00
 -1      4863 2.37639E+03 6.02231E+02 5.40671E-01
 -1      4864 1.95599E+03 5.57184E+02 3.55854E+00
 -1      4865 2.07285E+03 5.70525E+02 3.47724E+00
 -1      4866 2.13248E+03 5.77056E+02 5.31584E-01
 -1      4867 1.73032E+03 5.29333E+02 3.72531E+00
 -1      4868 1.84179E+03 5.43458E+02 3.63700E+00
 -1      4869 1.89880E+03 5.50372E+02 5.16382E-01
 -1      4870 1.51596E+03 4.99872E+02 3.89602E+00
 -1      4871 1.62169E+03 5.14802E+02 3.80894E+00
 -1      4872 1.67590E+03 5.22128E+02 5.04695E-01
 -1      4873 1.31352E+03 4.68757E+02 4.07154E+00
 -1      4874 1.41320E+03 4.84526E+02 3.97778E+00
 -1      4875 1.46447E+03 4.92251E+02 4.88364E-01
 -1      4876 1.12368E+03 4.35970E+02 4.25322E+00
 -1      4877 1.21699E+03 4.52577E+02 4.15294E+00
 -1      4878 1.26514E+03 4.60712E+02 4.75623E-01
 -1      4879 9.47113E+02 4.01440E+02 4.44225E+00
 -1      4880 1.03369E+03 4.18928E+02 4.34319E+00
 -1      4881 1.07857E+03 4.27503E+02 4.64643E-01
 -1      4882 7.84518E+02 3.65147E+02 4.63616E+00
 -1      4883 8.64022E+02 3.83518E+02 4.52825E+00
 -1      4884 9.05448E+02 3.92545E+02 4.56075E-01
 -1      4885 6.36581E+02 3.27046E+02 4.82317E+00
 -1      4886 7.08671E+02 3.46321E+02 4.72254E+00
 -1      4887 7.46454E+02 3.55801E+02 4.40605E-01
 -1      4888 5.03979E+02 2.87086E+02 5.02364E+00
 -1      4889 5.68321E+02 3.07303E+02 4.91625E+00
 -1      4890 6.02307E+02 3.17240E+02 4.24894E-01
 -1      4891 3.88476E+02 2.45633E+02 5.27751E+00
 -1      4892 4.44875E+02 2.66807E+02 5.14620E+00
 -1      4893 4.74946E+02 2.77222E+02 4.32021E-01
 -1      4894 3.75403E+02 2.40234E+02 7.18235E-01
 -1      4895 1.27328E+04 8.71112E+02 9.58125E-01
 -1      4896 1.25565E+04 8.71092E+02 9.46618E-01
 -1      4897 1.23839E+04 8.71049E+02 9.35475E-01
 -1      4898 1.22076E+04 8.70976E+02 9.21919E-01
 -1      4899 1.20312E+04 8.70868E+02 9.08438E-01
 -1      4900 1.18549E+04 8.70725E+02 8.92498E-01
 -1      4901 1.16786E+04 8.70538E+02 8.76498E-01
 -1      4902 1.15023E+04 8.70300E+02 8.57691E-01
 -1      4903 1.13260E+04 8.70011E+02 8.38874E-01
 -1      4904 1.11498E+04 8.69665E+02 8.18121E-01
 -1      4905 1.09736E+04 8.69251E+02 7.96677E-01
 -1      4906 1.07975E+04 8.68768E+02 7.73031E-01
 -1      4907 1.06214E+04 8.68208E+02 7.51044E-01
 -1      4908 1.04455E+04 8.67570E+02 7.26163E-01
 -1      4909 1.02696E+04 8.66843E+02 7.00538E-01
 -1      4910 1.00939E+04 8.66024E+02 6.71669E-01
 -1      4911 9.91836E+03 8.65107E+02 6.43188E-01
 -1      4912 9.74297E+03 8.64087E+02 6.09929E-01
 -1      4913 9.56777E+03 8.62955E+02 5.80302E-01
 -1      4914 9.39278E+03 8.61713E+02 5.47209E-01
 -1      4915 9.21802E+03 8.60350E+02 5.14101E-01
 -1      4916 9.04352E+03 8.58859E+02 4.76276E-01
 -1      4917 8.86931E+03 8.57234E+02 4.41186E-01
 -1      4918 8.69541E+03 8.55473E+02 4.00749E-01
 -1      4919 8.52185E+03 8.53568E+02 3.64262E-01
 -1      4920 8.34866E+03 8.51520E+02 3.22863E-01
 -1      4921 8.17586E+03 8.49317E+02 2.81778E-01
 -1      4922 8.00349E+03 8.46951E+02 2.37474E-01
 -1      4923 7.83159E+03 8.44422E+02 1.96235E-01
 -1      4924 7.66018E+03 8.41720E+02 1.45329E-01
 -1      4925 7.48930E+03 8.38839E+02 1.02371E-01
 -1      4926 7.31899E+03 8.35781E+02 5.32309E-02
 -1      4927 7.14928E+03 8.32535E+02 6.21662E-03
 -1      4928 6.98020E+03 8.29099E+02-4.55382E-02
 -1      4929 6.81181E+03 8.25458E+02-9.84931E-02
 -1      4930 6.64413E+03 8.21614E+02-1.56878E-01
 -1      4931 6.47721E+03 8.17557E+02-2.08688E-01
 -1      4932 6.31111E+03 8.13290E+02-2.67085E-01
 -1      4933 6.14584E+03 8.08804E+02-3.21989E-01
 -1      4934 5.98146E+03 8.04088E+02-3.77950E-01
 -1      4935 5.81802E+03 7.99137E+02-4.32305E-01
 -1      4936 5.65556E+03 7.93948E+02-4.99413E-01
 -1      4937 5.49413E+03 7.88512E+02-5.56423E-01
 -1      4938 5.33379E+03 7.82833E+02-6.22712E-01
 -1      4939 5.17456E+03 7.76901E+02-6.85114E-01
 -1      4940 5.01652E+03 7.70710E+02-7.53027E-01
 -1      4941 4.85971E+03 7.64245E+02-8.21683E-01
 -1      4942 4.70419E+03 7.57512E+02-8.92028E-01
 -1      4943 4.55001E+03 7.50497E+02-9.55552E-01
 -1      4944 4.39724E+03 7.43207E+02-1.02530E+00
 -1      4945 4.24591E+03 7.35629E+02-1.09350E+00
 -1      4946 4.09609E+03 7.27752E+02-1.17002E+00
 -1      4947 3.94784E+03 7.19573E+02-1.24419E+00
 -1      4948 3.80122E+03 7.11092E+02-1.32566E+00
 -1      4949 3.65629E+03 7.02296E+02-1.40000E+00
 -1      4950 3.51312E+03 6.93191E+02-1.48007E+00
 -1      4951 3.37176E+03 6.83767E+02-1.55628E+00
 -1      4952 3.23228E+03 6.74009E+02-1.64267E+00
 -1      4953 3.09475E+03 6.63916E+02-1.72390E+00
 -1      4954 2.95924E+03 6.53487E+02-1.81157E+00
 -1      4955 2.82580E+03 6.42708E+02-1.89006E+00
 -1      4956 2.69453E+03 6.31586E+02-1.97686E+00
 -1      4957 2.56546E+03 6.20111E+02-2.06155E+00
 -1      4958 2.43869E+03 6.08271E+02-2.15570E+00
 -1      4959 2.31429E+03 5.96058E+02-2.24205E+00
 -1      4960 2.19233E+03 5.83476E+02-2.33597E+00
 -1      4961 2.07287E+03 5.70512E+02-2.42313E+00
 -1      4962 1.95601E+03 5.57172E+02-2.51835E+00
 -1      4963 1.84181E+03 5.43447E+02-2.60823E+00
 -1      4964 1.73035E+03 5.29322E+02-2.71107E+00
 -1      4965 1.62171E+03 5.14793E+02-2.80731E+00
 -1      4966 1.51597E+03 4.99864E+02-2.91239E+00
 -1      4967 1.41322E+03 4.84517E+02-3.00882E+00
 -1      4968 1.31354E+03 4.68747E+02-3.11374E+00
 -1      4969 1.21700E+03 4.52568E+02-3.20803E+00
 -1      4970 1.12370E+03 4.35962E+02-3.31778E+00
 -1      4971 1.03371E+03 4.18920E+02-3.41494E+00
 -1      4972 9.47137E+02 4.01433E+02-3.52354E+00
 -1      4973 8.64050E+02 3.83511E+02-3.62513E+00
 -1      4974 7.84534E+02 3.65139E+02-3.74435E+00
 -1      4975 7.08692E+02 3.46311E+02-3.85063E+00
 -1      4976 6.36606E+02 3.27035E+02-3.96852E+00
 -1      4977 5.68343E+02 3.07292E+02-4.07704E+00
 -1      4978 5.03999E+02 2.87074E+02-4.20171E+00
 -1      4979 4.44901E+02 2.66791E+02-4.28812E+00
 -1      4980 3.88510E+02 2.45616E+02-4.43855E+00
 -1      4981 1.37816E+04 9.77353E+02 9.77310E-01
 -1      4982 1.35500E+04 9.10813E+02 9.64829E-01
 -1      4983 1.38809E+04 1.01681E+03 9.83736E-01
 -1      4984 1.38809E+04 1.01680E+03 9.83078E-01
 -1      4985 1.33418E+04 8.78789E+02 9.54598E-01
 -1      4986 1.33414E+04 8.78746E+02 9.55859E-01
 -1      4987 1.38094E+04 9.87715E+02 9.79650E-01
 -1      4988 1.39403E+04 1.04382E+03 9.87809E-01
 -1      4989 1.39403E+04 1.04382E+03 9.87423E-01
 -1      4990 1.32594E+04 8.73029E+02 9.43719E-01
 -1      4991 1.34012E+04 8.85360E+02 9.60076E-01
 -1      4992 1.32595E+04 8.73026E+02 9.50381E-01
 -1      4993 1.39403E+04 1.04381E+03 9.86732E-01
 -1      4994 1.38095E+04 9.87701E+02 9.78365E-01
 -1      4995 1.39403E+04 1.04381E+03 9.87127E-01
 -1      4996 1.34011E+04 8.85323E+02 9.55528E-01
 -1      4997 1.32593E+04 8.73008E+02 9.59810E-01
 -1      4998 1.32593E+04 8.73013E+02 9.53716E-01
 -1      4999 1.35054E+04 9.01798E+02 9.64702E-01
 -1      5000 1.36441E+04 9.33768E+02 9.70881E-01
 -1      5001 1.36670E+04 9.40158E+02 9.70873E-01
 -1      5002 1.37593E+04 9.69417E+02 9.76700E-01
 -1      5003 1.38316E+04 9.96331E+02 9.80529E-01
 -1      5004 1.34464E+04 8.91696E+02 9.60490E-01
 -1      5005 1.36441E+04 9.33758E+02 9.68433E-01
 -1      5006 1.35054E+04 9.01788E+02 9.60597E-01
 -1      5007 1.37593E+04 9.69407E+02 9.75381E-01
 -1      5008 1.38316E+04 9.96326E+02 9.80104E-01
 -1      5009 1.34462E+04 8.91662E+02 9.59225E-01
 -1      5010 1.38918E+04 1.02156E+03 9.84085E-01
 -1      5011 1.33416E+04 8.78767E+02 9.55261E-01
 -1      5012 0.00000E+00 0.00000E+00 0.00000E+00
 -1      5013 0.00000E+00 0.00000E+00 0.00000E+00
 -1      5014 0.00000E+00 0.00000E+00 0.00000E+00
 -1      5015 0.00000E+00 0.00000E+00 0.00000E+00
 -1      5016 0.00000E+00 0.00000E+00 0.00000E+00
 -1      5017 0.00000E+00 0.00000E+00 0.00000E+00
 -1      5018 0.00000E+00 0.00000E+00 0.00000E+00
 -1      5019 0.00000E+00 0.00000E+00 0.00000E+00
 -1      5020 0.00000E+00 0.00000E+00 0.00000E+00
 -1      5021 0.00000E+00 0.00000E+00 0.00000E+00
 -1      5022 0.00000E+00 0.00000E+00 0.00000E+00
 -1      5023 0.00000E+00 0.00000E+00 0.00000E+00
 -1      5024 0.00000E+00 0.00000E+00 0.00000E+00
 -1      5025 0.00000E+00 0.00000E+00 0.00000E+00
 -1      5026 0.00000E+00 0.00000E+00 0.00000E+00
 -1      5027 0.00000E+00 0.00000E+00 0.00000E+00
 -1      5028 0.00000E+00 0.00000E+00 0.00000E+00
 -1      5029 0.00000E+00 0.00000E+00 0.00000E+00
 -1      5030 0.00000E+00 0.00000E+00 0.00000E+00
 -1      5031 0.00000E+00 0.00000E+00 0.00000E+00
 -1      5032 0.00000E+00 0.00000E+00 0.00000E+00
 -1      5033 0.00000E+00 0.00000E+00 0.00000E+00
 -1      5034 0.00000E+00 0.00000E+00 0.00000E+00
 -1      5035 0.00000E+00 0.00000E+00 0.00000E+00
 -1      5036 0.00000E+00 0.00000E+00 0.00000E+00
 -1      5037 0.00000E+00 0.00000E+00 0.00000E+00
 -1      5038 0.00000E+00 0.00000E+00 0.00000E+00
 -1      5039 0.00000E+00 0.00000E+00 0.00000E+00
 -1      5040 0.00000E+00 0.00000E+00 0.00000E+00
 -1      5041 0.00000E+00 0.00000E+00 0.00000E+00
 -1      5042 0.00000E+00 0.00000E+00 0.00000E+00
 -1      5043 0.00000E+00 0.00000E+00 0.00000E+00
 -1      5044 0.00000E+00 0.00000E+00 0.00000E+00
 -1      5045 0.00000E+00 0.00000E+00 0.00000E+00
 -1      5046 0.00000E+00 0.00000E+00 0.00000E+00
 -1      5047 0.00000E+00 0.00000E+00 0.00000E+00
 -1      5048 0.00000E+00 0.00000E+00 0.00000E+00
 -1      5049 0.00000E+00 0.00000E+00 0.00000E+00
 -1      5050 0.00000E+00 0.00000E+00 0.00000E+00
 -1      5051 0.00000E+00 0.00000E+00 0.00000E+00
 -1      5052 0.00000E+00 0.00000E+00 0.00000E+00
 -1      5053 0.00000E+00 0.00000E+00 0.00000E+00
 -1      5054 0.00000E+00 0.00000E+00 0.00000E+00
 -1      5055 0.00000E+00 0.00000E+00 0.00000E+00
 -1      5056 0.00000E+00 0.00000E+00 0.00000E+00
 -1      5057 0.00000E+00 0.00000E+00 0.00000E+00
 -1      5058 0.00000E+00 0.00000E+00 0.00000E+00
 -1      5059 0.00000E+00 0.00000E+00 0.00000E+00
 -1      5060 0.00000E+00 0.00000E+00 0.00000E+00
 -1      5061 0.00000E+00 0.00000E+00 0.00000E+00
 -1      5062 0.00000E+00 0.00000E+00 0.00000E+00
 -1      5063 0.00000E+00 0.00000E+00 0.00000E+00
 -1      5064 0.00000E+00 0.00000E+00 0.00000E+00
 -1      5065 0.00000E+00 0.00000E+00 0.00000E+00
 -1      5066 0.00000E+00 0.00000E+00 0.00000E+00
 -1      5067 0.00000E+00 0.00000E+00 0.00000E+00
 -1      5068 0.00000E+00 0.00000E+00 0.00000E+00
 -1      5069 0.00000E+00 0.00000E+00 0.00000E+00
 -1      5070 0.00000E+00 0.00000E+00 0.00000E+00
 -1      5071 0.00000E+00 0.00000E+00 0.00000E+00
 -1      5072 0.00000E+00 0.00000E+00 0.00000E+00
 -1      5073 0.00000E+00 0.00000E+00 0.00000E+00
 -1      5074 0.00000E+00 0.00000E+00 0.00000E+00
 -1      5075 0.00000E+00 0.00000E+00 0.00000E+00
 -1      5076 0.00000E+00 0.00000E+00 0.00000E+00
 -1      5077 2.60246E+01-3.45594E+01-1.11484E+00
 -1      5078 2.81487E+01 3.85369E+00 1.30115E+00
 -1      5079 2.32344E+01-3.30599E+01-1.16047E+00
 -1      5080 2.71414E+01 2.06884E+01 1.92580E+00
 -1      5081 1.58446E+01-2.92949E+01-9.79657E-01
 -1      5082 1.85873E+01 2.01795E+01 1.25832E+00
 -1      5083 3.74029E+00-2.03026E+01-5.36297E-01
 -1      5084 3.49842E+01-1.74912E+01-2.97081E-01
 -1      5085 3.01067E+01-4.15891E+01-1.46888E+00
 -1      5086 2.12755E+01-1.48798E+01 2.97073E-01
 -1      5087 7.89013E+00 1.47508E+01 8.56233E-01
 -1      5088 1.96092E+01-3.10800E+01-8.67258E-01
 -1      5089 3.83621E+01 2.49165E+01 3.50093E+00
 -1      5090 1.98484E+01 9.45822E+00 1.15818E+00
 -1      5091-2.66957E+00-1.00674E+01-6.68471E-01
 -1      5092 2.33874E+01-3.61642E+01-6.72513E-01
 -1      5093 1.75183E+01-2.66538E+01 9.49087E-02
 -1      5094 1.76409E+01-2.40776E+01-1.89514E+00
 -1      5095 3.67463E+01-4.84345E+01-3.14449E+00
 -1      5096 1.77234E+01 1.38605E+01 1.60902E+00
 -1      5097 2.90378E+01 2.52566E+01 1.59880E+00
 -1      5098 1.97102E+00 9.21324E+00 9.34494E-01
 -1      5099 4.15006E+01 1.71991E+00 1.72578E+00
 -1      5100 3.03346E+01-4.07510E+01-9.53634E-01
 -1      5101 3.95160E+01-4.22495E+01-3.09370E+00
 -1      5102 8.67935E+00-2.97294E+01-6.14513E-01
 -1      5103 1.76886E+01-5.19424E+00 5.42190E-01
 -1      5104 3.93297E+01 3.02731E+01 2.78189E+00
 -1      5105 1.48172E+01 2.14730E+01 1.06251E+00
 -1      5106 7.89735E+00-1.94078E+01-9.45554E-01
 -1      5107 9.95226E+00 1.29022E+01 8.89184E-01
 -1      5108 1.66695E+01-2.58190E+01-1.28701E+00
 -1      5109 4.59214E+01 2.13904E+01 3.78013E+00
 -1      5110 1.57953E+01-3.49068E+01-5.01793E-01
 -1      5111-3.52280E+00-6.57898E+00-9.78686E-01
 -1      5112 2.87142E+01-4.01794E+01-5.36850E-01
 -1      5113-1.87349E+00-1.91075E+01-7.78903E-01
 -1      5114 2.67230E+01-2.32110E+01-4.45300E-01
 -1      5115 2.45380E+01 2.63579E+01 1.16927E+00
 -1      5116 2.77998E+01-1.04035E+01 3.80131E-01
 -1      5117 2.49391E+01-3.69274E+01-1.19053E+00
 -1      5118 2.45231E+01-3.57072E+01-1.16745E+00
 -1      5119-8.42255E-01-8.47196E+00-1.18122E-01
 -1      5120 2.80624E+01 1.55932E+01 1.93598E+00
 -1      5121 3.70414E+01-4.83956E+01-2.71354E+00
 -1      5122 5.65029E-02 5.76216E+00 1.06967E+00
 -1      5123 2.39477E+00 6.96425E+00 5.17414E-01
 -1      5124 4.77783E+01-1.20871E+01 2.08223E-01
 -1      5125 3.45052E+01-4.44000E+01-1.30763E+00
 -1      5126 4.51774E+00 1.45552E+01 1.06126E+00
 -1      5127 1.36877E+01 8.65031E+00 1.07924E+00
 -1      5128 2.54775E+00-2.66044E+01-6.67137E-01
 -1      5129 4.35159E+01 3.22284E+01 4.18908E+00
 -1      5130 2.05396E+01-3.05530E+01-1.18244E+00
 -1      5131 2.36030E+01 2.06697E+01 1.56990E+00
 -1      5132 1.56345E+01-1.79539E+01 6.38391E-01
 -1      5133 4.52929E+01-3.37330E+01-2.20747E+00
 -1      5134 1.47795E+01-2.70552E+01-7.78096E-02
 -1      5135 1.40033E+01-1.79489E+01-2.74812E+00
 -1      5136 1.02579E+01 2.05853E+01 1.07697E+00
 -1      5137 2.18057E+01-3.82392E+01-3.67124E-01
 -1      5138 4.28286E+01-5.11982E+01-4.04768E+00
 -1      5139 3.51989E+01 1.32599E+01 2.39705E+00
 -1      5140 3.43672E+01 2.54473E+01 2.68900E+00
 -1      5141 4.74979E+01 3.14278E+01 5.04193E+00
 -1      5142 1.27411E+00-1.03604E+01 1.61805E-01
 -1      5143 2.09872E+01-2.37936E+01-6.40081E-02
 -1      5144 3.56240E+01 2.88151E+01 1.82918E+00
 -1      5145 2.95952E+01 2.76824E+01 1.28826E+00
 -1      5146 2.58472E+01-3.99494E+01-3.18918E-01
 -1      5147 2.18680E+01 4.21738E+00 9.99059E-01
 -1      5148 3.38173E+01-4.27017E+01-2.55279E+00
 -1      5149-1.67343E+00-4.26134E+00-4.51151E-01
 -1      5150 1.49786E+01 3.00881E+00 4.95046E-01
 -1      5151-4.74445E+00-1.38076E+01-1.05878E+00
 -1      5152 2.10735E+01 1.40652E+01 1.49425E+00
 -1      5153-2.62178E+00-3.18931E+00-9.96768E-01
 -1      5154 2.00526E+01-3.15696E+01-5.75706E-01
 -1      5155 2.30810E+01-4.53557E+00 6.97045E-01
 -1      5156 2.54730E+01-3.61683E+01-9.04092E-01
 -1      5157 2.07119E+01-3.05910E+01-1.20702E+00
 -1      5158 1.17000E+01 1.05591E+01 1.50188E+00
 -1      5159 1.14195E+01-3.52655E+01-4.28435E-01
 -1      5160 1.04685E+01-2.61813E+01-8.33263E-01
 -1      5161 1.97597E+01-3.38214E+01-7.43985E-01
 -1      5162 3.11013E+01-4.32952E+01-2.04478E+00
 -1      5163 5.24960E+01 9.44555E+00 2.67972E+00
 -1      5164 1.27572E+01 1.74380E+01 1.02076E+00
 -1      5165 1.57803E+01-2.07969E+01-2.28137E+00
 -1      5166 3.32513E+01-3.27578E+01-1.65006E+00
 -1      5167 3.28708E+01-1.43331E+00 1.11276E+00
 -1      5168 5.06433E-01 3.85987E+00 6.11375E-01
 -1      5169 4.16263E+01-5.25065E+01-4.22242E+00
 -1      5170 1.30977E+01-2.35530E+01 9.22400E-01
 -1      5171 1.32036E+00 1.09795E+01 1.21621E+00
 -1      5172 2.67477E+01-3.73838E+01-1.10200E+00
 -1      5173 3.68597E+00 7.29477E+00 3.08915E-01
 -1      5174 1.54718E+01-2.44581E+01-1.55681E+00
 -1      5175 3.17022E+01 2.55589E+01 2.03219E+00
 -1      5176 2.48510E+01 2.38615E+01 1.37663E+00
 -1      5177 4.80436E+01-4.59653E+01-3.82877E+00
 -1      5178 3.27949E+01-4.26774E+01-7.15583E-01
 -1      5179 1.99311E+01 2.55569E+01 1.09368E+00
 -1      5180 1.97080E+01-2.78404E+01-1.47631E+00
 -1      5181 5.85358E+00-3.21567E+01-5.62240E-01
 -1      5182 1.07244E+01 7.41469E+00 1.92006E+00
 -1      5183 1.67614E+01 1.58989E+01 1.44449E+00
 -1      5184-5.19747E-01 2.51239E+00 8.86011E-01
 -1      5185-1.72251E+00-1.62495E+00-8.49230E-01
 -1      5186 1.42146E+00 3.56607E+00 1.01861E-01
 -1      5187 2.44533E+00 4.73409E+00 1.83505E-01
 -1      5188 8.07418E+00 4.48262E+00 1.83110E+00
 -1      5189 9.24322E+00 6.67006E+00 1.68604E+00
 -1      5190 6.30972E+00 8.51588E+00 5.54378E-01
 -1      5191 1.07728E+01 1.18350E+01 1.07882E+00
 -1      5192 8.36833E+00 6.22433E+00 1.28579E+00
 -1      5193 6.25916E+00 1.00322E+01 5.06699E-01
 -1      5194 1.12699E+01 8.29358E+00 1.86393E+00
 -1      5195 8.77659E-01-6.25438E+00 4.39081E-01
 -1      5196-5.39014E-02-3.92797E+00 3.97899E-01
 -1      5197 1.37845E+01-1.47328E+01-3.64788E+00
 -1      5198 1.08940E+01-1.25336E+01-2.49574E+00
 -1      5199 1.11248E+01-1.86064E+01-1.75325E+00
 -1      5200 6.30588E+00-1.43474E+01-8.27234E-01
 -1      5201 4.15007E+00-1.53244E+01-3.72300E-01
 -1      5202-1.20801E-01 8.06689E+00 1.30852E+00
 -1      5203-5.39102E-01 5.38813E+00 1.23075E+00
 -1      5204-2.06645E-01 2.69761E+00 7.56524E-01
 -1      5205 1.52350E+00 1.33751E+01 1.34571E+00
 -1      5206 3.75033E-01 1.06257E+01 1.36884E+00
 -1      5207 5.75637E-01 8.31393E+00 1.15497E+00
 -1      5208 5.07503E+00 1.77275E+01 1.20865E+00
 -1      5209 3.07391E+00 1.50946E+01 1.24845E+00
 -1      5210 2.71801E+00 1.26901E+01 1.13058E+00
 -1      5211 7.70782E+00 2.06687E+01 1.18001E+00
 -1      5212 1.05224E+01 2.28739E+01 1.14059E+00
 -1      5213 7.15784E+00 1.75966E+01 1.06819E+00
 -1      5214 1.35771E+01 2.45465E+01 1.09908E+00
 -1      5215 2.17657E+01 2.77802E+01 1.05228E+00
 -1      5216 1.83940E+01 2.68177E+01 1.06928E+00
 -1      5217 1.59927E+01 2.48158E+01 1.07543E+00
 -1      5218 1.24176E+01 2.09922E+01 1.05095E+00
 -1      5219 1.73840E+01 2.35759E+01 1.08673E+00
 -1      5220 2.73007E+01 2.85313E+01 1.10121E+00
 -1      5221 2.40352E+01 2.80295E+01 1.06978E+00
 -1      5222 2.22059E+01 2.59393E+01 1.12514E+00
 -1      5223 3.27913E+01 2.92773E+01 1.26301E+00
 -1      5224 2.97655E+01 2.90094E+01 1.14441E+00
 -1      5225 2.70605E+01 2.70057E+01 1.22211E+00
 -1      5226 3.85095E+01 3.01835E+01 1.90836E+00
 -1      5227 3.57392E+01 2.95897E+01 1.51291E+00
 -1      5228 3.25580E+01 2.80396E+01 1.49897E+00
 -1      5229 4.31255E+01 3.22021E+01 3.38204E+00
 -1      5230 4.04715E+01 3.08555E+01 2.48229E+00
 -1      5231 3.74230E+01 2.93873E+01 2.23119E+00
 -1      5232 4.79466E+01 3.45355E+01 5.09933E+00
 -1      5233 4.54308E+01 3.35879E+01 4.33135E+00
 -1      5234 4.13923E+01 3.13745E+01 3.58189E+00
 -1      5235 5.27612E+01 3.26939E+01 5.16893E+00
 -1      5236 5.03703E+01 3.43823E+01 5.15346E+00
 -1      5237 4.53686E+01 3.22755E+01 4.74995E+00
 -1      5238 5.35985E+01 2.19496E+01 4.35605E+00
 -1      5239 5.23869E+01 2.80908E+01 4.69464E+00
 -1      5240 4.68431E+01 2.73673E+01 4.39852E+00
 -1      5241 5.80260E+01 5.43388E+00 1.90760E+00
 -1      5242 5.75322E+01 1.49823E+01 2.70542E+00
 -1      5243 4.89155E+01 1.61474E+01 3.37709E+00
 -1      5244 5.48462E+01-1.69404E+01-3.37510E-01
 -1      5245 5.53188E+01-5.71592E+00 9.16861E-01
 -1      5246 4.99727E+01-1.20772E+00 1.50910E+00
 -1      5247 5.20787E+01-3.80341E+01-2.93766E+00
 -1      5248 5.31751E+01-2.85351E+01-1.60618E+00
 -1      5249 4.62964E+01-2.34364E+01-1.09655E+00
 -1      5250 5.15339E+01-5.02771E+01-3.94668E+00
 -1      5251 5.35456E+01-4.40182E+01-2.90555E+00
 -1      5252 4.66151E+01-4.01564E+01-3.01754E+00
 -1      5253 4.62420E+01-5.47159E+01-4.84533E+00
 -1      5254 4.84168E+01-5.27985E+01-4.46363E+00
 -1      5255 4.52300E+01-4.92892E+01-4.10319E+00
 -1      5256 4.25173E+01-5.29432E+01-4.23059E+00
 -1      5257 4.48810E+01-5.44496E+01-4.55379E+00
 -1      5258 4.22889E+01-5.26785E+01-4.21565E+00
 -1      5259 3.84149E+01-4.82440E+01-2.38195E+00
 -1      5260 4.01811E+01-5.08376E+01-3.35848E+00
 -1      5261 3.91409E+01-5.05773E+01-3.44189E+00
 -1      5262 3.51628E+01-4.43499E+01-1.03974E+00
 -1      5263 3.67851E+01-4.59455E+01-1.52846E+00
 -1      5264 3.56995E+01-4.61937E+01-1.93553E+00
 -1      5265 3.26657E+01-4.27489E+01-4.96654E-01
 -1      5266 3.42180E+01-4.35489E+01-7.30810E-01
 -1      5267 3.36317E+01-4.33559E+01-9.78209E-01
 -1      5268 2.90212E+01-4.13456E+01-3.06551E-01
 -1      5269 3.07563E+01-4.18134E+01-4.19479E-01
 -1      5270 3.07748E+01-4.13889E+01-6.06126E-01
 -1      5271 2.54805E+01-4.11510E+01-1.44072E-01
 -1      5272 2.75839E+01-4.13981E+01-1.93587E-01
 -1      5273 2.73283E+01-3.99206E+01-4.25217E-01
 -1      5274 2.08988E+01-4.00615E+01-1.71866E-01
 -1      5275 2.34941E+01-4.05094E+01-1.68115E-01
 -1      5276 2.38988E+01-3.90947E+01-3.40393E-01
 -1      5277 1.48403E+01-3.77003E+01-3.08204E-01
 -1      5278 1.79410E+01-3.86910E+01-2.56793E-01
 -1      5279 1.89315E+01-3.66321E+01-4.39715E-01
 -1      5280 9.32169E+00-3.64586E+01-3.93281E-01
 -1      5281 1.26165E+01-3.80735E+01-2.85584E-01
 -1      5282 1.36469E+01-3.50320E+01-4.62628E-01
 -1      5283 3.42169E+00-3.25683E+01-6.19169E-01
 -1      5284 6.53014E+00-3.50214E+01-4.81184E-01
 -1      5285 8.62971E+00-3.37507E+01-4.92839E-01
 -1      5286-6.59112E-01-2.66003E+01-8.16832E-01
 -1      5287 1.87600E+00-2.97909E+01-6.95998E-01
 -1      5288 4.17949E+00-2.94264E+01-6.25871E-01
 -1      5289-4.16033E+00-1.94740E+01-1.02132E+00
 -1      5290-2.70027E+00-2.29737E+01-9.19327E-01
 -1      5291 1.00763E-01-2.28253E+01-7.16184E-01
 -1      5292-5.93057E+00-1.35736E+01-1.25444E+00
 -1      5293-5.60011E+00-1.68670E+01-1.17797E+00
 -1      5294-3.54325E+00-1.62679E+01-9.13219E-01
 -1      5295-4.67034E+00-7.18894E+00-1.24472E+00
 -1      5296-5.22477E+00-9.93851E+00-1.22037E+00
 -1      5297-4.28944E+00-9.95902E+00-1.02389E+00
 -1      5298-3.08495E+00-3.26426E+00-1.17040E+00
 -1      5299-4.23367E+00-5.41222E+00-1.28229E+00
 -1      5300-3.17439E+00-4.71112E+00-1.01641E+00
 -1      5301-1.33084E+00-1.48061E+00-6.58447E-01
 -1      5302 8.17978E-01 3.25497E+00 3.32199E-01
 -1      5303 1.27922E+00 3.77812E+00 1.98592E-01
 -1      5304 2.93929E+00 7.05835E+00 3.92713E-01
 -1      5305 8.77606E-02 1.81192E+00 4.22843E-01
 -1      5306 2.91067E-01 1.96937E+00 3.25048E-01
 -1      5307 1.22475E+00 5.25761E+00 5.55334E-01
 -1      5308-2.80271E-02 2.81046E+00 6.91949E-01
 -1      5309 3.26938E-01 4.82500E+00 8.57331E-01
 -1      5310-1.24025E+00-1.57758E+00-5.98080E-01
 -1      5311-7.95914E-01-2.07482E+00-2.07929E-01
 -1      5312-9.65874E-01-1.80313E+00-3.55473E-01
 -1      5313-2.52525E+00-5.46128E+00-7.20184E-01
 -1      5314-1.79100E+00-2.95877E+00-6.28281E-01
 -1      5315-4.70425E-01-4.22937E+00 1.91550E-01
 -1      5316-7.64117E-01-3.40616E+00-6.27698E-02
 -1      5317-1.42995E+00-6.03004E+00-2.87931E-01
 -1      5318 8.89880E-02-9.11161E+00 1.36538E-01
 -1      5319 1.42339E+01-2.13536E+01-2.05238E+00
 -1      5320 1.44796E+01-1.82354E+01-3.06467E+00
 -1      5321 1.54963E+01-1.87784E+01-2.76393E+00
 -1      5322 1.28691E+01-2.55022E+01 5.62703E-01
 -1      5323 1.33650E+01-2.51291E+01-1.86344E-01
 -1      5324 1.55673E+01-2.67380E+01-6.58297E-01
 -1      5325 1.42749E+01-2.35205E+01-1.18754E+00
 -1      5326 1.61926E+01-2.33939E+01-1.78899E+00
 -1      5327 1.16264E+01-2.11468E+01 1.32416E+00
 -1      5328 1.19060E+01-2.39792E+01 1.14032E+00
 -1      5329 1.38448E+01-2.57933E+01 4.88477E-01
 -1      5330 1.26345E+01-1.25340E+01 7.99078E-01
 -1      5331 1.26794E+01-1.80227E+01 1.08137E+00
 -1      5332 1.41032E+01-2.11744E+01 8.40708E-01
 -1      5333 1.18534E+01 3.15721E+00 9.02037E-02
 -1      5334 1.21054E+01-1.59184E+00 2.17772E-01
 -1      5335 1.36220E+01-6.07344E+00 4.61345E-01
 -1      5336 1.65038E+01-1.17487E+01 5.58752E-01
 -1      5337 1.63061E+01-8.03184E-01 5.20828E-01
 -1      5338 1.05597E+01 7.33728E+00 1.06467E+00
 -1      5339 1.11741E+01 6.26515E+00 4.34099E-01
 -1      5340 1.41390E+01 6.62839E+00 6.90703E-01
 -1      5341 1.21106E+01 8.44831E+00 1.46898E+00
 -1      5342 1.91589E+01-2.54752E+01 9.33490E-03
 -1      5343 2.33303E+01-2.92482E+01-5.65780E-01
 -1      5344 2.15914E+01-3.01661E+01-4.93435E-01
 -1      5345 1.86725E+01-2.93090E+01-2.49002E-01
 -1      5346 2.28538E+01-3.31674E+01-7.99291E-01
 -1      5347 2.37393E+01-2.35272E+01-2.58695E-01
 -1      5348 2.61205E+01-2.97413E+01-8.25738E-01
 -1      5349 2.98098E+01-2.77538E+01-9.48428E-01
 -1      5350 2.93090E+01-3.41509E+01-1.38715E+00
 -1      5351 2.52442E+01-3.64591E+01-1.17264E+00
 -1      5352 2.24513E+01-3.42643E+01-9.00922E-01
 -1      5353 2.84685E+01-3.94506E+01-1.59411E+00
 -1      5354 2.79216E+01-4.00266E+01-1.55066E+00
 -1      5355 2.97721E+01-3.84312E+01-1.73749E+00
 -1      5356 3.22781E+01-4.34587E+01-2.30311E+00
 -1      5357 3.34091E+01-3.83818E+01-2.16613E+00
 -1      5358 2.78456E+01-3.07223E+00 8.57593E-01
 -1      5359 2.53699E+01-7.29917E+00 5.74806E-01
 -1      5360 2.54575E+01-5.07396E-01 9.41471E-01
 -1      5361 3.04093E+01 1.42878E+00 1.23422E+00
 -1      5362 3.01918E+01-6.11997E+00 7.02590E-01
 -1      5363 2.79750E+01 1.04317E+01 1.65767E+00
 -1      5364 3.14682E+01 1.47954E+01 2.15298E+00
 -1      5365 3.14959E+01 8.37113E+00 1.78205E+00
 -1      5366 2.49458E+01 4.03858E+00 1.15450E+00
 -1      5367 2.47238E+01 9.91187E+00 1.43913E+00
 -1      5368 3.38975E+01 6.21838E+00 1.76827E+00
 -1      5369 2.24309E+01 9.04204E-02 8.58716E-01
 -1      5370 2.20584E+01-3.17865E+01-1.21646E+00
 -1      5371 2.25242E+01-3.31686E+01-1.14855E+00
 -1      5372 2.38472E+01-3.42401E+01-1.16126E+00
 -1      5373 2.57092E+01-3.65615E+01-1.15485E+00
 -1      5374 2.49348E+01-3.52507E+01-1.11161E+00
 -1      5375 2.44360E+01-3.46487E+01-1.04313E+00
 -1      5376 2.29776E+01-3.34288E+01-1.02037E+00
 -1      5377 2.19848E+01-3.15502E+01-1.18413E+00
 -1      5378 2.03301E+01-2.90089E+01-1.37281E+00
 -1      5379 2.14265E+01-3.05276E+01-1.28096E+00
 -1      5380 2.61454E+01-3.66034E+01-1.00160E+00
 -1      5381 2.01894E+01-2.91344E+01-1.33975E+00
 -1      5382 2.23343E+01 1.72674E+01 1.66973E+00
 -1      5383 2.07721E+01 1.74150E+01 1.59779E+00
 -1      5384 2.53593E+01 2.06381E+01 1.74560E+00
 -1      5385 2.40976E+01 1.74295E+01 1.72234E+00
 -1      5386 1.93099E+01 1.40717E+01 1.55264E+00
 -1      5387 3.06700E+01 2.29960E+01 2.24873E+00
 -1      5388 3.11771E+01 2.09424E+01 2.36280E+00
 -1      5389 2.75331E+01 1.87930E+01 1.99773E+00
 -1      5390 2.45131E+01 1.49634E+01 1.69157E+00
 -1      5391 2.75724E+01 2.30516E+01 1.74771E+00
 -1      5392 2.95055E+01 2.33377E+01 2.01217E+00
 -1      5393 3.30415E+01 2.56312E+01 2.38200E+00
 -1      5394 1.32739E+01-2.77709E+01-9.21275E-01
 -1      5395 1.58500E+01-3.21151E+01-7.24544E-01
 -1      5396 1.33245E+01-3.07732E+01-7.03166E-01
 -1      5397 1.78624E+01-3.16374E+01-8.68264E-01
 -1      5398 1.78624E+01-3.42718E+01-6.13459E-01
 -1      5399 1.84680E+01-2.97534E+01-1.12323E+00
 -1      5400 2.02614E+01-3.21201E+01-9.66042E-01
 -1      5401 1.56509E+01-2.69487E+01-1.24431E+00
 -1      5402 1.81556E+01-2.75364E+01-1.38357E+00
 -1      5403 1.30199E+01-2.52930E+01-1.14711E+00
 -1      5404 1.56404E+01 1.88207E+01 1.15369E+00
 -1      5405 1.38441E+01 1.94917E+01 1.05178E+00
 -1      5406 1.66430E+01 2.07596E+01 1.13435E+00
 -1      5407 1.93579E+01 2.28735E+01 1.16296E+00
 -1      5408 1.44197E+01 1.66965E+01 1.16078E+00
 -1      5409 1.14396E+01 1.52318E+01 9.68280E-01
 -1      5410 1.33748E+01 1.43489E+01 1.24294E+00
 -1      5411 1.77312E+01 1.81147E+01 1.34935E+00
 -1      5412 2.16979E+01 2.34272E+01 1.23047E+00
 -1      5413 2.47340E+01 2.50828E+01 1.26862E+00
 -1      5414 2.17262E+01 2.20576E+01 1.32653E+00
 -1      5415 2.43108E+01 2.23273E+01 1.48441E+00
 -1      5416 2.11116E+01 2.02905E+01 1.41842E+00
 -1      5417 2.01819E+01 1.82953E+01 1.50963E+00
 -1      5418 6.30459E+00-2.52585E+01-6.38647E-01
 -1      5419 5.50669E+00-2.81369E+01-6.24716E-01
 -1      5420 3.30810E+00-2.34334E+01-6.19042E-01
 -1      5421 6.94755E+00-2.33512E+01-7.04906E-01
 -1      5422 9.57350E+00-2.79129E+01-6.93475E-01
 -1      5423 2.79256E+00-1.58525E+01-3.04911E-01
 -1      5424 5.48421E+00-1.97316E+01-5.91215E-01
 -1      5425 9.34003E+00-2.30411E+01-9.00045E-01
 -1      5426 7.46999E-01-1.94270E+01-5.86862E-01
 -1      5427-1.16194E+00-1.40454E+01-5.15752E-01
 -1      5428 7.95713E-01-1.41964E+01-2.77609E-01
 -1      5429 3.78775E+01-8.28739E+00 5.70745E-01
 -1      5430 4.43903E+01-4.75370E+00 1.06631E+00
 -1      5431 4.07047E+01-1.50860E+01-1.48677E-01
 -1      5432 3.37816E+01-9.18229E+00 4.66970E-01
 -1      5433 3.69069E+01 5.55414E-02 1.37107E+00
 -1      5434 3.05069E+01-2.07121E+01-4.18329E-01
 -1      5435 2.71192E+01-1.70540E+01-4.58409E-02
 -1      5436 3.11824E+01-1.36759E+01 9.19100E-02
 -1      5437 3.38940E+01-2.57338E+01-1.03941E+00
 -1      5438 3.96315E+01-2.52300E+01-1.26010E+00
 -1      5439 3.85977E+01-3.34485E+01-2.09614E+00
 -1      5440 3.25862E+01-4.33793E+01-1.44332E+00
 -1      5441 3.23749E+01-4.25707E+01-1.09850E+00
 -1      5442 3.03094E+01-4.11091E+01-1.22345E+00
 -1      5443 2.86282E+01-3.92309E+01-1.03844E+00
 -1      5444 2.83124E+01-3.93636E+01-1.23213E+00
 -1      5445 2.72670E+01-3.87093E+01-1.28837E+00
 -1      5446 2.46522E+01-3.64171E+01-1.17144E+00
 -1      5447 2.76136E+01-3.95873E+01-1.40857E+00
 -1      5448 3.05519E+01-4.26614E+01-1.76271E+00
 -1      5449 3.34792E+01-4.50216E+01-1.95354E+00
 -1      5450 3.42702E+01-4.64217E+01-2.44705E+00
 -1      5451 1.84017E+01-1.64662E+01 4.24311E-01
 -1      5452 1.94664E+01-9.95365E+00 4.87617E-01
 -1      5453 2.03284E+01-4.93219E+00 6.20709E-01
 -1      5454 2.20856E+01-9.79326E+00 4.80767E-01
 -1      5455 2.43773E+01-1.28093E+01 2.86185E-01
 -1      5456 2.38752E+01-1.88267E+01-2.01708E-02
 -1      5457 2.10557E+01-1.95415E+01 1.17824E-01
 -1      5458 1.82568E+01-2.06978E+01 3.08104E-01
 -1      5459 9.20625E+00 1.76942E+01 9.92338E-01
 -1      5460 1.13048E+01 1.82471E+01 9.88456E-01
 -1      5461 1.01467E+01 1.61057E+01 9.30233E-01
 -1      5462 8.72934E+00 1.37694E+01 8.16740E-01
 -1      5463 5.97183E+00 1.12560E+01 6.33245E-01
 -1      5464 4.83122E+00 1.08788E+01 6.71729E-01
 -1      5465 3.65200E+00 1.08766E+01 8.37528E-01
 -1      5466 6.07401E+00 1.45368E+01 9.41229E-01
 -1      5467 1.79178E+01-2.85114E+01-9.93577E-01
 -1      5468 1.70891E+01-2.88826E+01-5.42794E-01
 -1      5469 2.01209E+01-3.08439E+01-1.05416E+00
 -1      5470 1.86333E+01-2.81294E+01-1.24432E+00
 -1      5471 2.21365E+01-3.39747E+01-9.87065E-01
 -1      5472 2.20810E+01-3.33812E+01-1.06158E+00
 -1      5473 1.97014E+01-3.15540E+01-7.11988E-01
 -1      5474 1.72404E+01-2.91241E+01-3.08968E-01
 -1      5475 4.18274E+01 2.38411E+01 3.83884E+00
 -1      5476 4.02299E+01 1.72084E+01 3.15106E+00
 -1      5477 3.67327E+01 1.97275E+01 3.00153E+00
 -1      5478 4.28598E+01 2.83012E+01 4.31796E+00
 -1      5479 3.30445E+01 2.01002E+01 2.56040E+00
 -1      5480 3.62602E+01 2.54777E+01 3.10817E+00
 -1      5481 3.88866E+01 2.89756E+01 3.49118E+00
 -1      5482 4.10820E+01 2.93075E+01 4.01585E+00
 -1      5483 2.38534E+01 1.22534E+01 1.52193E+00
 -1      5484 2.08230E+01 7.14625E+00 1.08162E+00
 -1      5485 2.03635E+01 1.19413E+01 1.33686E+00
 -1      5486 1.72533E+01 6.15022E+00 8.19688E-01
 -1      5487 1.67167E+01 9.23372E+00 1.05831E+00
 -1      5488 1.72982E+01 1.11501E+01 1.27836E+00
 -1      5489 1.84017E+01 3.44814E+00 7.59714E-01
 -1      5490-3.21405E+00-8.12856E+00-8.08954E-01
 -1      5491-2.25642E+00-7.02451E+00-5.59530E-01
 -1      5492-3.62592E+00-1.19719E+01-8.69038E-01
 -1      5493-1.65380E+00-9.26425E+00-4.07490E-01
 -1      5494-2.49586E+00-1.44855E+01-7.21459E-01
 -1      5495 2.61069E+01-3.82569E+01-5.96068E-01
 -1      5496 2.46689E+01-3.81674E+01-4.93739E-01
 -1      5497 2.45158E+01-3.59816E+01-7.96946E-01
 -1      5498 2.72026E+01-3.83561E+01-7.27844E-01
 -1      5499 2.20066E+01-3.35112E+01-9.13581E-01
 -1      5500 2.16296E+01-3.49815E+01-7.13358E-01
 -1      5501 2.26619E+01-3.71138E+01-5.18394E-01
 -1      5502 2.08112E+01-3.61040E+01-5.49918E-01
 -1      5503 1.64136E+01-2.27290E+01 4.43933E-01
 -1      5504 1.52187E+01-2.49577E+01 5.04076E-01
 -1      5505 1.58941E+01-2.73211E+01 1.13686E-01
 -1      5506 1.90903E+01-2.74446E+01-1.49444E+00
 -1      5507 1.67776E+01-2.41132E+01-1.76859E+00
 -1      5508 1.86756E+01-2.59217E+01-1.67770E+00
 -1      5509 1.60014E+01-2.10667E+01-2.28061E+00
 -1      5510 1.68413E+01-2.21636E+01-2.14632E+00
 -1      5511 1.47243E+01-2.13520E+01-2.00745E+00
 -1      5512 1.76794E+01-2.43265E+01-1.83322E+00
 -1      5513 3.69370E+01-4.88887E+01-3.00849E+00
 -1      5514 3.38158E+01-4.58478E+01-2.54050E+00
 -1      5515 3.93700E+01-5.08088E+01-3.69633E+00
 -1      5516 3.53124E+01-4.60312E+01-2.89104E+00
 -1      5517 3.81179E+01-4.70027E+01-3.37814E+00
 -1      5518 3.94918E+01-5.00503E+01-3.70838E+00
 -1      5519 1.55344E+01 1.10045E+01 1.44857E+00
 -1      5520 1.43161E+01 1.06267E+01 1.69750E+00
 -1      5521 1.73815E+01 1.47612E+01 1.57017E+00
 -1      5522 1.48828E+01 1.20360E+01 1.62024E+00
 -1      5523 1.43160E+01 1.33850E+01 1.42787E+00
 -1      5524 3.03780E+01 2.53233E+01 1.80034E+00
 -1      5525 2.63842E+01 2.31064E+01 1.58890E+00
 -1      5526 2.69291E+01 2.45055E+01 1.47483E+00
 -1      5527 2.94052E+01 2.64648E+01 1.44524E+00
 -1      5528 3.23882E+01 2.71478E+01 1.71468E+00
 -1      5529 3.38565E+01 2.74224E+01 1.96738E+00
 -1      5530 2.73047E+01 2.58887E+01 1.33655E+00
 -1      5531 1.15466E+00 6.50568E+00 7.94761E-01
 -1      5532 8.37540E-01 7.37857E+00 9.99792E-01
 -1      5533 1.68466E+00 1.00895E+01 1.07827E+00
 -1      5534 3.14919E+00 1.18843E+01 1.00254E+00
 -1      5535 2.25471E+00 8.07566E+00 7.35151E-01
 -1      5536 3.80550E+01 8.28940E+00 2.18195E+00
 -1      5537 4.35678E+01 1.21349E+01 2.92471E+00
 -1      5538 4.66190E+01 5.54265E+00 2.31321E+00
 -1      5539 2.95661E+01-4.02421E+01-7.41419E-01
 -1      5540 2.78524E+01-3.84683E+01-9.00982E-01
 -1      5541 3.16895E+01-4.18642E+01-8.42531E-01
 -1      5542 3.62567E+01-3.74945E+01-2.37418E+00
 -1      5543 4.21024E+01-3.86780E+01-2.79210E+00
 -1      5544 4.35626E+01-4.41279E+01-3.52320E+00
 -1      5545 4.11803E+01-4.72522E+01-3.64948E+00
 -1      5546 3.63995E+01-4.27921E+01-2.86544E+00
 -1      5547 1.23350E+01-3.24541E+01-5.76594E-01
 -1      5548 1.01053E+01-3.25625E+01-5.36071E-01
 -1      5549 7.28699E+00-3.08748E+01-5.80728E-01
 -1      5550 1.96182E+01-5.13462E-01 7.23817E-01
 -1      5551 3.71218E+01 2.85001E+01 2.82252E+00
 -1      5552 3.55399E+01 2.79931E+01 2.37198E+00
 -1      5553 1.22460E+01-2.21103E+01-1.41589E+00
 -1      5554 1.82985E+01-2.64994E+01-1.47121E+00
 -1      5555 2.58811E+01-3.46754E+01 1.59135E+00
 -1      5556 2.80548E+01 3.77521E+00-1.06041E+00
 -1      5557 2.30610E+01-3.32281E+01 1.70036E+00
 -1      5558 2.70795E+01 2.06418E+01-1.90263E+00
 -1      5559 1.56421E+01-2.94441E+01 1.39540E+00
 -1      5560 1.85577E+01 2.01793E+01-1.25279E+00
 -1      5561 3.60872E+00-2.03831E+01 7.03350E-01
 -1      5562 3.48293E+01-1.75748E+01 7.33252E-01
 -1      5563 2.99349E+01-4.17478E+01 2.14156E+00
 -1      5564 2.11830E+01-1.49842E+01-2.17320E-02
 -1      5565 7.85789E+00 1.47425E+01-8.83688E-01
 -1      5566 1.94335E+01-3.12461E+01 1.28237E+00
 -1      5567 3.82914E+01 2.47881E+01-3.31693E+00
 -1      5568 1.97680E+01 9.39631E+00-1.05777E+00
 -1      5569-2.71361E+00-1.01352E+01 6.94218E-01
 -1      5570 2.31950E+01-3.63210E+01 1.32385E+00
 -1      5571 1.74015E+01-2.67876E+01 2.23488E-01
 -1      5572 1.74212E+01-2.43190E+01 2.28020E+00
 -1      5573 3.65927E+01-4.85816E+01 3.84140E+00
 -1      5574 1.77253E+01 1.38677E+01-1.58875E+00
 -1      5575 2.89955E+01 2.52509E+01-1.61256E+00
 -1      5576 1.95254E+00 9.21525E+00-9.52637E-01
 -1      5577 4.13374E+01 1.65560E+00-1.32004E+00
 -1      5578 3.01553E+01-4.08942E+01 1.72754E+00
 -1      5579 3.93499E+01-4.24174E+01 3.70640E+00
 -1      5580 8.54405E+00-2.98690E+01 9.72335E-01
 -1      5581 1.75311E+01-5.29862E+00-3.68166E-01
 -1      5582 3.92262E+01 3.01871E+01-2.74412E+00
 -1      5583 1.47650E+01 2.14774E+01-1.09777E+00
 -1      5584 7.77910E+00-1.93525E+01 1.01220E+00
 -1      5585 9.81484E+00 1.27459E+01-9.01387E-01
 -1      5586 1.65472E+01-2.59213E+01 1.61692E+00
 -1      5587 4.58182E+01 2.13126E+01-3.51561E+00
 -1      5588 1.56343E+01-3.50549E+01 1.03022E+00
 -1      5589-3.54407E+00-6.61925E+00 9.75488E-01
 -1      5590 2.85356E+01-4.03422E+01 1.35562E+00
 -1      5591-1.95922E+00-1.91973E+01 8.88052E-01
 -1      5592 2.66087E+01-2.33075E+01 8.19611E-01
 -1      5593 2.44794E+01 2.63525E+01-1.20975E+00
 -1      5594 2.77531E+01-1.04968E+01-6.61143E-02
 -1      5595 2.48078E+01-3.70709E+01 1.72473E+00
 -1      5596 2.43641E+01-3.58663E+01 1.70018E+00
 -1      5597-8.59990E-01-8.58268E+00 1.64326E-01
 -1      5598 2.79889E+01 1.55103E+01-1.79678E+00
 -1      5599 3.68805E+01-4.85170E+01 3.49803E+00
 -1      5600 4.19163E-02 5.76137E+00-1.08801E+00
 -1      5601 2.35246E+00 6.96258E+00-5.36622E-01
 -1      5602 4.76927E+01-1.22861E+01 2.75766E-01
 -1      5603 3.43376E+01-4.45362E+01 2.16291E+00
 -1      5604 4.50362E+00 1.45641E+01-1.09294E+00
 -1      5605 1.36264E+01 8.61485E+00-9.65660E-01
 -1      5606 2.42043E+00-2.67151E+01 9.06772E-01
 -1      5607 4.32928E+01 3.19683E+01-4.11810E+00
 -1      5608 2.03449E+01-3.07279E+01 1.65960E+00
 -1      5609 2.35969E+01 2.06679E+01-1.56987E+00
 -1      5610 1.55027E+01-1.80610E+01-4.43349E-01
 -1      5611 4.51308E+01-3.38710E+01 2.82376E+00
 -1      5612 1.46302E+01-2.71792E+01 3.17416E-01
 -1      5613 1.36597E+01-1.80222E+01 2.82432E+00
 -1      5614 1.02269E+01 2.05992E+01-1.12350E+00
 -1      5615 2.16274E+01-3.83948E+01 1.04686E+00
 -1      5616 4.26729E+01-5.13717E+01 4.77914E+00
 -1      5617 3.50909E+01 1.31639E+01-2.16385E+00
 -1      5618 3.42803E+01 2.54087E+01-2.61116E+00
 -1      5619 4.74201E+01 3.14818E+01-4.82357E+00
 -1      5620 1.21700E+00-1.04047E+01-4.79690E-02
 -1      5621 2.08654E+01-2.39050E+01 4.02070E-01
 -1      5622 3.55527E+01 2.88136E+01-1.82657E+00
 -1      5623 2.95365E+01 2.76669E+01-1.32388E+00
 -1      5624 2.56714E+01-4.01053E+01 1.10608E+00
 -1      5625 2.17578E+01 4.13108E+00-8.29503E-01
 -1      5626 3.36688E+01-4.28195E+01 3.14119E+00
 -1      5627-1.70299E+00-4.28915E+00 4.58102E-01
 -1      5628 1.49109E+01 2.92401E+00-3.67697E-01
 -1      5629-4.78812E+00-1.38782E+01 1.08057E+00
 -1      5630 2.10046E+01 1.40158E+01-1.45833E+00
 -1      5631-2.63756E+00-3.20505E+00 9.89285E-01
 -1      5632 1.99067E+01-3.16608E+01 9.78267E-01
 -1      5633 2.29855E+01-4.60755E+00-4.49423E-01
 -1      5634 2.52977E+01-3.63427E+01 1.55909E+00
 -1      5635 2.05514E+01-3.07553E+01 1.64299E+00
 -1      5636 1.19164E+01 1.05194E+01-1.49531E+00
 -1      5637 1.12630E+01-3.54063E+01 9.03062E-01
 -1      5638 1.03057E+01-2.63027E+01 1.12654E+00
 -1      5639 1.95723E+01-3.39764E+01 1.29701E+00
 -1      5640 3.09545E+01-4.33989E+01 2.67378E+00
 -1      5641 5.23957E+01 9.39075E+00-2.31859E+00
 -1      5642 1.27124E+01 1.74307E+01-1.04325E+00
 -1      5643 1.54059E+01-2.08386E+01 2.51549E+00
 -1      5644 3.31171E+01-3.28781E+01 2.14868E+00
 -1      5645 3.27330E+01-1.54034E+00-7.97706E-01
 -1      5646 4.79144E-01 3.85206E+00-6.29233E-01
 -1      5647 4.14529E+01-5.26570E+01 5.04975E+00
 -1      5648 1.30057E+01-2.37900E+01-7.11495E-01
 -1      5649 1.31117E+00 1.09822E+01-1.23435E+00
 -1      5650 2.65721E+01-3.75442E+01 1.75371E+00
 -1      5651 3.64275E+00 7.39697E+00-3.00941E-01
 -1      5652 1.51855E+01-2.46348E+01 1.85104E+00
 -1      5653 3.16322E+01 2.55180E+01-2.04430E+00
 -1      5654 2.47781E+01 2.38460E+01-1.40423E+00
 -1      5655 4.78729E+01-4.61710E+01 4.60967E+00
 -1      5656 3.26191E+01-4.28199E+01 1.61125E+00
 -1      5657 1.98826E+01 2.55599E+01-1.14463E+00
 -1      5658 1.95587E+01-2.80143E+01 1.89649E+00
 -1      5659 5.71025E+00-3.22848E+01 9.06300E-01
 -1      5660 1.08388E+01 7.46777E+00-1.90807E+00
 -1      5661 1.68567E+01 1.59053E+01-1.44974E+00
 -1      5662-5.60700E-01 2.52435E+00-8.94843E-01
 -1      5663-1.72450E+00-1.62860E+00 8.45012E-01
 -1      5664 1.37779E+00 3.51540E+00-5.75952E-02
 -1      5665 2.39687E+00 4.57271E+00 1.84535E-03
 -1      5666 9.18876E+00 6.46516E+00-1.69753E+00
 -1      5667 7.91372E+00 4.49289E+00-1.99231E+00
 -1      5668 1.06697E+01 1.19274E+01-1.06867E+00
 -1      5669 6.66326E+00 8.60943E+00-5.90284E-01
 -1      5670 8.45662E+00 6.38674E+00-1.27988E+00
 -1      5671 6.25789E+00 1.01389E+01-4.99805E-01
 -1      5672 1.13716E+01 8.51656E+00-1.81009E+00
 -1      5673-1.02027E-01-4.06813E+00-2.88772E-01
 -1      5674 6.65431E-01-6.53601E+00-4.10297E-01
 -1      5675 1.35738E+01-1.54015E+01 3.76734E+00
 -1      5676 1.10385E+01-1.28538E+01 2.61472E+00
 -1      5677 1.06881E+01-1.88535E+01 1.79700E+00
 -1      5678 5.76376E+00-1.48522E+01 8.82532E-01
 -1      5679 4.04877E+00-1.53349E+01 4.23560E-01
 -1      5680-1.27608E-01 8.06655E+00-1.32400E+00
 -1      5681-5.24260E-01 5.37453E+00-1.24211E+00
 -1      5682-2.30753E-01 2.70321E+00-7.55687E-01
 -1      5683 1.51286E+00 1.33815E+01-1.37065E+00
 -1      5684 3.71660E-01 1.06314E+01-1.39336E+00
 -1      5685 5.66865E-01 8.31259E+00-1.17008E+00
 -1      5686 5.05207E+00 1.77304E+01-1.25030E+00
 -1      5687 3.05857E+00 1.51020E+01-1.28208E+00
 -1      5688 2.70364E+00 1.26959E+01-1.15823E+00
 -1      5689 7.67161E+00 2.06722E+01-1.23178E+00
 -1      5690 1.04863E+01 2.28785E+01-1.19930E+00
 -1      5691 7.11127E+00 1.75868E+01-1.10763E+00
 -1      5692 1.35384E+01 2.45470E+01-1.16100E+00
 -1      5693 2.17159E+01 2.77807E+01-1.11800E+00
 -1      5694 1.83551E+01 2.68177E+01-1.13503E+00
 -1      5695 1.23836E+01 2.10013E+01-1.10236E+00
 -1      5696 1.59414E+01 2.48065E+01-1.13526E+00
 -1      5697 1.73334E+01 2.35752E+01-1.12661E+00
 -1      5698 2.72391E+01 2.85276E+01-1.15602E+00
 -1      5699 2.39801E+01 2.80283E+01-1.13168E+00
 -1      5700 2.21531E+01 2.59374E+01-1.17109E+00
 -1      5701 3.27190E+01 2.92637E+01-1.30349E+00
 -1      5702 2.97032E+01 2.90022E+01-1.19550E+00
 -1      5703 2.69996E+01 2.69968E+01-1.25850E+00
 -1      5704 3.84394E+01 3.01702E+01-1.90068E+00
 -1      5705 3.56683E+01 2.95601E+01-1.53427E+00
 -1      5706 3.24989E+01 2.80223E+01-1.51539E+00
 -1      5707 4.30212E+01 3.22068E+01-3.28957E+00
 -1      5708 4.03884E+01 3.08370E+01-2.43940E+00
 -1      5709 3.73479E+01 2.93443E+01-2.22892E+00
 -1      5710 4.78304E+01 3.44885E+01-4.88280E+00
 -1      5711 4.53302E+01 3.35707E+01-4.21700E+00
 -1      5712 4.12058E+01 3.11930E+01-3.41866E+00
 -1      5713 5.26859E+01 3.27180E+01-4.94986E+00
 -1      5714 5.02895E+01 3.44410E+01-4.95578E+00
 -1      5715 4.52286E+01 3.20858E+01-4.51240E+00
 -1      5716 5.34434E+01 2.19891E+01-4.09542E+00
 -1      5717 5.22745E+01 2.81005E+01-4.49031E+00
 -1      5718 4.67627E+01 2.73562E+01-4.16378E+00
 -1      5719 5.78525E+01 5.44406E+00-1.55923E+00
 -1      5720 5.73700E+01 1.50482E+01-2.46490E+00
 -1      5721 4.88119E+01 1.60704E+01-3.06787E+00
 -1      5722 5.46829E+01-1.70961E+01 9.21009E-01
 -1      5723 5.51455E+01-5.78586E+00-4.49531E-01
 -1      5724 4.98219E+01-1.22139E+00-1.13246E+00
 -1      5725 5.18933E+01-3.81847E+01 3.72051E+00
 -1      5726 5.30066E+01-2.86551E+01 2.27740E+00
 -1      5727 4.61700E+01-2.35787E+01 1.64973E+00
 -1      5728 5.13807E+01-5.05449E+01 4.86131E+00
 -1      5729 5.33770E+01-4.42058E+01 3.80220E+00
 -1      5730 4.64424E+01-4.03364E+01 3.70440E+00
 -1      5731 4.60912E+01-5.48867E+01 5.66389E+00
 -1      5732 4.82763E+01-5.30467E+01 5.32235E+00
 -1      5733 4.50580E+01-4.95010E+01 4.85461E+00
 -1      5734 4.23429E+01-5.30815E+01 5.10911E+00
 -1      5735 4.47032E+01-5.46143E+01 5.40255E+00
 -1      5736 4.21217E+01-5.28492E+01 4.99585E+00
 -1      5737 3.82515E+01-4.83755E+01 3.26544E+00
 -1      5738 4.00188E+01-5.09694E+01 4.22469E+00
 -1      5739 3.89784E+01-5.07155E+01 4.25313E+00
 -1      5740 3.49956E+01-4.44895E+01 1.96219E+00
 -1      5741 3.66198E+01-4.60811E+01 2.44242E+00
 -1      5742 3.55331E+01-4.63257E+01 2.75933E+00
 -1      5743 3.24917E+01-4.28898E+01 1.44103E+00
 -1      5744 3.40482E+01-4.36912E+01 1.67601E+00
 -1      5745 3.34616E+01-4.34944E+01 1.85290E+00
 -1      5746 2.88436E+01-4.15079E+01 1.17992E+00
 -1      5747 3.05746E+01-4.19631E+01 1.31696E+00
 -1      5748 3.05998E+01-4.15443E+01 1.47129E+00
 -1      5749 2.53037E+01-4.13067E+01 9.66189E-01
 -1      5750 2.74081E+01-4.15526E+01 1.05526E+00
 -1      5751 2.71578E+01-4.00739E+01 1.22595E+00
 -1      5752 2.07264E+01-4.02122E+01 8.87107E-01
 -1      5753 2.33171E+01-4.06643E+01 9.37604E-01
 -1      5754 2.37187E+01-3.92523E+01 1.07771E+00
 -1      5755 1.46778E+01-3.78481E+01 8.74436E-01
 -1      5756 1.77755E+01-3.88399E+01 8.90217E-01
 -1      5757 1.87601E+01-3.67867E+01 1.04431E+00
 -1      5758 9.17015E+00-3.65969E+01 8.54986E-01
 -1      5759 1.24585E+01-3.82162E+01 8.25430E-01
 -1      5760 1.34783E+01-3.51789E+01 9.60529E-01
 -1      5761 3.28711E+00-3.26907E+01 9.40205E-01
 -1      5762 6.38585E+00-3.51536E+01 8.79619E-01
 -1      5763 8.47971E+00-3.38864E+01 9.00723E-01
 -1      5764-7.65543E-01-2.67095E+01 1.01410E+00
 -1      5765 1.74989E+00-2.99062E+01 9.62641E-01
 -1      5766 4.03999E+00-2.95433E+01 9.15489E-01
 -1      5767-4.22889E+00-1.95642E+01 1.09913E+00
 -1      5768-2.78772E+00-2.30742E+01 1.05130E+00
 -1      5769-4.92195E-03-2.29272E+01 8.85940E-01
 -1      5770-5.96464E+00-1.36433E+01 1.25780E+00
 -1      5771-5.64995E+00-1.69478E+01 1.21112E+00
 -1      5772-3.60519E+00-1.63493E+01 9.73595E-01
 -1      5773-4.67749E+00-7.23128E+00 1.22427E+00
 -1      5774-5.24690E+00-9.99493E+00 1.21045E+00
 -1      5775-4.31857E+00-1.00181E+01 1.02745E+00
 -1      5776-3.09289E+00-3.27625E+00 1.15606E+00
 -1      5777-4.23909E+00-5.43602E+00 1.26409E+00
 -1      5778-3.18611E+00-4.74180E+00 1.00761E+00
 -1      5779-1.33526E+00-1.48876E+00 6.54172E-01
 -1      5780 8.00956E-01 3.24207E+00-3.29656E-01
 -1      5781 1.24147E+00 3.72626E+00-1.66102E-01
 -1      5782 2.88548E+00 7.08665E+00-3.77837E-01
 -1      5783 1.09423E-01 1.81064E+00-3.94449E-01
 -1      5784 2.59413E-01 1.98086E+00-3.52665E-01
 -1      5785 1.19659E+00 5.25675E+00-5.73466E-01
 -1      5786-3.71082E-02 2.81497E+00-7.04286E-01
 -1      5787 3.07026E-01 4.82732E+00-8.74562E-01
 -1      5788-1.23798E+00-1.58758E+00 5.93297E-01
 -1      5789-8.30559E-01-2.09947E+00 2.22491E-01
 -1      5790-9.53953E-01-1.82968E+00 3.40003E-01
 -1      5791-2.54891E+00-5.49655E+00 7.20159E-01
 -1      5792-1.79427E+00-2.98675E+00 6.26332E-01
 -1      5793-5.12172E-01-4.37509E+00-1.15986E-01
 -1      5794-7.87168E-01-3.48827E+00 8.01537E-02
 -1      5795-1.46339E+00-6.09681E+00 3.05785E-01
 -1      5796 5.82291E-02-9.20436E+00-2.49910E-02
 -1      5797 1.41013E+01-2.15109E+01 2.27019E+00
 -1      5798 1.45372E+01-1.84851E+01 3.27083E+00
 -1      5799 1.51198E+01-1.91020E+01 2.97818E+00
 -1      5800 1.27607E+01-2.56545E+01-3.11812E-01
 -1      5801 1.32435E+01-2.52956E+01 4.38467E-01
 -1      5802 1.53979E+01-2.68110E+01 9.85066E-01
 -1      5803 1.42612E+01-2.37701E+01 1.42039E+00
 -1      5804 1.59493E+01-2.34734E+01 2.04978E+00
 -1      5805 1.14638E+01-2.12172E+01-1.12935E+00
 -1      5806 1.18625E+01-2.41826E+01-9.91126E-01
 -1      5807 1.36806E+01-2.59725E+01-2.55360E-01
 -1      5808 1.25523E+01-1.26828E+01-6.29299E-01
 -1      5809 1.25789E+01-1.81027E+01-8.71952E-01
 -1      5810 1.40538E+01-2.13385E+01-5.88290E-01
 -1      5811 1.17440E+01 3.06593E+00 1.53332E-04
 -1      5812 1.20382E+01-1.64647E+00-1.10462E-01
 -1      5813 1.63800E+01-1.18330E+01-3.58485E-01
 -1      5814 1.36418E+01-6.16512E+00-3.20580E-01
 -1      5815 1.62051E+01-8.94095E-01-3.69761E-01
 -1      5816 1.04322E+01 7.20715E+00-1.04703E+00
 -1      5817 1.10953E+01 6.19999E+00-3.73913E-01
 -1      5818 1.40858E+01 6.57596E+00-6.06652E-01
 -1      5819 1.21041E+01 8.35732E+00-1.43235E+00
 -1      5820 2.31957E+01-2.93600E+01 9.69414E-01
 -1      5821 1.90367E+01-2.55958E+01 3.21075E-01
 -1      5822 2.14568E+01-3.02883E+01 8.88786E-01
 -1      5823 1.85419E+01-2.94333E+01 6.10814E-01
 -1      5824 2.27081E+01-3.32813E+01 1.24299E+00
 -1      5825 2.36213E+01-2.36299E+01 6.17968E-01
 -1      5826 2.59869E+01-2.98505E+01 1.25655E+00
 -1      5827 2.96837E+01-2.78492E+01 1.39696E+00
 -1      5828 2.91736E+01-3.42628E+01 1.87624E+00
 -1      5829 2.23093E+01-3.43890E+01 1.38093E+00
 -1      5830 2.51027E+01-3.65871E+01 1.67628E+00
 -1      5831 2.77818E+01-4.01560E+01 2.13440E+00
 -1      5832 2.83235E+01-3.95710E+01 2.14726E+00
 -1      5833 3.21302E+01-4.35761E+01 2.91570E+00
 -1      5834 2.96289E+01-3.85487E+01 2.27113E+00
 -1      5835 3.32669E+01-3.84956E+01 2.70305E+00
 -1      5836 2.52824E+01-7.38464E+00-3.05380E-01
 -1      5837 2.77859E+01-3.20608E+00-5.73336E-01
 -1      5838 2.53736E+01-5.74070E-01-7.17564E-01
 -1      5839 3.00989E+01-6.21152E+00-3.63109E-01
 -1      5840 3.03020E+01 1.33357E+00-9.55544E-01
 -1      5841 3.13792E+01 1.47138E+01-1.96083E+00
 -1      5842 2.78810E+01 1.03584E+01-1.46540E+00
 -1      5843 3.14034E+01 8.29540E+00-1.55291E+00
 -1      5844 2.46230E+01 9.84515E+00-1.28816E+00
 -1      5845 2.48529E+01 3.94409E+00-9.44465E-01
 -1      5846 3.37837E+01 6.12730E+00-1.48877E+00
 -1      5847 2.23230E+01 1.84574E-02-6.42334E-01
 -1      5848 2.23653E+01-3.33256E+01 1.64536E+00
 -1      5849 2.18904E+01-3.19526E+01 1.70886E+00
 -1      5850 2.36823E+01-3.44019E+01 1.70660E+00
 -1      5851 2.55417E+01-3.67237E+01 1.74414E+00
 -1      5852 2.47646E+01-3.54128E+01 1.70777E+00
 -1      5853 2.27990E+01-3.36005E+01 1.58664E+00
 -1      5854 2.42616E+01-3.48155E+01 1.64168E+00
 -1      5855 2.18009E+01-3.17254E+01 1.69835E+00
 -1      5856 2.01469E+01-2.92136E+01 1.81167E+00
 -1      5857 2.12580E+01-3.06996E+01 1.75719E+00
 -1      5858 2.59811E+01-3.67659E+01 1.65624E+00
 -1      5859 2.00284E+01-2.93053E+01 1.76735E+00
 -1      5860 2.07343E+01 1.74009E+01-1.60801E+00
 -1      5861 2.22695E+01 1.72334E+01-1.66079E+00
 -1      5862 2.53181E+01 2.06284E+01-1.74793E+00
 -1      5863 1.92670E+01 1.40543E+01-1.54510E+00
 -1      5864 2.40249E+01 1.73812E+01-1.69049E+00
 -1      5865 3.10917E+01 2.08692E+01-2.24104E+00
 -1      5866 3.05910E+01 2.29481E+01-2.19830E+00
 -1      5867 2.74556E+01 1.87340E+01-1.90882E+00
 -1      5868 2.44365E+01 1.49008E+01-1.60346E+00
 -1      5869 2.75373E+01 2.30400E+01-1.75796E+00
 -1      5870 2.94326E+01 2.32750E+01-1.99334E+00
 -1      5871 3.29774E+01 2.55587E+01-2.34386E+00
 -1      5872 1.56702E+01-3.22662E+01 1.19641E+00
 -1      5873 1.30865E+01-2.79019E+01 1.27932E+00
 -1      5874 1.31554E+01-3.09121E+01 1.12262E+00
 -1      5875 1.76880E+01-3.44138E+01 1.15869E+00
 -1      5876 1.76655E+01-3.17849E+01 1.35766E+00
 -1      5877 2.00786E+01-3.22707E+01 1.48352E+00
 -1      5878 1.82673E+01-2.99129E+01 1.57139E+00
 -1      5879 1.79324E+01-2.77230E+01 1.78516E+00
 -1      5880 1.54131E+01-2.71007E+01 1.60347E+00
 -1      5881 1.27995E+01-2.53998E+01 1.46403E+00
 -1      5882 1.37969E+01 1.94768E+01-1.07203E+00
 -1      5883 1.56113E+01 1.88144E+01-1.15708E+00
 -1      5884 1.66057E+01 2.07504E+01-1.15162E+00
 -1      5885 1.93170E+01 2.28651E+01-1.18869E+00
 -1      5886 1.13556E+01 1.51915E+01-9.80348E-01
 -1      5887 1.43980E+01 1.66825E+01-1.16229E+00
 -1      5888 1.33342E+01 1.44208E+01-1.20963E+00
 -1      5889 1.77340E+01 1.81015E+01-1.33466E+00
 -1      5890 2.46714E+01 2.50749E+01-1.29619E+00
 -1      5891 2.16457E+01 2.34185E+01-1.25135E+00
 -1      5892 2.16745E+01 2.20493E+01-1.33186E+00
 -1      5893 2.42671E+01 2.23251E+01-1.47627E+00
 -1      5894 2.10922E+01 2.02959E+01-1.40840E+00
 -1      5895 2.01646E+01 1.82593E+01-1.51089E+00
 -1      5896 5.36419E+00-2.82560E+01 9.14925E-01
 -1      5897 6.14181E+00-2.53676E+01 9.06842E-01
 -1      5898 3.17439E+00-2.35355E+01 8.32065E-01
 -1      5899 9.44374E+00-2.80437E+01 1.04741E+00
 -1      5900 6.73650E+00-2.34101E+01 9.05331E-01
 -1      5901 2.64728E+00-1.58920E+01 3.91052E-01
 -1      5902 5.30707E+00-1.97720E+01 7.13296E-01
 -1      5903 9.19419E+00-2.31025E+01 1.11218E+00
 -1      5904-1.22745E+00-1.41228E+01 5.91633E-01
 -1      5905 6.38497E-01-1.95140E+01 7.25104E-01
 -1      5906 7.08097E-01-1.42613E+01 3.66630E-01
 -1      5907 4.42740E+01-4.86360E+00-6.00095E-01
 -1      5908 3.77329E+01-8.39120E+00-1.63594E-01
 -1      5909 4.05835E+01-1.52190E+01 6.06171E-01
 -1      5910 3.67660E+01-2.93034E-02-1.01855E+00
 -1      5911 3.36246E+01-9.27745E+00-8.63552E-02
 -1      5912 2.70200E+01-1.71827E+01 3.95103E-01
 -1      5913 3.03573E+01-2.08462E+01 8.39761E-01
 -1      5914 3.10632E+01-1.37509E+01 2.54203E-01
 -1      5915 3.37403E+01-2.58107E+01 1.49994E+00
 -1      5916 3.94874E+01-2.53534E+01 1.76881E+00
 -1      5917 3.84457E+01-3.35846E+01 2.64580E+00
 -1      5918 3.22017E+01-4.27104E+01 1.91559E+00
 -1      5919 3.24150E+01-4.35183E+01 2.20930E+00
 -1      5920 3.01375E+01-4.12513E+01 1.95227E+00
 -1      5921 2.84468E+01-3.93797E+01 1.75087E+00
 -1      5922 2.81433E+01-3.95140E+01 1.89611E+00
 -1      5923 2.45090E+01-3.65679E+01 1.70967E+00
 -1      5924 2.70978E+01-3.88574E+01 1.89857E+00
 -1      5925 2.74596E+01-3.97253E+01 1.99977E+00
 -1      5926 3.03677E+01-4.27949E+01 2.41386E+00
 -1      5927 3.33102E+01-4.51431E+01 2.72365E+00
 -1      5928 3.41490E+01-4.65836E+01 3.16491E+00
 -1      5929 1.82867E+01-1.65681E+01-1.73302E-01
 -1      5930 1.93349E+01-1.00328E+01-2.46255E-01
 -1      5931 2.02078E+01-5.01364E+00-4.02690E-01
 -1      5932 2.19809E+01-9.89480E+00-2.16382E-01
 -1      5933 2.42703E+01-1.29138E+01-1.90092E-03
 -1      5934 2.37530E+01-1.89224E+01 3.50245E-01
 -1      5935 2.09467E+01-1.96514E+01 1.90634E-01
 -1      5936 1.81384E+01-2.08185E+01-3.14666E-02
 -1      5937 9.16864E+00 1.77016E+01-1.02686E+00
 -1      5938 1.12639E+01 1.82404E+01-1.01367E+00
 -1      5939 1.01042E+01 1.60938E+01-9.53436E-01
 -1      5940 8.66510E+00 1.37314E+01-8.20076E-01
 -1      5941 5.94065E+00 1.12529E+01-6.54387E-01
 -1      5942 3.63094E+00 1.08822E+01-8.58093E-01
 -1      5943 4.81530E+00 1.08850E+01-6.97222E-01
 -1      5944 6.06077E+00 1.45385E+01-9.66328E-01
 -1      5945 1.77594E+01-2.86698E+01 1.33655E+00
 -1      5946 1.69236E+01-2.90053E+01 8.90972E-01
 -1      5947 1.84802E+01-2.82489E+01 1.61894E+00
 -1      5948 1.99596E+01-3.10164E+01 1.48477E+00
 -1      5949 2.19879E+01-3.41113E+01 1.46986E+00
 -1      5950 2.19185E+01-3.35416E+01 1.54607E+00
 -1      5951 1.95475E+01-3.16817E+01 1.11390E+00
 -1      5952 1.70716E+01-2.92366E+01 6.35207E-01
 -1      5953 4.01217E+01 1.71093E+01-2.89255E+00
 -1      5954 4.17266E+01 2.37552E+01-3.60066E+00
 -1      5955 3.66420E+01 1.96300E+01-2.79764E+00
 -1      5956 4.28206E+01 2.83426E+01-4.04916E+00
 -1      5957 3.29723E+01 2.00077E+01-2.39458E+00
 -1      5958 3.61935E+01 2.53801E+01-2.99532E+00
 -1      5959 3.87828E+01 2.87744E+01-3.33396E+00
 -1      5960 4.09820E+01 2.91115E+01-3.78026E+00
 -1      5961 2.37695E+01 1.21838E+01-1.40484E+00
 -1      5962 2.07327E+01 7.07503E+00-9.45098E-01
 -1      5963 2.02900E+01 1.18815E+01-1.26562E+00
 -1      5964 1.71744E+01 6.07630E+00-7.08324E-01
 -1      5965 1.66573E+01 9.18204E+00-9.83634E-01
 -1      5966 1.72407E+01 1.11069E+01-1.23090E+00
 -1      5967 1.83131E+01 3.35666E+00-6.26045E-01
 -1      5968-3.24350E+00-8.18157E+00 8.13897E-01
 -1      5969-2.29280E+00-7.07652E+00 5.71789E-01
 -1      5970-3.66995E+00-1.20399E+01 8.94517E-01
 -1      5971-1.69389E+00-9.34748E+00 4.44474E-01
 -1      5972-2.55721E+00-1.45619E+01 7.82297E-01
 -1      5973 2.59383E+01-3.84076E+01 1.33058E+00
 -1      5974 2.44913E+01-3.83272E+01 1.21326E+00
 -1      5975 2.70186E+01-3.85164E+01 1.45730E+00
 -1      5976 2.43393E+01-3.61470E+01 1.44363E+00
 -1      5977 2.18197E+01-3.36811E+01 1.47552E+00
 -1      5978 2.14284E+01-3.51409E+01 1.30864E+00
 -1      5979 2.24777E+01-3.72632E+01 1.18510E+00
 -1      5980 2.06328E+01-3.62584E+01 1.16918E+00
 -1      5981 1.63194E+01-2.28542E+01-1.64803E-01
 -1      5982 1.51169E+01-2.51348E+01-2.14668E-01
 -1      5983 1.57392E+01-2.74468E+01 1.76150E-01
 -1      5984 1.88882E+01-2.76422E+01 1.92338E+00
 -1      5985 1.65124E+01-2.43239E+01 2.08855E+00
 -1      5986 1.84980E+01-2.61109E+01 2.06811E+00
 -1      5987 1.57226E+01-2.13031E+01 2.56716E+00
 -1      5988 1.65655E+01-2.23390E+01 2.46428E+00
 -1      5989 1.43998E+01-2.15853E+01 2.21651E+00
 -1      5990 1.74648E+01-2.44512E+01 2.17391E+00
 -1      5991 3.67833E+01-4.90436E+01 3.75799E+00
 -1      5992 3.36722E+01-4.59830E+01 3.20327E+00
 -1      5993 3.92071E+01-5.09608E+01 4.45778E+00
 -1      5994 3.79623E+01-4.71359E+01 4.02783E+00
 -1      5995 3.51578E+01-4.61592E+01 3.52908E+00
 -1      5996 3.93312E+01-5.02081E+01 4.42050E+00
 -1      5997 1.55174E+01 1.10254E+01-1.43187E+00
 -1      5998 1.43394E+01 1.06857E+01-1.67296E+00
 -1      5999 1.74193E+01 1.47877E+01-1.56434E+00
 -1      6000 1.49064E+01 1.20256E+01-1.61919E+00
 -1      6001 1.44351E+01 1.33082E+01-1.47942E+00
 -1      6002 3.03234E+01 2.53044E+01-1.80914E+00
 -1      6003 2.63475E+01 2.30961E+01-1.59440E+00
 -1      6004 2.68703E+01 2.44958E+01-1.49407E+00
 -1      6005 2.93547E+01 2.64405E+01-1.46689E+00
 -1      6006 3.23319E+01 2.71387E+01-1.71695E+00
 -1      6007 3.37860E+01 2.73911E+01-1.96285E+00
 -1      6008 2.72502E+01 2.58813E+01-1.36749E+00
 -1      6009 1.13053E+00 6.50451E+00-8.11606E-01
 -1      6010 8.21792E-01 7.37846E+00-1.01589E+00
 -1      6011 1.67141E+00 1.00901E+01-1.09839E+00
 -1      6012 3.13160E+00 1.18891E+01-1.02752E+00
 -1      6013 2.22962E+00 8.07602E+00-7.49705E-01
 -1      6014 3.79226E+01 8.20892E+00-1.86728E+00
 -1      6015 4.34501E+01 1.20476E+01-2.58944E+00
 -1      6016 4.65179E+01 5.44066E+00-1.93039E+00
 -1      6017 2.93976E+01-4.03938E+01 1.53959E+00
 -1      6018 2.76918E+01-3.86175E+01 1.62364E+00
 -1      6019 3.15093E+01-4.20048E+01 1.67796E+00
 -1      6020 3.61089E+01-3.76375E+01 2.92709E+00
 -1      6021 4.19337E+01-3.88339E+01 3.41116E+00
 -1      6022 4.33956E+01-4.43205E+01 4.20198E+00
 -1      6023 4.10144E+01-4.74171E+01 4.31808E+00
 -1      6024 3.62518E+01-4.29211E+01 3.46052E+00
 -1      6025 1.21752E+01-3.25945E+01 1.01523E+00
 -1      6026 9.95500E+00-3.26999E+01 9.49055E-01
 -1      6027 7.14428E+00-3.10086E+01 9.29999E-01
 -1      6028 1.95035E+01-6.01245E-01-5.39518E-01
 -1      6029 3.70220E+01 2.84087E+01-2.79558E+00
 -1      6030 3.54534E+01 2.79399E+01-2.36114E+00
 -1      6031 1.19161E+01-2.21852E+01 1.60178E+00
 -1      6032 1.81410E+01-2.66576E+01 1.84669E+00
 -1      6033 0.00000E+00 0.00000E+00 0.00000E+00
 -1      6034 0.00000E+00 0.00000E+00 0.00000E+00
 -1      6035 0.00000E+00 0.00000E+00 0.00000E+00
 -1      6036 0.00000E+00 0.00000E+00 0.00000E+00
 -1      6037 0.00000E+00 0.00000E+00 0.00000E+00
 -1      6038 0.00000E+00 0.00000E+00 0.00000E+00
 -1      6039 0.00000E+00 0.00000E+00 0.00000E+00
 -1      6040 0.00000E+00 0.00000E+00 0.00000E+00
 -1      6041 0.00000E+00 0.00000E+00 0.00000E+00
 -1      6042 0.00000E+00 0.00000E+00 0.00000E+00
 -1      6043 0.00000E+00 0.00000E+00 0.00000E+00
 -1      6044 0.00000E+00 0.00000E+00 0.00000E+00
 -1      6045 0.00000E+00 0.00000E+00 0.00000E+00
 -1      6046 0.00000E+00 0.00000E+00 0.00000E+00
 -1      6047 0.00000E+00 0.00000E+00 0.00000E+00
 -1      6048 0.00000E+00 0.00000E+00 0.00000E+00
 -1      6049 0.00000E+00 0.00000E+00 0.00000E+00
 -1      6050 0.00000E+00 0.00000E+00 0.00000E+00
 -1      6051 0.00000E+00 0.00000E+00 0.00000E+00
 -1      6052 0.00000E+00 0.00000E+00 0.00000E+00
 -1      6053 0.00000E+00 0.00000E+00 0.00000E+00
 -1      6054 0.00000E+00 0.00000E+00 0.00000E+00
 -1      6055 0.00000E+00 0.00000E+00 0.00000E+00
 -1      6056 0.00000E+00 0.00000E+00 0.00000E+00
 -1      6057 0.00000E+00 0.00000E+00 0.00000E+00
 -1      6058 0.00000E+00 0.00000E+00 0.00000E+00
 -1      6059 0.00000E+00 0.00000E+00 0.00000E+00
 -1      6060 0.00000E+00 0.00000E+00 0.00000E+00
 -1      6061 0.00000E+00 0.00000E+00 0.00000E+00
 -1      6062 0.00000E+00 0.00000E+00 0.00000E+00
 -1      6063 0.00000E+00 0.00000E+00 0.00000E+00
 -1      6064 0.00000E+00 0.00000E+00 0.00000E+00
 -1      6065 0.00000E+00 0.00000E+00 0.00000E+00
 -1      6066 0.00000E+00 0.00000E+00 0.00000E+00
 -1      6067 0.00000E+00 0.00000E+00 0.00000E+00
 -1      6068 0.00000E+00 0.00000E+00 0.00000E+00
 -1      6069 0.00000E+00 0.00000E+00 0.00000E+00
 -1      6070 0.00000E+00 0.00000E+00 0.00000E+00
 -1      6071 0.00000E+00 0.00000E+00 0.00000E+00
 -1      6072 0.00000E+00 0.00000E+00 0.00000E+00
 -1      6073 0.00000E+00 0.00000E+00 0.00000E+00
 -1      6074 0.00000E+00 0.00000E+00 0.00000E+00
 -1      6075 0.00000E+00 0.00000E+00 0.00000E+00
 -1      6076 0.00000E+00 0.00000E+00 0.00000E+00
 -1      6077 0.00000E+00 0.00000E+00 0.00000E+00
 -1      6078 0.00000E+00 0.00000E+00 0.00000E+00
 -1      6079 0.00000E+00 0.00000E+00 0.00000E+00
 -1      6080 0.00000E+00 0.00000E+00 0.00000E+00
 -1      6081 0.00000E+00 0.00000E+00 0.00000E+00
 -1      6082 0.00000E+00 0.00000E+00 0.00000E+00
 -1      6083 0.00000E+00 0.00000E+00 0.00000E+00
 -1      6084 0.00000E+00 0.00000E+00 0.00000E+00
 -1      6085 0.00000E+00 0.00000E+00 0.00000E+00
 -1      6086 0.00000E+00 0.00000E+00 0.00000E+00
 -1      6087 0.00000E+00 0.00000E+00 0.00000E+00
 -1      6088 0.00000E+00 0.00000E+00 0.00000E+00
 -1      6089 0.00000E+00 0.00000E+00 0.00000E+00
 -1      6090 0.00000E+00 0.00000E+00 0.00000E+00
 -1      6091 0.00000E+00 0.00000E+00 0.00000E+00
 -1      6092 0.00000E+00 0.00000E+00 0.00000E+00
 -1      6093 0.00000E+00 0.00000E+00 0.00000E+00
 -1      6094 0.00000E+00 0.00000E+00 0.00000E+00
 -1      6095 0.00000E+00 0.00000E+00 0.00000E+00
 -1      6096 0.00000E+00 0.00000E+00 0.00000E+00
 -1      6097 0.00000E+00 0.00000E+00 0.00000E+00
 -1      6098 1.45054E+04 1.22684E+03 1.01911E+00
 -1      6099 1.45055E+04-1.25879E+03 8.56948E-01
 -1      6100 1.54482E+04-1.25879E+03 8.90178E-01
 -1      6101 1.54481E+04 1.22684E+03 1.05239E+00
 -1      6102 1.48137E+04-1.34980E+03 8.61935E-01
 -1      6103 1.51400E+04-1.34980E+03 8.73435E-01
 -1      6104 1.48135E+04 1.31786E+03 1.03598E+00
 -1      6105 1.51399E+04 1.31786E+03 1.04748E+00
 -1      6106 1.59517E+04 8.58009E+02 1.04614E+00
 -1      6107 1.59518E+04-8.90011E+02 9.32046E-01
 -1      6108 1.40018E+04-8.89958E+02 8.63111E-01
 -1      6109 1.40017E+04 8.58072E+02 9.77416E-01
 -1      6110 1.42093E+04-1.13884E+03 8.54616E-01
 -1      6111 1.42092E+04 1.10690E+03 1.00116E+00
 -1      6112 1.57443E+04 1.10689E+03 1.05503E+00
 -1      6113 1.57443E+04-1.13886E+03 9.08423E-01
 -1      6114 1.41437E+04 9.86668E+02 9.90564E-01
 -1      6115 1.41438E+04-1.01858E+03 8.59677E-01
 -1      6116 1.58098E+04-1.01862E+03 9.18643E-01
 -1      6117 1.58098E+04 9.86629E+02 1.04951E+00
 -1      6118 1.48951E+04 1.29115E+03 1.03661E+00
 -1      6119 1.48951E+04 1.38279E+03 1.04363E+00
 -1      6120 1.49767E+04 1.35609E+03 1.04436E+00
 -1      6121 1.50583E+04 1.29115E+03 1.04245E+00
 -1      6122 1.50583E+04 1.38279E+03 1.04931E+00
 -1      6123 1.52335E+04 1.36153E+03 1.05401E+00
 -1      6124 1.47200E+04 1.36152E+03 1.03624E+00
 -1      6125 1.60187E+04-7.73119E+02 9.42217E-01
 -1      6126 1.58702E+04-8.58896E+02 9.31400E-01
 -1      6127 1.57134E+04-1.07173E+03 9.11811E-01
 -1      6128 1.57992E+04-9.23198E+02 9.24674E-01
 -1      6129 1.58808E+04-9.54313E+02 9.25336E-01
 -1      6130 1.62155E+04-5.95640E+02 9.60363E-01
 -1      6131 1.62155E+04-4.24082E+02 9.71813E-01
 -1      6132 1.61335E+04-7.51853E+02 9.47331E-01
 -1      6133 1.60666E+04-8.68745E+02 9.37211E-01
 -1      6134 1.53610E+04-1.19182E+03 8.91245E-01
 -1      6135 1.55326E+04-1.19182E+03 8.97450E-01
 -1      6136 1.55526E+04-1.28540E+03 8.92185E-01
 -1      6137 1.56370E+04-1.21843E+03 8.99484E-01
 -1      6138 1.57007E+04-1.22544E+03 9.01235E-01
 -1      6139 1.56807E+04-1.13185E+03 9.06674E-01
 -1      6140 1.57771E+04-1.07874E+03 9.13529E-01
 -1      6141 1.50584E+04-1.32310E+03 8.71968E-01
 -1      6142 1.52070E+04-1.23732E+03 8.82734E-01
 -1      6143 1.53876E+04-1.34796E+03 8.82418E-01
 -1      6144 1.53005E+04-1.28099E+03 8.83460E-01
 -1      6145 1.52336E+04-1.39347E+03 8.74144E-01
 -1      6146 1.47467E+04-1.23732E+03 8.66075E-01
 -1      6147 1.48953E+04-1.32310E+03 8.66115E-01
 -1      6148 1.48953E+04-1.41473E+03 8.61031E-01
 -1      6149 1.49768E+04-1.38803E+03 8.65282E-01
 -1      6150 1.50584E+04-1.41473E+03 8.66675E-01
 -1      6151 1.44211E+04-1.19181E+03 8.57743E-01
 -1      6152 1.45926E+04-1.19181E+03 8.63567E-01
 -1      6153 1.45660E+04-1.34796E+03 8.53991E-01
 -1      6154 1.46532E+04-1.28099E+03 8.60562E-01
 -1      6155 1.47201E+04-1.39347E+03 8.56441E-01
 -1      6156 1.41544E+04-9.23151E+02 8.65586E-01
 -1      6157 1.42402E+04-1.07171E+03 8.59130E-01
 -1      6158 1.44011E+04-1.28540E+03 8.52342E-01
 -1      6159 1.43166E+04-1.21842E+03 8.53249E-01
 -1      6160 1.42530E+04-1.22543E+03 8.51232E-01
 -1      6161 1.42730E+04-1.13184E+03 8.56491E-01
 -1      6162 1.41766E+04-1.07871E+03 8.57124E-01
 -1      6163 1.39349E+04-7.73046E+02 8.68081E-01
 -1      6164 1.40835E+04-8.58837E+02 8.67452E-01
 -1      6165 1.40728E+04-9.54271E+02 8.61427E-01
 -1      6166 1.37381E+04-5.95533E+02 8.73065E-01
 -1      6167 1.37381E+04-4.23947E+02 8.84871E-01
 -1      6168 1.38201E+04-7.51775E+02 8.65825E-01
 -1      6169 1.38870E+04-8.68688E+02 8.60796E-01
 -1      6170 1.36959E+04-2.52625E+02 8.94589E-01
 -1      6171 1.36101E+04-1.04067E+02 9.00130E-01
 -1      6172 1.36101E+04 7.23680E+01 9.11374E-01
 -1      6173 1.36958E+04 2.20905E+02 9.25464E-01
 -1      6174 1.37381E+04 3.92192E+02 9.38278E-01
 -1      6175 1.37381E+04 5.63733E+02 9.48719E-01
 -1      6176 1.40833E+04 8.26958E+02 9.77814E-01
 -1      6177 1.39348E+04 7.41190E+02 9.67427E-01
 -1      6178 1.38200E+04 7.19927E+02 9.62128E-01
 -1      6179 1.38870E+04 8.36808E+02 9.72111E-01
 -1      6180 1.42401E+04 1.03978E+03 9.96868E-01
 -1      6181 1.41543E+04 8.91256E+02 9.84158E-01
 -1      6182 1.40727E+04 9.22370E+02 9.84006E-01
 -1      6183 1.45925E+04 1.15987E+03 1.01689E+00
 -1      6184 1.44209E+04 1.15987E+03 1.01120E+00
 -1      6185 1.44009E+04 1.25345E+03 1.01795E+00
 -1      6186 1.43165E+04 1.18648E+03 1.01006E+00
 -1      6187 1.42528E+04 1.19348E+03 1.00903E+00
 -1      6188 1.42728E+04 1.09990E+03 1.00212E+00
 -1      6189 1.41764E+04 1.04679E+03 9.95813E-01
 -1      6190 1.47466E+04 1.20537E+03 1.02535E+00
 -1      6191 1.45659E+04 1.31602E+03 1.02783E+00
 -1      6192 1.46530E+04 1.24904E+03 1.02559E+00
 -1      6193 1.52069E+04 1.20537E+03 1.04202E+00
 -1      6194 1.55325E+04 1.15986E+03 1.05088E+00
 -1      6195 1.53609E+04 1.15986E+03 1.04461E+00
 -1      6196 1.53875E+04 1.31602E+03 1.05635E+00
 -1      6197 1.53004E+04 1.24904E+03 1.04853E+00
 -1      6198 1.57991E+04 8.91200E+02 1.04301E+00
 -1      6199 1.57134E+04 1.03975E+03 1.04956E+00
 -1      6200 1.55525E+04 1.25345E+03 1.05796E+00
 -1      6201 1.56369E+04 1.18647E+03 1.05646E+00
 -1      6202 1.57006E+04 1.19348E+03 1.05921E+00
 -1      6203 1.56806E+04 1.09988E+03 1.05229E+00
 -1      6204 1.57770E+04 1.04676E+03 1.05226E+00
 -1      6205 1.60187E+04 7.41104E+02 1.04103E+00
 -1      6206 1.58701E+04 8.26890E+02 1.04136E+00
 -1      6207 1.58808E+04 9.22319E+02 1.04782E+00
 -1      6208 1.62155E+04 3.92039E+02 1.02509E+00
 -1      6209 1.62155E+04 5.63607E+02 1.03606E+00
 -1      6210 1.61335E+04 7.19835E+02 1.04342E+00
 -1      6211 1.60666E+04 8.36740E+02 1.04859E+00
 -1      6212 1.63435E+04 7.21862E+01 1.00845E+00
 -1      6213 1.62577E+04 2.20732E+02 1.01542E+00
 -1      6214 1.62577E+04-2.52784E+02 9.84516E-01
 -1      6215 1.63435E+04-1.04243E+02 9.96948E-01
 -1      6216 1.58458E+04 1.09325E+03 1.05767E+00
 -1      6217 1.59496E+04 9.68807E+02 1.05315E+00
 -1      6218 1.58786E+04 1.03312E+03 1.05488E+00
 -1      6219 1.59496E+04-1.00080E+03 9.24514E-01
 -1      6220 1.58459E+04-1.12522E+03 9.12777E-01
 -1      6221 1.58786E+04-1.06510E+03 9.17864E-01
 -1      6222 1.41078E+04-1.12520E+03 8.52725E-01
 -1      6223 1.40040E+04-1.00076E+03 8.56714E-01
 -1      6224 1.40750E+04-1.06507E+03 8.55155E-01
 -1      6225 1.40039E+04 9.68849E+02 9.85234E-01
 -1      6226 1.41077E+04 1.09327E+03 9.97426E-01
 -1      6227 1.40749E+04 1.03315E+03 9.92031E-01
 -1      6228 1.45054E+04 1.22681E+03 1.01917E+00
 -1      6229 1.45056E+04-1.25882E+03 8.57007E-01
 -1      6230 1.54482E+04-1.25882E+03 8.90134E-01
 -1      6231 1.54481E+04 1.22681E+03 1.05237E+00
 -1      6232 1.48137E+04-1.34983E+03 8.61855E-01
 -1      6233 1.51401E+04-1.34983E+03 8.73352E-01
 -1      6234 1.48136E+04 1.31782E+03 1.03591E+00
 -1      6235 1.51400E+04 1.31782E+03 1.04743E+00
 -1      6236 1.59518E+04 8.57978E+02 1.04595E+00
 -1      6237 1.59518E+04-8.90042E+02 9.31823E-01
 -1      6238 1.40019E+04-8.89989E+02 8.63506E-01
 -1      6239 1.40018E+04 8.58041E+02 9.77228E-01
 -1      6240 1.42094E+04-1.13887E+03 8.54133E-01
 -1      6241 1.42092E+04 1.10687E+03 1.00058E+00
 -1      6242 1.57443E+04 1.10685E+03 1.05494E+00
 -1      6243 1.57444E+04-1.13889E+03 9.08359E-01
 -1      6244 1.41438E+04 9.86636E+02 9.90886E-01
 -1      6245 1.41439E+04-1.01861E+03 8.60175E-01
 -1      6246 1.58099E+04-1.01865E+03 9.18444E-01
 -1      6247 1.58098E+04 9.86598E+02 1.04938E+00
 -1      6248 1.48952E+04 1.38276E+03 1.04248E+00
 -1      6249 1.48952E+04 1.29112E+03 1.03754E+00
 -1      6250 1.49768E+04 1.35606E+03 1.04402E+00
 -1      6251 1.50584E+04 1.29112E+03 1.04321E+00
 -1      6252 1.50584E+04 1.38276E+03 1.04831E+00
 -1      6253 1.52335E+04 1.36149E+03 1.05320E+00
 -1      6254 1.47200E+04 1.36149E+03 1.03474E+00
 -1      6255 1.47466E+04 1.20534E+03 1.02713E+00
 -1      6256 1.52069E+04 1.20533E+03 1.04291E+00
 -1      6257 1.45925E+04 1.15984E+03 1.01879E+00
 -1      6258 1.44210E+04 1.15984E+03 1.01239E+00
 -1      6259 1.46531E+04 1.24901E+03 1.02600E+00
 -1      6260 1.45659E+04 1.31598E+03 1.02636E+00
 -1      6261 1.55326E+04 1.15982E+03 1.05109E+00
 -1      6262 1.53610E+04 1.15983E+03 1.04526E+00
 -1      6263 1.53876E+04 1.31599E+03 1.05577E+00
 -1      6264 1.53005E+04 1.24900E+03 1.04870E+00
 -1      6265 1.57992E+04 8.91169E+02 1.04265E+00
 -1      6266 1.57134E+04 1.03972E+03 1.04946E+00
 -1      6267 1.56370E+04 1.18644E+03 1.05633E+00
 -1      6268 1.55526E+04 1.25342E+03 1.05764E+00
 -1      6269 1.56807E+04 1.09985E+03 1.05228E+00
 -1      6270 1.57007E+04 1.19344E+03 1.05901E+00
 -1      6271 1.57771E+04 1.04673E+03 1.05217E+00
 -1      6272 1.60187E+04 7.41072E+02 1.04052E+00
 -1      6273 1.58702E+04 8.26859E+02 1.04091E+00
 -1      6274 1.58808E+04 9.22288E+02 1.04767E+00
 -1      6275 1.62155E+04 3.92008E+02 1.02473E+00
 -1      6276 1.62155E+04 5.63576E+02 1.03616E+00
 -1      6277 1.61336E+04 7.19803E+02 1.04344E+00
 -1      6278 1.60666E+04 8.36709E+02 1.04883E+00
 -1      6279 1.63436E+04 7.21550E+01 1.00859E+00
 -1      6280 1.62578E+04 2.20701E+02 1.01498E+00
 -1      6281 1.62578E+04-2.52815E+02 9.84068E-01
 -1      6282 1.63436E+04-1.04274E+02 9.97082E-01
 -1      6283 1.62156E+04-5.95671E+02 9.60493E-01
 -1      6284 1.62156E+04-4.24113E+02 9.71437E-01
 -1      6285 1.58702E+04-8.58927E+02 9.30797E-01
 -1      6286 1.60188E+04-7.73151E+02 9.41633E-01
 -1      6287 1.61336E+04-7.51885E+02 9.47352E-01
 -1      6288 1.60666E+04-8.68776E+02 9.37492E-01
 -1      6289 1.57135E+04-1.07176E+03 9.11568E-01
 -1      6290 1.57993E+04-9.23229E+02 9.24131E-01
 -1      6291 1.58809E+04-9.54345E+02 9.25135E-01
 -1      6292 1.53611E+04-1.19185E+03 8.91690E-01
 -1      6293 1.55326E+04-1.19185E+03 8.97524E-01
 -1      6294 1.55526E+04-1.28543E+03 8.91974E-01
 -1      6295 1.56371E+04-1.21846E+03 8.99368E-01
 -1      6296 1.57007E+04-1.22547E+03 9.01172E-01
 -1      6297 1.56807E+04-1.13188E+03 9.06551E-01
 -1      6298 1.57771E+04-1.07877E+03 9.13407E-01
 -1      6299 1.50585E+04-1.32313E+03 8.72553E-01
 -1      6300 1.52070E+04-1.23735E+03 8.83435E-01
 -1      6301 1.53006E+04-1.28102E+03 8.83567E-01
 -1      6302 1.53877E+04-1.34799E+03 8.81978E-01
 -1      6303 1.52336E+04-1.39350E+03 8.73498E-01
 -1      6304 1.47468E+04-1.23735E+03 8.67693E-01
 -1      6305 1.48953E+04-1.32313E+03 8.66895E-01
 -1      6306 1.48953E+04-1.41476E+03 8.60034E-01
 -1      6307 1.49769E+04-1.38806E+03 8.65013E-01
 -1      6308 1.50585E+04-1.41476E+03 8.65856E-01
 -1      6309 1.44211E+04-1.19184E+03 8.59028E-01
 -1      6310 1.45927E+04-1.19184E+03 8.65278E-01
 -1      6311 1.45661E+04-1.34799E+03 8.52618E-01
 -1      6312 1.46532E+04-1.28102E+03 8.60914E-01
 -1      6313 1.47202E+04-1.39350E+03 8.55074E-01
 -1      6314 1.41545E+04-9.23182E+02 8.67488E-01
 -1      6315 1.42403E+04-1.07174E+03 8.60611E-01
 -1      6316 1.43167E+04-1.21845E+03 8.52720E-01
 -1      6317 1.44011E+04-1.28543E+03 8.50845E-01
 -1      6318 1.42730E+04-1.13187E+03 8.57631E-01
 -1      6319 1.42530E+04-1.22546E+03 8.49318E-01
 -1      6320 1.41766E+04-1.07874E+03 8.57186E-01
 -1      6321 1.39350E+04-7.73077E+02 8.69075E-01
 -1      6322 1.40835E+04-8.58869E+02 8.68976E-01
 -1      6323 1.40729E+04-9.54302E+02 8.61806E-01
 -1      6324 1.37381E+04-4.23979E+02 8.83971E-01
 -1      6325 1.37381E+04-5.95565E+02 8.73380E-01
 -1      6326 1.38201E+04-7.51806E+02 8.66003E-01
 -1      6327 1.38871E+04-8.68719E+02 8.60500E-01
 -1      6328 1.36101E+04-1.04099E+02 9.01356E-01
 -1      6329 1.36959E+04-2.52656E+02 8.93604E-01
 -1      6330 1.36959E+04 2.20874E+02 9.24601E-01
 -1      6331 1.36101E+04 7.23368E+01 9.13265E-01
 -1      6332 1.37381E+04 5.63702E+02 9.48976E-01
 -1      6333 1.37381E+04 3.92161E+02 9.37072E-01
 -1      6334 1.40834E+04 8.26927E+02 9.78553E-01
 -1      6335 1.39349E+04 7.41159E+02 9.67263E-01
 -1      6336 1.38201E+04 7.19896E+02 9.61689E-01
 -1      6337 1.38870E+04 8.36777E+02 9.71657E-01
 -1      6338 1.42402E+04 1.03975E+03 9.98311E-01
 -1      6339 1.41544E+04 8.91225E+02 9.85597E-01
 -1      6340 1.40728E+04 9.22338E+02 9.84044E-01
 -1      6341 1.44010E+04 1.25342E+03 1.01644E+00
 -1      6342 1.43166E+04 1.18645E+03 1.00963E+00
 -1      6343 1.42529E+04 1.19345E+03 1.00709E+00
 -1      6344 1.42729E+04 1.09987E+03 1.00320E+00
 -1      6345 1.41765E+04 1.04675E+03 9.95785E-01
 -1      6346 1.58459E+04 1.09321E+03 1.05768E+00
 -1      6347 1.59496E+04 9.68776E+02 1.05327E+00
 -1      6348 1.58786E+04 1.03309E+03 1.05493E+00
 -1      6349 1.59496E+04-1.00083E+03 9.24724E-01
 -1      6350 1.58459E+04-1.12525E+03 9.12927E-01
 -1      6351 1.58787E+04-1.06513E+03 9.17992E-01
 -1      6352 1.41078E+04-1.12523E+03 8.50674E-01
 -1      6353 1.40041E+04-1.00079E+03 8.55590E-01
 -1      6354 1.40751E+04-1.06510E+03 8.53786E-01
 -1      6355 1.40040E+04 9.68818E+02 9.84019E-01
 -1      6356 1.41077E+04 1.09324E+03 9.95386E-01
 -1      6357 1.40750E+04 1.03312E+03 9.90619E-01
 -1      6358 1.28244E+01-2.44018E+01 3.56240E-02
 -1      6359 9.21228E+00 2.94076E+00 4.11721E-02
 -1      6360 1.17980E+01-1.59191E+01 9.40011E-01
 -1      6361 1.41782E+01-2.39617E+01 3.54981E-01
 -1      6362 8.66202E+00 6.29538E+00 3.41498E-01
 -1      6363 1.02081E+01-1.85322E+01 6.81668E-02
 -1      6364 8.75894E+00-8.30928E+00 3.30190E-02
 -1      6365 6.53855E+00 5.06686E+00-7.40990E-01
 -1      6366 1.02859E+01-1.15821E+01-1.21731E+00
 -1      6367 6.15450E+00 4.37870E+00 1.34161E+00
 -1      6368 5.49421E+00 4.10117E+00-1.17453E+00
 -1      6369 8.56454E+00-6.96223E+00-2.56600E+00
 -1      6370 8.38463E+00-8.92734E+00 2.29425E+00
 -1      6371 1.38438E+01-2.45940E+01-2.28189E-01
 -1      6372 1.36375E+01-2.50405E+01 9.98448E-02
 -1      6373 9.38945E+00 5.98918E+00 2.11371E-01
 -1      6374 9.13694E+00 6.32904E+00-3.32479E-01
 -1      6375 1.38155E+01-2.09705E+01-9.93824E-01
 -1      6376 1.38937E+01-2.09946E+01 1.72874E+00
 -1      6377 1.11464E+01-2.21907E+01 8.42823E-01
 -1      6378 1.09936E+01-2.19692E+01-6.22683E-01
 -1      6379 8.86543E+00-1.61151E+00 3.63503E-02
 -1      6380 8.85650E+00-1.64460E+00 5.70849E-02
 -1      6381 9.12080E+00-1.31899E+01 6.04389E-01
 -1      6382 9.00051E+00-1.32448E+01-4.54675E-01
 -1      6383 3.48064E+00 2.36962E+00 7.01156E-01
 -1      6384 3.61259E+00 2.47926E+00 1.00059E+00
 -1      6385 8.34119E+00 6.13883E+00 1.70187E+00
 -1      6386 2.85042E+00 2.50181E+00-4.70597E-01
 -1      6387 3.02160E+00 2.22230E+00-9.47336E-01
 -1      6388 8.11923E+00 5.90061E+00-1.80943E+00
 -1      6389 1.15157E+01-1.29907E+01-4.00256E+00
 -1      6390 4.95625E+00-3.61205E+00-1.61837E+00
 -1      6391 4.90041E+00-3.59470E+00-1.15412E+00
 -1      6392 1.13578E+01-1.37863E+01 3.66938E+00
 -1      6393 4.86047E+00-5.10245E+00 1.77212E+00
 -1      6394 4.69422E+00-4.68751E+00 1.14288E+00
 -1      6395 3.84394E+00 3.68046E+00-1.29201E-01
 -1      6396 3.68573E+00 2.81055E+00-5.63267E-01
 -1      6397 5.61232E+00 4.64029E+00 5.00211E-01
 -1      6398 7.89562E+00 5.88025E+00-7.29343E-02
 -1      6399 7.53829E+00 5.66394E+00 8.18600E-01
 -1      6400 6.14417E+00 4.72222E+00-9.36389E-01
 -1      6401 1.34345E+01-1.93882E+01-2.39902E+00
 -1      6402 1.41576E+01-2.28265E+01-1.25701E+00
 -1      6403 9.25644E+00-9.32685E+00-1.91624E+00
 -1      6404 1.19802E+01-1.48121E+01-2.83367E+00
 -1      6405 1.22330E+01-1.69871E+01-1.34162E+00
 -1      6406 1.31214E+01-2.48785E+01 3.75067E-01
 -1      6407 1.39714E+01-2.43620E+01-5.23517E-01
 -1      6408 1.39745E+01-2.32074E+01-6.67668E-01
 -1      6409 1.16599E+01-2.33265E+01 1.09894E+00
 -1      6410 1.03171E+01-2.01018E+01 1.24806E+00
 -1      6411 1.34587E+01-2.48543E+01 8.64548E-02
 -1      6412 1.26085E+01-2.41917E+01 5.36302E-01
 -1      6413 1.20701E+01-2.34413E+01 3.71671E-01
 -1      6414 9.36713E+00-1.54420E+01 1.05934E+00
 -1      6415 8.89508E+00-9.98806E+00 5.81641E-01
 -1      6416 1.07059E+01-2.04249E+01 4.51428E-01
 -1      6417 9.97654E+00-1.80173E+01 7.98600E-01
 -1      6418 9.62773E+00-1.59590E+01 3.83063E-01
 -1      6419 8.94308E+00 8.60025E-01-1.13902E-01
 -1      6420 8.77466E+00-4.08510E+00 1.88404E-01
 -1      6421 8.73356E+00-7.53486E+00 2.98344E-01
 -1      6422 8.72128E+00-4.97532E+00 1.05556E-01
 -1      6423 8.91950E+00-1.07610E+01 2.79611E-01
 -1      6424 9.33249E+00 6.49971E+00 5.94946E-01
 -1      6425 9.26996E+00 4.82536E+00-3.20344E-02
 -1      6426 9.22640E+00 2.92748E+00-2.54340E-02
 -1      6427 9.40904E+00 4.60510E+00 4.69164E-02
 -1      6428 9.05021E+00 8.22286E-01 3.24746E-02
 -1      6429 9.07037E+00 6.53045E+00 9.28922E-01
 -1      6430 9.19146E+00 6.48074E+00 3.86795E-01
 -1      6431 1.35173E+01-1.94015E+01 2.86346E+00
 -1      6432 1.39242E+01-2.27160E+01 1.66745E+00
 -1      6433 1.22851E+01-1.68809E+01 2.55738E+00
 -1      6434 1.03487E+01-1.25144E+01 1.69132E+00
 -1      6435 1.30267E+01-1.87683E+01 1.51190E+00
 -1      6436 1.27329E+01-2.49589E+01-4.08783E-01
 -1      6437 1.36741E+01-2.46703E+01 5.19402E-01
 -1      6438 1.40418E+01-2.46824E+01 3.30845E-01
 -1      6439 1.40116E+01-2.40141E+01 8.96654E-01
 -1      6440 1.40888E+01-2.26361E+01 9.39130E-01
 -1      6441 1.14278E+01-2.33652E+01-9.54173E-01
 -1      6442 1.02329E+01-2.01445E+01-1.05798E+00
 -1      6443 1.25096E+01-2.43518E+01-4.01294E-01
 -1      6444 1.33141E+01-2.49083E+01-1.35842E-02
 -1      6445 1.20351E+01-2.33669E+01-2.04196E-01
 -1      6446 9.31008E+00-1.56287E+01-9.10847E-01
 -1      6447 8.70390E+00-1.00793E+01-4.51856E-01
 -1      6448 9.92631E+00-1.80672E+01-6.66550E-01
 -1      6449 1.06327E+01-2.03381E+01-2.84905E-01
 -1      6450 9.57498E+00-1.59479E+01-2.42119E-01
 -1      6451 8.87398E+00 8.03133E-01 1.79330E-01
 -1      6452 8.59239E+00-4.15997E+00-6.42411E-02
 -1      6453 8.77533E+00-4.95286E+00-1.18774E-02
 -1      6454 8.63840E+00-7.59409E+00-1.76159E-01
 -1      6455 8.87974E+00-1.07850E+01-1.77052E-01
 -1      6456 9.25169E+00 6.59803E+00-7.12161E-01
 -1      6457 9.24170E+00 5.14771E+00-5.11588E-02
 -1      6458 9.33501E+00 5.00061E+00-2.47149E-02
 -1      6459 9.18592E+00 2.88305E+00 6.23571E-02
 -1      6460 9.05031E+00 8.02530E-01 4.96895E-02
 -1      6461 8.49549E+00 6.14400E+00-1.28875E+00
 -1      6462 8.31446E+00 6.08237E+00-6.08739E-01
 -1      6463 5.37808E+00-6.45425E+00-9.68651E-02
 -1      6464 5.82933E+00-6.25424E+00-9.24933E-01
 -1      6465 7.79829E+00-9.02414E+00 9.67248E-01
 -1      6466 1.10248E+01-1.39122E+01-1.57980E-01
 -1      6467 1.40702E+01-2.43218E+01-4.74801E-02
 -1      6468 1.38126E+01-2.48530E+01 1.09800E-01
 -1      6469 1.15302E+01-2.21713E+01 9.08010E-02
 -1      6470 9.36896E+00 5.77811E+00 1.08452E-01
 -1      6471 8.99042E+00 6.41088E+00-5.26191E-02
 -1      6472 8.87842E+00-2.16910E+00 5.00955E-02
 -1      6473 1.27331E+01-1.88406E+01-2.12784E-01
 -1      6474 1.35256E+01-2.07150E+01 7.08045E-01
 -1      6475 1.40687E+01-2.25817E+01-1.90190E-01
 -1      6476 9.30316E+00-1.37724E+01 6.14378E-02
 -1      6477 1.59371E+04-7.42010E+02 9.41412E-01
 -1      6478 1.59372E+04-7.42029E+02 9.40735E-01
 -1      6479 1.59371E+04-7.42019E+02 9.41098E-01
 -1      6480 1.58628E+04-7.84895E+02 9.36090E-01
 -1      6481 1.60114E+04-6.99118E+02 9.46984E-01
 -1      6482 1.58629E+04-7.84900E+02 9.35919E-01
 -1      6483 1.60114E+04-6.99123E+02 9.46732E-01
 -1      6484 1.60114E+04-6.99143E+02 9.45995E-01
 -1      6485 1.58629E+04-7.84920E+02 9.35250E-01
 -1      6486 1.60114E+04-6.99138E+02 9.46243E-01
 -1      6487 1.58629E+04-7.84915E+02 9.35413E-01
 -1      6488 1.58629E+04-7.84910E+02 9.35588E-01
 -1      6489 1.58629E+04-7.84905E+02 9.35766E-01
 -1      6490 1.59371E+04-7.42014E+02 9.41229E-01
 -1      6491 1.59371E+04-7.42024E+02 9.40924E-01
 -1      6492 1.60114E+04-6.99128E+02 9.46572E-01
 -1      6493 1.60114E+04-6.99133E+02 9.46421E-01
 -1      6494 1.60857E+04-4.84684E+02 9.63128E-01
 -1      6495 1.60856E+04-4.84675E+02 9.63631E-01
 -1      6496 1.60857E+04-4.84694E+02 9.62567E-01
 -1      6497 1.60856E+04-5.70451E+02 9.58101E-01
 -1      6498 1.60856E+04-3.98893E+02 9.69486E-01
 -1      6499 1.60857E+04-5.70456E+02 9.57824E-01
 -1      6500 1.60857E+04-3.98898E+02 9.69174E-01
 -1      6501 1.60857E+04-3.98918E+02 9.67919E-01
 -1      6502 1.60857E+04-5.70476E+02 9.56894E-01
 -1      6503 1.60857E+04-3.98912E+02 9.68229E-01
 -1      6504 1.60857E+04-5.70471E+02 9.57187E-01
 -1      6505 1.60857E+04-5.70465E+02 9.57418E-01
 -1      6506 1.60857E+04-5.70460E+02 9.57611E-01
 -1      6507 1.60857E+04-4.84679E+02 9.63359E-01
 -1      6508 1.60857E+04-4.84689E+02 9.62852E-01
 -1      6509 1.60857E+04-3.98902E+02 9.68892E-01
 -1      6510 1.60857E+04-3.98907E+02 9.68541E-01
 -1      6511 1.61714E+04-1.64576E+02 9.87605E-01
 -1      6512 1.61715E+04-1.64595E+02 9.86431E-01
 -1      6513 1.61714E+04-1.64585E+02 9.87007E-01
 -1      6514 1.61285E+04-2.38844E+02 9.81474E-01
 -1      6515 1.62143E+04-9.03026E+01 9.94083E-01
 -1      6516 1.62143E+04-9.03072E+01 9.93729E-01
 -1      6517 1.61285E+04-2.38848E+02 9.81162E-01
 -1      6518 1.62144E+04-9.03278E+01 9.92668E-01
 -1      6519 1.61286E+04-2.38869E+02 9.79832E-01
 -1      6520 1.62143E+04-9.03220E+01 9.92990E-01
 -1      6521 1.61286E+04-2.38863E+02 9.80173E-01
 -1      6522 1.61286E+04-2.38858E+02 9.80493E-01
 -1      6523 1.61286E+04-2.38853E+02 9.80822E-01
 -1      6524 1.61714E+04-1.64580E+02 9.87293E-01
 -1      6525 1.61715E+04-1.64590E+02 9.86728E-01
 -1      6526 1.62143E+04-9.03118E+01 9.93481E-01
 -1      6527 1.62143E+04-9.03170E+01 9.93252E-01
 -1      6528 1.61715E+04 1.32491E+02 1.00584E+00
 -1      6529 1.61714E+04 1.32511E+02 1.00697E+00
 -1      6530 1.61714E+04 1.32501E+02 1.00639E+00
 -1      6531 1.62143E+04 5.82407E+01 1.00376E+00
 -1      6532 1.61285E+04 2.06786E+02 1.01053E+00
 -1      6533 1.61285E+04 2.06782E+02 1.01021E+00
 -1      6534 1.62143E+04 5.82361E+01 1.00343E+00
 -1      6535 1.62144E+04 5.82154E+01 1.00238E+00
 -1      6536 1.61286E+04 2.06761E+02 1.00896E+00
 -1      6537 1.61286E+04 2.06767E+02 1.00927E+00
 -1      6538 1.62143E+04 5.82211E+01 1.00271E+00
 -1      6539 1.62143E+04 5.82263E+01 1.00299E+00
 -1      6540 1.62143E+04 5.82315E+01 1.00316E+00
 -1      6541 1.61714E+04 1.32506E+02 1.00668E+00
 -1      6542 1.61714E+04 1.32497E+02 1.00613E+00
 -1      6543 1.61286E+04 2.06772E+02 1.00957E+00
 -1      6544 1.61285E+04 2.06777E+02 1.00990E+00
 -1      6545 1.60856E+04 4.52625E+02 1.02478E+00
 -1      6546 1.60857E+04 4.52615E+02 1.02429E+00
 -1      6547 1.60857E+04 4.52605E+02 1.02380E+00
 -1      6548 1.60856E+04 3.66843E+02 1.01941E+00
 -1      6549 1.60856E+04 5.38411E+02 1.03043E+00
 -1      6550 1.60856E+04 5.38407E+02 1.03018E+00
 -1      6551 1.60856E+04 3.66839E+02 1.01913E+00
 -1      6552 1.60857E+04 5.38386E+02 1.02933E+00
 -1      6553 1.60857E+04 3.66818E+02 1.01795E+00
 -1      6554 1.60857E+04 5.38392E+02 1.02960E+00
 -1      6555 1.60857E+04 3.66824E+02 1.01824E+00
 -1      6556 1.60857E+04 3.66829E+02 1.01852E+00
 -1      6557 1.60856E+04 3.66834E+02 1.01885E+00
 -1      6558 1.60856E+04 4.52620E+02 1.02452E+00
 -1      6559 1.60857E+04 4.52610E+02 1.02405E+00
 -1      6560 1.60856E+04 5.38402E+02 1.02998E+00
 -1      6561 1.60857E+04 5.38397E+02 1.02981E+00
 -1      6562 1.59371E+04 7.09960E+02 1.03560E+00
 -1      6563 1.59371E+04 7.09969E+02 1.03585E+00
 -1      6564 1.59371E+04 7.09979E+02 1.03612E+00
 -1      6565 1.60114E+04 6.67089E+02 1.03609E+00
 -1      6566 1.58628E+04 7.52875E+02 1.03636E+00
 -1      6567 1.58628E+04 7.52870E+02 1.03623E+00
 -1      6568 1.60114E+04 6.67084E+02 1.03588E+00
 -1      6569 1.60114E+04 6.67064E+02 1.03527E+00
 -1      6570 1.58628E+04 7.52849E+02 1.03572E+00
 -1      6571 1.58628E+04 7.52855E+02 1.03586E+00
 -1      6572 1.60114E+04 6.67069E+02 1.03548E+00
 -1      6573 1.60114E+04 6.67074E+02 1.03561E+00
 -1      6574 1.60114E+04 6.67079E+02 1.03573E+00
 -1      6575 1.59371E+04 7.09974E+02 1.03598E+00
 -1      6576 1.59371E+04 7.09965E+02 1.03574E+00
 -1      6577 1.58628E+04 7.52860E+02 1.03597E+00
 -1      6578 1.58628E+04 7.52865E+02 1.03610E+00
 -1      6579 1.57027E+04 9.44317E+02 1.04298E+00
 -1      6580 1.57028E+04 9.44307E+02 1.04290E+00
 -1      6581 1.57028E+04 9.44298E+02 1.04282E+00
 -1      6582 1.57456E+04 8.70044E+02 1.03975E+00
 -1      6583 1.56598E+04 1.01860E+03 1.04625E+00
 -1      6584 1.56599E+04 1.01859E+03 1.04625E+00
 -1      6585 1.57456E+04 8.70039E+02 1.03967E+00
 -1      6586 1.57457E+04 8.70019E+02 1.03937E+00
 -1      6587 1.56599E+04 1.01857E+03 1.04622E+00
 -1      6588 1.56599E+04 1.01858E+03 1.04623E+00
 -1      6589 1.57457E+04 8.70024E+02 1.03945E+00
 -1      6590 1.57457E+04 8.70029E+02 1.03952E+00
 -1      6591 1.57457E+04 8.70034E+02 1.03961E+00
 -1      6592 1.57028E+04 9.44312E+02 1.04295E+00
 -1      6593 1.57028E+04 9.44302E+02 1.04286E+00
 -1      6594 1.56599E+04 1.01858E+03 1.04624E+00
 -1      6595 1.56599E+04 1.01859E+03 1.04624E+00
 -1      6596 1.54454E+04 1.09287E+03 1.04325E+00
 -1      6597 1.54454E+04 1.09285E+03 1.04382E+00
 -1      6598 1.54454E+04 1.09286E+03 1.04353E+00
 -1      6599 1.55312E+04 1.09287E+03 1.04634E+00
 -1      6600 1.53596E+04 1.09287E+03 1.04002E+00
 -1      6601 1.53596E+04 1.09287E+03 1.04022E+00
 -1      6602 1.55312E+04 1.09287E+03 1.04643E+00
 -1      6603 1.55312E+04 1.09285E+03 1.04677E+00
 -1      6604 1.53596E+04 1.09285E+03 1.04100E+00
 -1      6605 1.53596E+04 1.09285E+03 1.04080E+00
 -1      6606 1.55312E+04 1.09285E+03 1.04669E+00
 -1      6607 1.55312E+04 1.09286E+03 1.04660E+00
 -1      6608 1.55312E+04 1.09286E+03 1.04652E+00
 -1      6609 1.54454E+04 1.09286E+03 1.04339E+00
 -1      6610 1.54454E+04 1.09286E+03 1.04368E+00
 -1      6611 1.53596E+04 1.09286E+03 1.04062E+00
 -1      6612 1.53596E+04 1.09286E+03 1.04040E+00
 -1      6613 1.51253E+04 1.17865E+03 1.03784E+00
 -1      6614 1.51253E+04 1.17866E+03 1.03734E+00
 -1      6615 1.51253E+04 1.17864E+03 1.03836E+00
 -1      6616 1.51995E+04 1.13577E+03 1.03705E+00
 -1      6617 1.50510E+04 1.22155E+03 1.03735E+00
 -1      6618 1.50510E+04 1.22155E+03 1.03767E+00
 -1      6619 1.51995E+04 1.13576E+03 1.03728E+00
 -1      6620 1.51996E+04 1.13574E+03 1.03829E+00
 -1      6621 1.50510E+04 1.22153E+03 1.03871E+00
 -1      6622 1.50510E+04 1.22153E+03 1.03839E+00
 -1      6623 1.51996E+04 1.13575E+03 1.03807E+00
 -1      6624 1.51996E+04 1.13575E+03 1.03779E+00
 -1      6625 1.51995E+04 1.13576E+03 1.03753E+00
 -1      6626 1.51253E+04 1.17865E+03 1.03759E+00
 -1      6627 1.51253E+04 1.17864E+03 1.03811E+00
 -1      6628 1.50510E+04 1.22154E+03 1.03816E+00
 -1      6629 1.50510E+04 1.22154E+03 1.03790E+00
 -1      6630 1.48282E+04 1.17866E+03 1.02653E+00
 -1      6631 1.48282E+04 1.17864E+03 1.02822E+00
 -1      6632 1.48282E+04 1.17865E+03 1.02740E+00
 -1      6633 1.49024E+04 1.22156E+03 1.03188E+00
 -1      6634 1.47539E+04 1.13578E+03 1.02067E+00
 -1      6635 1.47539E+04 1.13577E+03 1.02118E+00
 -1      6636 1.49024E+04 1.22155E+03 1.03230E+00
 -1      6637 1.47539E+04 1.13575E+03 1.02325E+00
 -1      6638 1.49025E+04 1.22153E+03 1.03370E+00
 -1      6639 1.49025E+04 1.22154E+03 1.03329E+00
 -1      6640 1.47539E+04 1.13576E+03 1.02275E+00
 -1      6641 1.49025E+04 1.22154E+03 1.03293E+00
 -1      6642 1.49025E+04 1.22155E+03 1.03265E+00
 -1      6643 1.48282E+04 1.17866E+03 1.02695E+00
 -1      6644 1.48282E+04 1.17865E+03 1.02780E+00
 -1      6645 1.47539E+04 1.13576E+03 1.02225E+00
 -1      6646 1.47539E+04 1.13577E+03 1.02169E+00
 -1      6647 1.45081E+04 1.09289E+03 1.00950E+00
 -1      6648 1.45081E+04 1.09287E+03 1.01149E+00
 -1      6649 1.45081E+04 1.09288E+03 1.01050E+00
 -1      6650 1.45938E+04 1.09289E+03 1.01209E+00
 -1      6651 1.44223E+04 1.09289E+03 1.00623E+00
 -1      6652 1.44223E+04 1.09289E+03 1.00689E+00
 -1      6653 1.45938E+04 1.09288E+03 1.01268E+00
 -1      6654 1.44223E+04 1.09286E+03 1.00872E+00
 -1      6655 1.45939E+04 1.09286E+03 1.01495E+00
 -1      6656 1.45939E+04 1.09287E+03 1.01436E+00
 -1      6657 1.44223E+04 1.09287E+03 1.00806E+00
 -1      6658 1.45939E+04 1.09287E+03 1.01384E+00
 -1      6659 1.45939E+04 1.09288E+03 1.01321E+00
 -1      6660 1.45081E+04 1.09288E+03 1.01004E+00
 -1      6661 1.45081E+04 1.09287E+03 1.01096E+00
 -1      6662 1.44223E+04 1.09288E+03 1.00755E+00
 -1      6663 1.44223E+04 1.09288E+03 1.00740E+00
 -1      6664 1.42507E+04 9.44354E+02 9.91742E-01
 -1      6665 1.42508E+04 9.44344E+02 9.92366E-01
 -1      6666 1.42507E+04 9.44363E+02 9.91118E-01
 -1      6667 1.42936E+04 1.01863E+03 9.96992E-01
 -1      6668 1.42078E+04 8.70104E+02 9.84596E-01
 -1      6669 1.42078E+04 8.70099E+02 9.85069E-01
 -1      6670 1.42936E+04 1.01862E+03 9.97724E-01
 -1      6671 1.42937E+04 1.01860E+03 9.99200E-01
 -1      6672 1.42079E+04 8.70079E+02 9.86192E-01
 -1      6673 1.42079E+04 8.70084E+02 9.85732E-01
 -1      6674 1.42937E+04 1.01861E+03 9.98459E-01
 -1      6675 1.42936E+04 1.01861E+03 9.98225E-01
 -1      6676 1.42936E+04 1.01862E+03 9.97965E-01
 -1      6677 1.42507E+04 9.44359E+02 9.91525E-01
 -1      6678 1.42508E+04 9.44349E+02 9.91959E-01
 -1      6679 1.42079E+04 8.70089E+02 9.85449E-01
 -1      6680 1.42079E+04 8.70094E+02 9.85330E-01
 -1      6681 1.40164E+04 7.10060E+02 9.68159E-01
 -1      6682 1.40164E+04 7.10071E+02 9.68398E-01
 -1      6683 1.40165E+04 7.10051E+02 9.68036E-01
 -1      6684 1.40907E+04 7.52958E+02 9.73257E-01
 -1      6685 1.39422E+04 6.67191E+02 9.63399E-01
 -1      6686 1.39422E+04 6.67184E+02 9.63152E-01
 -1      6687 1.40907E+04 7.52952E+02 9.73615E-01
 -1      6688 1.40907E+04 7.52932E+02 9.73966E-01
 -1      6689 1.39422E+04 6.67165E+02 9.62171E-01
 -1      6690 1.39422E+04 6.67169E+02 9.62386E-01
 -1      6691 1.40907E+04 7.52938E+02 9.73613E-01
 -1      6692 1.40907E+04 7.52942E+02 9.73609E-01
 -1      6693 1.40907E+04 7.52947E+02 9.73580E-01
 -1      6694 1.40164E+04 7.10065E+02 9.68325E-01
 -1      6695 1.40165E+04 7.10056E+02 9.68061E-01
 -1      6696 1.39422E+04 6.67174E+02 9.62587E-01
 -1      6697 1.39422E+04 6.67179E+02 9.62874E-01
 -1      6698 1.38679E+04 4.52765E+02 9.47895E-01
 -1      6699 1.38680E+04 4.52746E+02 9.44460E-01
 -1      6700 1.38679E+04 4.52754E+02 9.46165E-01
 -1      6701 1.38679E+04 5.38539E+02 9.53421E-01
 -1      6702 1.38679E+04 3.66997E+02 9.43372E-01
 -1      6703 1.38679E+04 3.66990E+02 9.42170E-01
 -1      6704 1.38679E+04 5.38533E+02 9.52696E-01
 -1      6705 1.38680E+04 5.38514E+02 9.50125E-01
 -1      6706 1.38680E+04 3.66972E+02 9.37792E-01
 -1      6707 1.38679E+04 3.66975E+02 9.39008E-01
 -1      6708 1.38679E+04 5.38518E+02 9.50845E-01
 -1      6709 1.38679E+04 5.38522E+02 9.51553E-01
 -1      6710 1.38679E+04 5.38527E+02 9.51982E-01
 -1      6711 1.38679E+04 4.52759E+02 9.47058E-01
 -1      6712 1.38679E+04 4.52749E+02 9.45287E-01
 -1      6713 1.38679E+04 3.66979E+02 9.39932E-01
 -1      6714 1.38679E+04 3.66984E+02 9.41226E-01
 -1      6715 1.37822E+04 1.32673E+02 9.22275E-01
 -1      6716 1.37821E+04 1.32685E+02 9.24420E-01
 -1      6717 1.37822E+04 1.32666E+02 9.20148E-01
 -1      6718 1.38250E+04 2.06957E+02 9.31774E-01
 -1      6719 1.37393E+04 5.84192E+01 9.18473E-01
 -1      6720 1.37393E+04 5.84110E+01 9.17222E-01
 -1      6721 1.38250E+04 2.06950E+02 9.30444E-01
 -1      6722 1.37393E+04 5.83940E+01 9.13376E-01
 -1      6723 1.38251E+04 2.06932E+02 9.25499E-01
 -1      6724 1.37393E+04 5.83961E+01 9.14697E-01
 -1      6725 1.38251E+04 2.06935E+02 9.26831E-01
 -1      6726 1.38251E+04 2.06939E+02 9.28098E-01
 -1      6727 1.38250E+04 2.06944E+02 9.29181E-01
 -1      6728 1.37822E+04 1.32678E+02 9.23324E-01
 -1      6729 1.37822E+04 1.32668E+02 9.21212E-01
 -1      6730 1.37393E+04 5.84046E+01 9.16353E-01
 -1      6731 1.37393E+04 5.83995E+01 9.15449E-01
 -1      6732 1.37822E+04-1.64422E+02 9.02924E-01
 -1      6733 1.37822E+04-1.64411E+02 9.04584E-01
 -1      6734 1.37822E+04-1.64430E+02 9.01205E-01
 -1      6735 1.37393E+04-9.01292E+01 9.08472E-01
 -1      6736 1.38251E+04-2.38685E+02 9.01750E-01
 -1      6737 1.38251E+04-2.38692E+02 9.00929E-01
 -1      6738 1.37393E+04-9.01371E+01 9.07381E-01
 -1      6739 1.37393E+04-9.01545E+01 9.03927E-01
 -1      6740 1.38251E+04-2.38710E+02 8.97383E-01
 -1      6741 1.38251E+04-2.38707E+02 8.98221E-01
 -1      6742 1.37393E+04-9.01522E+01 9.04981E-01
 -1      6743 1.37393E+04-9.01487E+01 9.05971E-01
 -1      6744 1.37393E+04-9.01431E+01 9.06706E-01
 -1      6745 1.37822E+04-1.64417E+02 9.03787E-01
 -1      6746 1.37822E+04-1.64427E+02 9.02095E-01
 -1      6747 1.38251E+04-2.38703E+02 8.99169E-01
 -1      6748 1.38251E+04-2.38698E+02 9.00005E-01
 -1      6749 1.38680E+04-4.84552E+02 8.85934E-01
 -1      6750 1.38680E+04-4.84562E+02 8.85054E-01
 -1      6751 1.38680E+04-4.84571E+02 8.84163E-01
 -1      6752 1.38680E+04-3.98756E+02 8.92239E-01
 -1      6753 1.38680E+04-5.70341E+02 8.79943E-01
 -1      6754 1.38680E+04-5.70347E+02 8.79823E-01
 -1      6755 1.38680E+04-3.98762E+02 8.91628E-01
 -1      6756 1.38680E+04-3.98781E+02 8.89054E-01
 -1      6757 1.38680E+04-5.70366E+02 8.78952E-01
 -1      6758 1.38680E+04-5.70362E+02 8.79075E-01
 -1      6759 1.38680E+04-3.98777E+02 8.89668E-01
 -1      6760 1.38680E+04-3.98773E+02 8.90231E-01
 -1      6761 1.38680E+04-3.98768E+02 8.91072E-01
 -1      6762 1.38680E+04-4.84557E+02 8.85533E-01
 -1      6763 1.38680E+04-4.84567E+02 8.84570E-01
 -1      6764 1.38680E+04-5.70357E+02 8.79385E-01
 -1      6765 1.38680E+04-5.70352E+02 8.79517E-01
 -1      6766 1.40165E+04-7.41941E+02 8.73493E-01
 -1      6767 1.40165E+04-7.41931E+02 8.72979E-01
 -1      6768 1.40166E+04-7.41950E+02 8.73980E-01
 -1      6769 1.39422E+04-6.99031E+02 8.73271E-01
 -1      6770 1.40908E+04-7.84824E+02 8.72360E-01
 -1      6771 1.40908E+04-7.84829E+02 8.72844E-01
 -1      6772 1.39423E+04-6.99037E+02 8.73448E-01
 -1      6773 1.40908E+04-7.84850E+02 8.74274E-01
 -1      6774 1.39423E+04-6.99057E+02 8.74056E-01
 -1      6775 1.40908E+04-7.84844E+02 8.73784E-01
 -1      6776 1.39423E+04-6.99052E+02 8.73893E-01
 -1      6777 1.39423E+04-6.99047E+02 8.73738E-01
 -1      6778 1.39423E+04-6.99042E+02 8.73619E-01
 -1      6779 1.40165E+04-7.41936E+02 8.73234E-01
 -1      6780 1.40166E+04-7.41946E+02 8.73735E-01
 -1      6781 1.40908E+04-7.84834E+02 8.73123E-01
 -1      6782 1.40908E+04-7.84839E+02 8.73501E-01
 -1      6783 1.42509E+04-9.76281E+02 8.65687E-01
 -1      6784 1.42509E+04-9.76300E+02 8.67255E-01
 -1      6785 1.42509E+04-9.76290E+02 8.66461E-01
 -1      6786 1.42080E+04-9.01999E+02 8.68710E-01
 -1      6787 1.42938E+04-1.05056E+03 8.62042E-01
 -1      6788 1.42938E+04-1.05056E+03 8.62647E-01
 -1      6789 1.42080E+04-9.02004E+02 8.69202E-01
 -1      6790 1.42080E+04-9.02024E+02 8.70891E-01
 -1      6791 1.42938E+04-1.05058E+03 8.64262E-01
 -1      6792 1.42938E+04-1.05058E+03 8.63598E-01
 -1      6793 1.42080E+04-9.02019E+02 8.70367E-01
 -1      6794 1.42080E+04-9.02014E+02 8.69961E-01
 -1      6795 1.42080E+04-9.02009E+02 8.69626E-01
 -1      6796 1.42509E+04-9.76285E+02 8.66123E-01
 -1      6797 1.42509E+04-9.76295E+02 8.66791E-01
 -1      6798 1.42938E+04-1.05057E+03 8.63293E-01
 -1      6799 1.42938E+04-1.05057E+03 8.62968E-01
 -1      6800 1.45082E+04-1.12484E+03 8.64926E-01
 -1      6801 1.45083E+04-1.12486E+03 8.66717E-01
 -1      6802 1.45082E+04-1.12485E+03 8.65816E-01
 -1      6803 1.44224E+04-1.12484E+03 8.61638E-01
 -1      6804 1.45940E+04-1.12484E+03 8.67541E-01
 -1      6805 1.45940E+04-1.12484E+03 8.68082E-01
 -1      6806 1.44224E+04-1.12484E+03 8.62258E-01
 -1      6807 1.44225E+04-1.12486E+03 8.63997E-01
 -1      6808 1.45940E+04-1.12486E+03 8.70135E-01
 -1      6809 1.45940E+04-1.12486E+03 8.69603E-01
 -1      6810 1.44225E+04-1.12486E+03 8.63322E-01
 -1      6811 1.44225E+04-1.12485E+03 8.62900E-01
 -1      6812 1.44225E+04-1.12484E+03 8.62709E-01
 -1      6813 1.45082E+04-1.12484E+03 8.65394E-01
 -1      6814 1.45082E+04-1.12485E+03 8.66270E-01
 -1      6815 1.45940E+04-1.12485E+03 8.69112E-01
 -1      6816 1.45940E+04-1.12485E+03 8.68563E-01
 -1      6817 1.48283E+04-1.21062E+03 8.70739E-01
 -1      6818 1.48284E+04-1.21064E+03 8.72253E-01
 -1      6819 1.48283E+04-1.21063E+03 8.71496E-01
 -1      6820 1.47540E+04-1.16773E+03 8.70526E-01
 -1      6821 1.49026E+04-1.25351E+03 8.70479E-01
 -1      6822 1.49026E+04-1.25352E+03 8.70863E-01
 -1      6823 1.47541E+04-1.16773E+03 8.70967E-01
 -1      6824 1.49026E+04-1.25354E+03 8.72124E-01
 -1      6825 1.47541E+04-1.16775E+03 8.72846E-01
 -1      6826 1.49026E+04-1.25353E+03 8.71743E-01
 -1      6827 1.47541E+04-1.16775E+03 8.72385E-01
 -1      6828 1.47541E+04-1.16774E+03 8.71942E-01
 -1      6829 1.47541E+04-1.16774E+03 8.71407E-01
 -1      6830 1.48283E+04-1.21063E+03 8.71101E-01
 -1      6831 1.48283E+04-1.21064E+03 8.71866E-01
 -1      6832 1.49026E+04-1.25352E+03 8.71187E-01
 -1      6833 1.49026E+04-1.25353E+03 8.71411E-01
 -1      6834 1.51254E+04-1.21063E+03 8.81544E-01
 -1      6835 1.51254E+04-1.21065E+03 8.82361E-01
 -1      6836 1.51254E+04-1.21064E+03 8.81946E-01
 -1      6837 1.50511E+04-1.25351E+03 8.75944E-01
 -1      6838 1.51997E+04-1.16774E+03 8.86892E-01
 -1      6839 1.51997E+04-1.16774E+03 8.87055E-01
 -1      6840 1.50511E+04-1.25352E+03 8.76247E-01
 -1      6841 1.50512E+04-1.25354E+03 8.77126E-01
 -1      6842 1.51997E+04-1.16776E+03 8.87841E-01
 -1      6843 1.51997E+04-1.16776E+03 8.87669E-01
 -1      6844 1.50512E+04-1.25353E+03 8.76832E-01
 -1      6845 1.50511E+04-1.25353E+03 8.76651E-01
 -1      6846 1.50511E+04-1.25352E+03 8.76459E-01
 -1      6847 1.51254E+04-1.21063E+03 8.81743E-01
 -1      6848 1.51254E+04-1.21064E+03 8.82149E-01
 -1      6849 1.51997E+04-1.16775E+03 8.87457E-01
 -1      6850 1.51997E+04-1.16775E+03 8.87261E-01
 -1      6851 1.54455E+04-1.12485E+03 8.98618E-01
 -1      6852 1.54455E+04-1.12487E+03 8.98989E-01
 -1      6853 1.54455E+04-1.12486E+03 8.98812E-01
 -1      6854 1.53597E+04-1.12485E+03 8.95451E-01
 -1      6855 1.55313E+04-1.12485E+03 9.01728E-01
 -1      6856 1.55313E+04-1.12486E+03 9.01748E-01
 -1      6857 1.53597E+04-1.12486E+03 8.95582E-01
 -1      6858 1.53597E+04-1.12488E+03 8.96132E-01
 -1      6859 1.55313E+04-1.12488E+03 9.01913E-01
 -1      6860 1.55313E+04-1.12487E+03 9.01891E-01
 -1      6861 1.53597E+04-1.12487E+03 8.95997E-01
 -1      6862 1.53597E+04-1.12487E+03 8.95872E-01
 -1      6863 1.53597E+04-1.12486E+03 8.95712E-01
 -1      6864 1.54455E+04-1.12486E+03 8.98709E-01
 -1      6865 1.54455E+04-1.12487E+03 8.98899E-01
 -1      6866 1.55313E+04-1.12487E+03 9.01834E-01
 -1      6867 1.55313E+04-1.12486E+03 9.01796E-01
 -1      6868 1.57028E+04-9.76320E+02 9.17712E-01
 -1      6869 1.57028E+04-9.76339E+02 9.17381E-01
 -1      6870 1.57028E+04-9.76330E+02 9.17543E-01
 -1      6871 1.56599E+04-1.05058E+03 9.11311E-01
 -1      6872 1.57457E+04-9.02050E+02 9.24206E-01
 -1      6873 1.57457E+04-9.02055E+02 9.24086E-01
 -1      6874 1.56599E+04-1.05059E+03 9.11264E-01
 -1      6875 1.56600E+04-1.05061E+03 9.11072E-01
 -1      6876 1.57457E+04-9.02076E+02 9.23596E-01
 -1      6877 1.57457E+04-9.02070E+02 9.23722E-01
 -1      6878 1.56600E+04-1.05060E+03 9.11118E-01
 -1      6879 1.57457E+04-9.02065E+02 9.23831E-01
 -1      6880 1.57457E+04-9.02060E+02 9.23972E-01
 -1      6881 1.57028E+04-9.76325E+02 9.17631E-01
 -1      6882 1.57028E+04-9.76335E+02 9.17459E-01
 -1      6883 1.56599E+04-1.05060E+03 9.11174E-01
 -1      6884 1.56599E+04-1.05059E+03 9.11207E-01
 -1      6885 2.94137E+01-2.11548E+00-4.30258E-02
 -1      6886 1.11340E+04-3.79364E+02 7.95518E-01
 -1      6887 8.64795E+03-2.79627E+01 7.30502E-01
 -1      6888 2.17739E+01-3.26327E+01 2.28952E-01
 -1      6889 2.44988E+01-1.08596E+01 1.44000E-01
 -1      6890 1.91181E+01 8.16324E+00 4.74335E-02
 -1      6891 2.53503E+01 2.28556E+01-1.59921E-02
 -1      6892 1.43329E+01 1.62388E+01 1.58659E-02
 -1      6893 8.65410E+03-4.44402E+02 7.02451E-01
 -1      6894 3.49875E+01-4.66985E+01 3.60613E-01
 -1      6895 5.14905E+00-1.81568E+01 1.73148E-01
 -1      6896 1.76048E+01-2.49388E+01 1.47919E-01
 -1      6897 3.88979E+01-4.65692E+01 3.42199E-01
 -1      6898 2.94543E+01-4.03645E+01 3.58129E-01
 -1      6899 1.84338E+01-3.06753E+01 2.39385E-01
 -1      6900 4.01669E+01-1.01818E+01 1.98070E-01
 -1      6901 4.40016E+01 2.67808E+01 1.10816E-01
 -1      6902 3.50161E+01 2.68326E+01 5.51417E-02
 -1      6903 1.13914E+04-6.50443E+01 8.24687E-01
 -1      6904 2.36674E+01-3.41619E+01 2.91401E-01
 -1      6905 2.45654E+01-3.49122E+01 2.41193E-01
 -1      6906 5.70601E+00 1.03856E+01-6.35204E-02
 -1      6907 3.42207E+01 8.30210E+00 1.52248E-01
 -1      6908 2.06181E+01 6.01247E+00-7.29543E-02
 -1      6909 2.09428E+01 1.57684E+01 9.40651E-03
 -1      6910 1.12499E+01-2.99534E+01 1.93650E-01
 -1      6911-1.11095E+00-1.41078E+01 2.52273E-02
 -1      6912 2.85045E+01-2.94204E+01 2.30457E-01
 -1      6913 3.58762E+00 1.16399E+01-1.24527E-02
 -1      6914 3.06546E+01 1.82841E+01 4.28857E-02
 -1      6915 1.87806E+01-2.21350E+01 1.48365E-01
 -1      6916 4.04584E+01-3.13667E+01 4.80979E-01
 -1      6917 1.30585E+01-2.07664E+01-1.81061E-01
 -1      6918 1.37195E+01 1.00210E+01 3.62622E-01
 -1      6919 4.40937E+01 3.28222E+01 1.21419E+00
 -1      6920 5.72843E+01 4.19937E+01 1.91089E-01
 -1      6921 2.11126E+01 2.39546E+01-1.86800E-01
 -1      6922 4.75289E+01 1.33636E+01 3.93351E-01
 -1      6923 1.18826E+01 1.95757E+01 4.08595E-02
 -1      6924 3.13118E+00-2.47753E+01 1.46593E-01
 -1      6925-2.63096E+00-7.09746E+00 7.23475E-02
 -1      6926 2.57752E+01-3.84412E+01 5.83994E-01
 -1      6927 1.34683E+04 6.23475E+02 9.43144E-01
 -1      6928 1.63021E+01-2.70235E+01 4.17988E-01
 -1      6929 1.84057E+01-2.96753E+01 1.72014E-03
 -1      6930 1.34722E+04-6.44516E+02 8.60610E-01
 -1      6931 1.90771E+02 1.00629E+02 3.78564E-01
 -1      6932 1.53158E-01-8.56875E+00-2.24424E-02
 -1      6933 1.86943E+01-3.60167E+01 8.62232E-02
 -1      6934 2.08545E+02-1.20317E+02 3.10072E-01
 -1      6935 2.47626E+01 1.19046E+00 3.85577E-01
 -1      6936 1.84924E+01 1.67228E+01-4.46931E-01
 -1      6937 2.79271E+01-3.95168E+01-1.25604E-01
 -1      6938 2.84347E+01-3.94595E+01 7.15735E-02
 -1      6939 3.22441E+01 2.65773E+01 6.47456E-01
 -1      6940 1.74208E+01-5.09761E+00 1.26022E-01
 -1      6941 3.19407E+01 2.72749E+01-5.44983E-01
 -1      6942 1.61194E+01-2.65551E+01 1.26588E-01
 -1      6943 3.03752E+01-1.58675E+01 3.12825E-01
 -1      6944 2.10262E+01-3.06155E+01-2.94999E-01
 -1      6945 2.09058E+01-3.05522E+01 7.92718E-01
 -1      6946 8.16126E-01 6.63316E+00-1.56441E-01
 -1      6947 1.36100E+04 7.16383E+01 9.12095E-01
 -1      6948 1.34429E+04-1.27199E+01 9.00017E-01
 -1      6949 1.36100E+04 7.16453E+01 9.11777E-01
 -1      6950 1.34429E+04-1.27132E+01 8.97656E-01
 -1      6951 1.32373E+04 7.41219E+02 9.33697E-01
 -1      6952 1.30899E+04 7.70852E+02 9.22213E-01
 -1      6953 1.31502E+04 6.40939E+02 9.33076E-01
 -1      6954 1.30029E+04 6.70563E+02 9.29772E-01
 -1      6955 1.30900E+04 7.70842E+02 9.55745E-01
 -1      6956 1.33565E+04-1.00233E+02 8.92068E-01
 -1      6957 1.36100E+04-1.03387E+02 9.01144E-01
 -1      6958 1.36100E+04-1.03383E+02 9.01047E-01
 -1      6959 3.00464E+01 2.44711E+01 1.62702E-02
 -1      6960 3.32775E+01 2.60439E+01-1.13478E+00
 -1      6961 2.83928E+01 2.39134E+01-8.72269E-01
 -1      6962 2.33454E+01 1.95204E+01-1.08596E-03
 -1      6963 2.62752E+01 2.07608E+01-9.12530E-01
 -1      6964 2.79582E+01 2.13844E+01 2.67360E-02
 -1      6965 3.63395E+01-4.42735E+01 2.13456E+00
 -1      6966 3.66422E+01-4.76120E+01 3.42528E-01
 -1      6967 3.44210E+01-4.55538E+01 2.00151E+00
 -1      6968 2.88921E+01-3.84842E+01 1.22678E+00
 -1      6969 2.97259E+01-4.09431E+01 2.98940E-01
 -1      6970 3.09914E+01-3.99775E+01 2.83518E-01
 -1      6971 3.64197E+01-4.42239E+01-1.50671E+00
 -1      6972 3.45014E+01-4.54874E+01-1.35000E+00
 -1      6973 2.89667E+01-3.84211E+01-6.88392E-01
 -1      6974 2.62070E+01-3.78541E+00-2.06944E-01
 -1      6975 2.37868E+01-7.73707E+00-9.19690E-02
 -1      6976 2.44022E+01 5.00148E+00-5.19208E-01
 -1      6977 2.18266E+01 1.22028E+00-3.40835E-01
 -1      6978 2.24067E+01-1.48005E+00 4.61070E-02
 -1      6979 5.76954E+01-6.46416E+01 3.26193E-01
 -1      6980 4.66328E+01-5.41644E+01-1.34995E+00
 -1      6981 4.65068E+01-5.41532E+01 2.11654E+00
 -1      6982 4.74788E+01-4.71126E+01 1.97196E+00
 -1      6983 3.94736E+01-4.04294E+01 4.34781E-01
 -1      6984 4.76552E+01-4.74851E+01-1.00692E+00
 -1      6985 6.40781E+01 8.10026E-01 2.99910E-01
 -1      6986 6.31463E+01-1.36523E+01 3.47043E-01
 -1      6987 5.02664E+01-5.77364E+00-1.00432E-02
 -1      6988 4.97106E+01-1.72193E+01 1.94198E-02
 -1      6989 5.02628E+01-5.69183E+00 4.95985E-01
 -1      6990 4.96898E+01-1.73172E+01 4.78323E-01
 -1      6991 6.27430E+01-2.79396E+01 2.10804E-01
 -1      6992 4.98462E+01-3.02500E+01 1.15196E+00
 -1      6993 4.98427E+01-3.03975E+01-4.05588E-01
 -1      6994 4.00981E+01-2.10225E+01 2.64385E-01
 -1      6995 1.89348E+01-2.96671E+01 3.52104E-01
 -1      6996 1.78152E+01-2.90098E+01 7.91283E-01
 -1      6997 2.07235E+01-3.19044E+01 8.27939E-01
 -1      6998 2.00667E+01-3.12561E+01 4.74323E-02
 -1      6999 1.90659E+01-3.04708E+01 5.00776E-01
 -1      7000 1.72451E+01-2.84567E+01 1.58011E-01
 -1      7001 5.47924E+01 8.23358E+00-4.76782E-01
 -1      7002 4.35010E+01 1.13417E+00 2.84107E-01
 -1      7003 5.47501E+01 8.18021E+00 1.01048E+00
 -1      7004 3.10831E+01-3.61669E+01 1.34610E+00
 -1      7005 2.61661E+01-3.31612E+01 2.33392E-01
 -1      7006 3.34503E+01-3.77007E+01 2.75993E-01
 -1      7007 3.11564E+01-3.61211E+01-8.26333E-01
 -1      7008 5.17515E+01-6.27057E+01 2.34714E+00
 -1      7009 4.17248E+01-5.38629E+01 4.11985E-01
 -1      7010 4.14891E+01-5.35998E+01 2.08156E+00
 -1      7011 4.49029E+01-5.57039E+01 2.22928E+00
 -1      7012 4.55616E+01-5.73189E+01 3.99571E-01
 -1      7013 4.15238E+01-5.35399E+01-1.28390E+00
 -1      7014 5.18292E+01-6.26488E+01-1.43585E+00
 -1      7015 4.48913E+01-5.55990E+01-1.46637E+00
 -1      7016 3.58601E+01-4.75879E+01-1.53086E+00
 -1      7017 3.85065E+01-5.02510E+01-1.84264E+00
 -1      7018 3.77680E+01-4.77508E+01-1.80262E+00
 -1      7019 4.07746E+01-5.14678E+01-2.28437E+00
 -1      7020 3.84457E+01-5.03389E+01 2.61876E+00
 -1      7021 3.57888E+01-4.76683E+01 2.24106E+00
 -1      7022 4.07045E+01-5.15538E+01 3.02354E+00
 -1      7023 3.76888E+01-4.78153E+01 2.48177E+00
 -1      7024 4.53490E+01-5.57402E+01-4.14151E+00
 -1      7025 4.51733E+01-5.58706E+01 4.98736E+00
 -1      7026 3.76950E+01-1.39446E+01 4.60186E-02
 -1      7027 3.14670E+01-1.04939E+01 1.86299E-01
 -1      7028 2.95631E+01-1.36860E+01 1.68938E-01
 -1      7029 3.15677E+01-2.43876E+01-3.22176E-01
 -1      7030 2.62162E+01-2.02066E+01 1.91125E-01
 -1      7031 3.33789E+01-2.17257E+01 1.81000E-01
 -1      7032 1.27511E+04 2.85556E+02 8.95616E-01
 -1      7033 1.28727E+04 3.38070E+02 9.03589E-01
 -1      7034 1.28465E+04 4.84639E+02 9.12118E-01
 -1      7035 1.27249E+04 4.32120E+02 9.04275E-01
 -1      7036 3.07094E+02-1.04149E+02 3.13010E-01
 -1      7037 2.69380E+02-8.77592E+01 3.12853E-01
 -1      7038 2.20667E+02-9.78464E+01-1.93173E+00
 -1      7039 2.54185E+02-1.14739E+02 2.76474E+00
 -1      7040 2.54179E+02-1.14764E+02-2.14489E+00
 -1      7041 1.89382E+01-3.23493E+01 8.33668E-01
 -1      7042 2.22206E+01-3.48685E+01 4.32182E-01
 -1      7043 2.27589E+01-3.62432E+01 9.25920E-01
 -1      7044 1.90384E+01-3.49672E+01 6.21556E-01
 -1      7045 2.24461E+01-3.70390E+01 3.18855E-01
 -1      7046 1.86168E+01-3.33597E+01 1.35149E-01
 -1      7047 4.10346E+01-4.92830E+01-2.23778E+00
 -1      7048 4.09571E+01-4.93066E+01 2.90557E+00
 -1      7049 2.34747E+02-7.29620E+01 3.17307E-01
 -1      7050 2.20692E+02-9.78425E+01 2.54711E+00
 -1      7051 1.50262E+01-3.01552E+01 2.15609E-01
 -1      7052 1.33994E+01-2.95925E+01 6.94578E-01
 -1      7053 1.70170E+01-2.99933E+01 8.55485E-01
 -1      7054 1.58559E+01-2.60933E+01 5.13165E-02
 -1      7055 1.42762E+01-2.53168E+01 7.88615E-01
 -1      7056 1.20672E+01-2.54959E+01 5.24600E-02
 -1      7057 2.37847E+01-3.82204E+01 8.63932E-01
 -1      7058 2.00778E+01-3.72345E+01 5.96018E-01
 -1      7059 5.52057E+01-6.57524E+01 3.22770E-01
 -1      7060 5.23915E+01-6.38920E+01 4.85802E-01
 -1      7061 5.38457E+03-2.64265E+02 5.93513E-01
 -1      7062 5.43256E+03-1.44036E+02 6.04634E-01
 -1      7063 5.27648E+03-1.66365E+02 5.94128E-01
 -1      7064 4.90891E+03-1.45435E+02 5.83233E-01
 -1      7065 5.06374E+03-1.65420E+02 5.87601E-01
 -1      7066 4.95914E+03-2.60380E+02 5.74304E-01
 -1      7067 2.49392E+03-1.36088E+02 4.73136E-01
 -1      7068 2.37068E+03-1.20948E+02 4.72511E-01
 -1      7069 2.41035E+03-2.10632E+02 4.62042E-01
 -1      7070 5.51910E+03-2.76238E+02 5.97844E-01
 -1      7071 5.56736E+03-1.55298E+02 6.06934E-01
 -1      7072 5.90708E+01-5.97929E+01 2.91784E-01
 -1      7073 4.89844E+01-4.02830E+01-7.18186E-01
 -1      7074 4.14812E+03-1.58193E+02 5.45650E-01
 -1      7075 4.04896E+03-2.48107E+02 5.32324E-01
 -1      7076 4.00114E+03-1.41753E+02 5.42824E-01
 -1      7077 3.28708E+03-1.48304E+02 5.10541E-01
 -1      7078 3.15020E+03-1.32635E+02 5.02776E-01
 -1      7079 3.19480E+03-2.31271E+02 5.01913E-01
 -1      7080 8.56378E+00-3.09237E+01-1.97080E-01
 -1      7081 9.96102E+00-2.98277E+01-2.26870E-01
 -1      7082 1.13476E+01-3.26087E+01-1.68321E-01
 -1      7083 9.88123E+00-2.98872E+01 5.92647E-01
 -1      7084 8.48100E+00-3.09830E+01 5.62516E-01
 -1      7085 1.12704E+01-3.26738E+01 5.95669E-01
 -1      7086 1.32976E+04 6.11302E+02 9.36424E-01
 -1      7087 1.32373E+04 7.41210E+02 9.51071E-01
 -1      7088 2.63164E+01-1.06349E+01 2.74165E-01
 -1      7089 3.36491E+01-1.02921E+01 2.85952E-01
 -1      7090 5.06451E+03-3.28883E+02 5.75235E-01
 -1      7091 2.49512E+03-2.66347E+02 4.62705E-01
 -1      7092 4.32526E+01-4.74950E+01-2.27298E+00
 -1      7093 5.17499E+01-5.26378E+01-3.71902E+00
 -1      7094 4.42966E+01-4.00228E+01-1.74221E+00
 -1      7095 6.06935E+01-5.19432E+01 1.41421E-01
 -1      7096 4.89495E+01-3.99973E+01 1.59860E+00
 -1      7097 3.28812E+03-2.91936E+02 4.98225E-01
 -1      7098 1.48272E+01-2.27793E+01-1.20354E+00
 -1      7099 1.52212E+01-2.12962E+01-4.02939E-01
 -1      7100 1.73813E+01-2.52819E+01-7.94721E-01
 -1      7101 1.65836E+01-2.65760E+01-2.93290E-01
 -1      7102 1.70619E+01-2.57742E+01 4.21041E-01
 -1      7103 1.47097E+01-2.38770E+01 2.05026E-02
 -1      7104 4.14901E+03-3.12817E+02 5.34307E-01
 -1      7105 5.27721E+03-3.31521E+02 5.83456E-01
 -1      7106 2.66717E+03-1.38354E+02 4.86470E-01
 -1      7107 2.75680E+03-2.18979E+02 4.82134E-01
 -1      7108 2.80076E+03-1.22683E+02 4.91457E-01
 -1      7109 2.66832E+03-2.71855E+02 4.71800E-01
 -1      7110 4.57092E+02-2.08125E+02 3.10660E-01
 -1      7111 5.05230E+02-1.98167E+02 3.20434E-01
 -1      7112 4.53599E+02-1.67277E+02 3.18814E-01
 -1      7113 3.38109E+03-2.08618E+02 5.07133E-01
 -1      7114 3.47715E+03-1.49993E+02 5.20043E-01
 -1      7115 3.57492E+03-2.37809E+02 5.16242E-01
 -1      7116 3.47815E+03-2.96303E+02 5.07734E-01
 -1      7117 3.62299E+03-1.32529E+02 5.26607E-01
 -1      7118 4.35169E+03-1.59415E+02 5.57261E-01
 -1      7119 4.45606E+03-2.53100E+02 5.53787E-01
 -1      7120 4.35255E+03-3.16203E+02 5.42849E-01
 -1      7121 9.20154E+00 1.05202E+01-1.09964E-01
 -1      7122 1.32341E+01 1.37643E+01-6.04240E-01
 -1      7123 7.33807E+00 5.87440E+00-8.27687E-01
 -1      7124 1.23038E+01 1.04087E+01-4.27564E-01
 -1      7125 1.55598E+01 1.38786E+01-9.48198E-01
 -1      7126 1.65137E+01 1.64071E+01-1.85721E-01
 -1      7127 5.09030E+02-2.41557E+02 3.10650E-01
 -1      7128 4.61193E+02-2.49404E+02 3.02474E-01
 -1      7129 4.50748E+03-1.40511E+02 5.63772E-01
 -1      7130 2.30753E+01-3.42062E+01 9.43879E-01
 -1      7131 2.42641E+01-3.51686E+01 9.95133E-01
 -1      7132 2.25387E+01-3.30926E+01 1.22215E+00
 -1      7133 2.36643E+01-3.41456E+01 1.25002E+00
 -1      7134 2.13102E+01-3.15342E+01 5.02119E-01
 -1      7135 4.63219E+01-5.53972E+01-4.25497E+00
 -1      7136 4.61670E+01-5.55143E+01 5.05770E+00
 -1      7137 1.29986E+04 5.30575E+02 9.20388E-01
 -1      7138 1.31460E+04 5.00951E+02 9.24097E-01
 -1      7139 1.46176E+03-1.78957E+02 4.09725E-01
 -1      7140 1.41653E+03-9.19582E+01 4.15740E-01
 -1      7141 1.37782E+03-1.61790E+02 4.03323E-01
 -1      7142 1.36100E+04 7.16306E+01 9.12820E-01
 -1      7143 1.33565E+04 7.47815E+01 9.03466E-01
 -1      7144 1.35236E+04 1.59139E+02 9.14820E-01
 -1      7145 3.30512E+01-4.49065E+01 1.75241E+00
 -1      7146 2.77488E+01-3.90042E+01 1.20161E+00
 -1      7147 3.31410E+01-4.48352E+01-1.10351E+00
 -1      7148 2.78247E+01-3.89308E+01-6.41749E-01
 -1      7149 4.83438E+03-2.68190E+02 5.70693E-01
 -1      7150 1.10870E+01 7.14512E+00-5.78402E-01
 -1      7151 1.64250E+01 8.59993E+00-4.34201E-01
 -1      7152 1.35545E+01 7.02411E+00-1.70366E-01
 -1      7153 1.40371E+01 9.35693E+00-2.99016E-01
 -1      7154 1.97405E+01 1.23624E+01 5.43621E-02
 -1      7155 1.72696E+01 1.18437E+01-7.66035E-01
 -1      7156 1.58414E+01-2.27978E+01 3.63729E-01
 -1      7157 1.43786E+01-2.19463E+01 2.65669E-01
 -1      7158 1.20513E+01-2.27712E+01 9.46989E-01
 -1      7159 1.48108E+01-2.49065E+01 2.94723E-01
 -1      7160 1.35932E+01-2.41517E+01 2.15558E-01
 -1      7161 1.71852E+01-2.48519E+01 1.30541E-01
 -1      7162 2.11217E+01 1.94803E+01 7.43385E-01
 -1      7163 1.98381E+01 1.95773E+01-8.07911E-03
 -1      7164 1.55539E+01 1.60574E+01 6.63305E-01
 -1      7165 1.77660E+01 1.62991E+01 5.20859E-01
 -1      7166 2.20155E+01 1.99577E+01-2.34264E-01
 -1      7167 4.84954E+02-1.35685E+02 3.30410E-01
 -1      7168 4.20209E+02-1.23550E+02 3.25030E-01
 -1      7169 9.33833E+02 1.91330E+02 4.21796E-01
 -1      7170 1.00383E+03 2.09808E+02 4.29884E-01
 -1      7171 1.03020E+03 1.46944E+02 4.22687E-01
 -1      7172 9.59393E+02 1.30543E+02 4.15200E-01
 -1      7173 1.31894E+04-9.58051E+00 8.92061E-01
 -1      7174 1.34429E+04-1.27277E+01 9.03987E-01
 -1      7175 2.56527E+01-1.68616E+01 8.60721E-02
 -1      7176 1.28508E+04 6.24632E+02 9.20987E-01
 -1      7177 3.21863E+01-4.39742E+01 1.55848E+00
 -1      7178 3.59782E+01-4.77424E+01 2.11082E+00
 -1      7179 2.96980E+01-4.09086E+01 1.18157E+00
 -1      7180 3.28513E+01-4.40459E+01 1.44516E+00
 -1      7181 3.18076E+01-4.31365E+01 3.45723E-01
 -1      7182 2.27129E+03-1.25691E+02 4.63719E-01
 -1      7183 2.31040E+03-2.14030E+02 4.58800E-01
 -1      7184 1.64466E+01 8.64026E+00 5.00419E-01
 -1      7185 1.73064E+01 1.18745E+01 7.29663E-01
 -1      7186 1.35883E+01 9.48645E+00 9.25172E-01
 -1      7187 1.72633E+01 1.29998E+01 1.62223E-01
 -1      7188 1.59797E+01 1.03230E+01 1.66549E-01
 -1      7189 3.78858E+01-2.40880E+01-4.45128E-01
 -1      7190 3.38920E+01-3.04138E+01 3.03458E-01
 -1      7191 5.48087E+03-2.33371E+01 6.14643E-01
 -1      7192 5.32441E+03-4.65722E+01 6.05984E-01
 -1      7193 5.38138E+02-1.65057E+02 3.27951E-01
 -1      7194 3.93079E+03-2.54180E+02 5.28869E-01
 -1      7195 3.08491E+03-2.36062E+02 4.94455E-01
 -1      7196 2.45409E+03-4.57993E+01 4.81905E-01
 -1      7197 2.33162E+03-3.24251E+01 4.77948E-01
 -1      7198 1.14661E+03 7.63421E+00 4.08152E-01
 -1      7199 1.05733E+03-3.87944E+01 3.95900E-01
 -1      7200 1.12661E+03-7.17666E+01 3.97023E-01
 -1      7201 4.85902E+03-3.11570E+01 5.90906E-01
 -1      7202 5.01343E+03-5.01645E+01 5.94554E-01
 -1      7203 4.10019E+03-5.14551E+01 5.52787E-01
 -1      7204 3.95374E+03-3.62137E+01 5.48864E-01
 -1      7205 4.07397E+02-1.77190E+02 3.07865E-01
 -1      7206 3.24233E+03-4.91861E+01 5.17151E-01
 -1      7207 3.10610E+03-3.49935E+01 5.06832E-01
 -1      7208 2.86583E+03-2.29731E+02 4.83822E-01
 -1      7209 5.49915E+01-1.85026E+01-4.18498E-01
 -1      7210 4.38692E+01-1.10649E+01 2.66433E-01
 -1      7211 4.38781E+01-2.26841E+01-5.48136E-01
 -1      7212 1.07529E+03-1.28577E+02 3.83627E-01
 -1      7213 4.11190E+02-2.15853E+02 3.02574E-01
 -1      7214 3.69370E+03-2.48878E+02 5.20633E-01
 -1      7215 3.74225E+03-1.42509E+02 5.30618E-01
 -1      7216 1.09506E+01 7.37499E+00 7.53026E-01
 -1      7217 1.31062E+01 7.48470E+00 1.35688E-01
 -1      7218 1.02553E+01 7.02452E+00 3.82953E-01
 -1      7219 1.67375E+01-2.77581E+01 9.45672E-01
 -1      7220 1.40175E+01-2.27293E+01 9.03994E-01
 -1      7221 1.00967E+03 6.88977E+01 4.08768E-01
 -1      7222 1.09785E+03 1.18617E+02 4.22400E-01
 -1      7223 6.00300E+02 4.72143E+01 3.75206E-01
 -1      7224 6.67974E+02 9.49548E+01 3.89190E-01
 -1      7225 6.12894E+02 1.07368E+02 3.84736E-01
 -1      7226 1.11921E+01 6.99223E+00 6.04745E-01
 -1      7227 1.36488E+01 6.61589E+00 2.43953E-01
 -1      7228 2.57395E+01-3.91528E+01 6.20928E-02
 -1      7229 2.45028E+01-3.73303E+01-2.52510E-02
 -1      7230 2.11209E+01-3.59441E+01-2.56919E-01
 -1      7231 2.24121E+01-3.80794E+01-1.29843E-01
 -1      7232 4.38495E+01-1.11395E+01 1.92483E-01
 -1      7233 5.49031E+01-1.86162E+01 1.02325E+00
 -1      7234 4.37989E+01-2.26862E+01 1.13576E+00
 -1      7235 4.58278E+03-2.64416E+02 5.59524E-01
 -1      7236 5.65209E+02 8.48028E+01 3.76413E-01
 -1      7237 5.84610E+02 1.53242E+02 3.87899E-01
 -1      7238 2.29365E+02 6.00727E+01 3.38785E-01
 -1      7239 2.63114E+02 8.12092E+01 3.45820E-01
 -1      7240 2.13589E+02 8.10492E+01 3.49798E-01
 -1      7241 2.46105E+02 1.03787E+02 3.42153E-01
 -1      7242 1.89524E+01-2.80568E+01-8.45533E-01
 -1      7243 1.92571E+01-2.78233E+01-9.82709E-02
 -1      7244 1.87678E+01-2.84656E+01 1.41302E-01
 -1      7245 1.45008E+01-2.59551E+01 2.16873E-01
 -1      7246 1.56654E+01-2.69444E+01 1.84065E-01
 -1      7247 1.72272E+01-2.83115E+01 1.64430E-01
 -1      7248 1.32536E+03-9.72573E+01 4.08640E-01
 -1      7249 1.36389E+03-2.79060E+01 4.22133E-01
 -1      7250 1.29410E+03-1.90847E+02 3.94982E-01
 -1      7251 5.65438E+03-2.88278E+02 5.99001E-01
 -1      7252 5.16383E+01-5.28342E+01 4.63401E+00
 -1      7253 4.31359E+01-4.74889E+01 2.93928E+00
 -1      7254 4.41685E+01-3.98590E+01 2.53265E+00
 -1      7255 3.94030E+01-4.46756E+01-1.88401E+00
 -1      7256 4.00790E+01-3.75960E+01-1.44255E+00
 -1      7257 1.19937E+03-5.38754E+01 4.04816E-01
 -1      7258 1.16908E+03-1.43663E+02 3.94271E-01
 -1      7259 5.36349E+01-4.66837E+01-3.10217E+00
 -1      7260 5.38502E+03 8.88459E+01 6.18618E-01
 -1      7261 5.22918E+03 6.49103E+01 6.10442E-01
 -1      7262 4.31847E+01-5.43740E+01 3.23475E+00
 -1      7263 4.25485E+01-5.34545E+01 4.61635E+00
 -1      7264 3.96753E+01-5.13808E+01 1.86371E+00
 -1      7265 3.95855E+01-5.15706E+01 4.11588E-01
 -1      7266 4.26912E+01-5.33402E+01-3.73686E+00
 -1      7267 4.32723E+01-5.42955E+01-2.35498E+00
 -1      7268 3.97168E+01-5.13309E+01-1.03736E+00
 -1      7269 6.49363E+03-2.85651E+02 6.35368E-01
 -1      7270 6.54437E+03-1.60648E+02 6.45230E-01
 -1      7271 6.35324E+03-2.73547E+02 6.34791E-01
 -1      7272 6.40378E+03-1.49082E+02 6.43174E-01
 -1      7273 1.91395E+01-2.93217E+01-4.50426E-01
 -1      7274 2.13763E+01-3.15857E+01-1.18209E-02
 -1      7275 6.47712E+02 1.61663E+02 3.97818E-01
 -1      7276 2.21633E+03-2.56260E+01 4.71327E-01
 -1      7277 2.15711E+03-1.17120E+02 4.59546E-01
 -1      7278 3.75521E+02-1.34809E+02 3.16744E-01
 -1      7279 1.90763E+02 5.75472E+01 3.36475E-01
 -1      7280 1.78063E+01-2.94935E+01 6.25246E-01
 -1      7281 1.93010E+01-3.05991E+01 4.42853E-01
 -1      7282 6.30166E+01 4.23054E+01 3.02856E-01
 -1      7283 5.96033E+01 4.16483E+01-1.34317E+00
 -1      7284 5.96709E+01 4.16459E+01 1.54273E+00
 -1      7285 5.41646E+01 2.73712E+01 1.75682E+00
 -1      7286 5.20580E+01 2.97428E+01 2.95164E-01
 -1      7287 5.42063E+01 2.74946E+01-1.23612E+00
 -1      7288 2.98847E+02-6.20313E+01 3.21759E-01
 -1      7289 2.61936E+02-4.88792E+01 3.24734E-01
 -1      7290 5.16903E+03-6.94680E+01 5.96556E-01
 -1      7291 2.18110E+02-4.13497E+01 3.21333E-01
 -1      7292 2.77243E+01-2.63166E+01-2.61842E-01
 -1      7293 1.50136E+03-1.07419E+02 4.19420E-01
 -1      7294 1.54774E+03-1.96700E+02 4.11922E-01
 -1      7295 2.57882E+03-5.96482E+01 4.86992E-01
 -1      7296 1.26106E+04 3.11735E+02 8.92610E-01
 -1      7297 1.25844E+04 4.58296E+02 9.01250E-01
 -1      7298 5.28976E+03 2.00091E+02 6.23177E-01
 -1      7299 4.78445E+03-1.53973E+02 5.78519E-01
 -1      7300 4.70855E+03-2.91948E+01 5.83325E-01
 -1      7301 3.38045E+03-6.37622E+01 5.21902E-01
 -1      7302 2.01381E+02 9.16215E+01 3.61279E+00
 -1      7303 2.01395E+02 9.16060E+01-2.92783E+00
 -1      7304 1.79385E+02 6.80848E+01-2.29560E+00
 -1      7305 1.28424E+04 1.90831E+02 8.92963E-01
 -1      7306 4.24816E+03-6.70073E+01 5.60220E-01
 -1      7307 2.10324E+03-1.90881E+01 4.67440E-01
 -1      7308 2.44691E+01-3.74063E+01 9.46108E-01
 -1      7309 2.97477E+03-3.01080E+01 5.06402E-01
 -1      7310 3.04077E+03-1.38539E+02 4.99326E-01
 -1      7311 2.71094E+03-4.28194E+01 4.95479E-01
 -1      7312 2.84536E+03-2.53556E+01 5.01633E-01
 -1      7313 1.59843E+03-1.09581E+02 4.25514E-01
 -1      7314 1.46213E+01-2.43944E+01-7.10546E-01
 -1      7315 1.46024E+01-2.52173E+01 6.02416E-02
 -1      7316 3.88335E+03-1.48727E+02 5.38272E-01
 -1      7317 3.81188E+03-3.12567E+01 5.44017E-01
 -1      7318 9.17634E+00-3.65170E+01-8.12318E-02
 -1      7319 6.42674E+00-3.50940E+01-1.43961E-01
 -1      7320 9.27648E+00-3.36739E+01 2.08472E-01
 -1      7321 6.35478E+00-3.51569E+01 5.41620E-01
 -1      7322 9.09932E+00-3.65825E+01 5.41113E-01
 -1      7323 1.27049E+04 1.55019E+02 8.85677E-01
 -1      7324 8.86690E+00 5.88706E+00-1.10059E+00
 -1      7325 8.49080E+00 5.61195E+00-1.50436E+00
 -1      7326 1.07238E+04-1.18234E+01 8.04460E-01
 -1      7327 1.05580E+04-6.37056E+00 7.98251E-01
 -1      7328 1.06460E+04-1.55612E+02 7.92281E-01
 -1      7329 9.39549E+02 5.51042E+01 4.02984E-01
 -1      7330 1.45620E+03-2.04683E+01 4.27872E-01
 -1      7331 1.35236E+04-1.90893E+02 8.92085E-01
 -1      7332 1.36100E+04-1.03372E+02 9.00375E-01
 -1      7333 2.57467E+01-3.68206E+01 2.96065E-01
 -1      7334 2.79801E+01-3.89639E+01 1.07544E+00
 -1      7335 2.50291E+01-3.57488E+01 5.55410E-01
 -1      7336 2.97907E+01-4.06013E+01 1.09810E+00
 -1      7337 3.12585E+01-4.17948E+01 1.10145E+00
 -1      7338 2.91998E+01-4.00627E+01 8.38761E-01
 -1      7339 3.04992E+01-4.12625E+01 8.37584E-01
 -1      7340 2.89707E+01-3.97086E+01 1.85717E-01
 -1      7341 1.08202E+03 2.09855E+02 4.37644E-01
 -1      7342 1.84763E+03-1.75433E+02 4.34439E-01
 -1      7343 1.91401E+03-2.50196E+02 4.31814E-01
 -1      7344 1.85927E+03-3.10696E+02 4.22987E-01
 -1      7345 1.79335E+03-2.35718E+02 4.25373E-01
 -1      7346 3.67158E+03-2.63986E+01 5.40383E-01
 -1      7347 3.52507E+03-4.53415E+01 5.30079E-01
 -1      7348 2.57954E+03-1.91397E+02 4.75742E-01
 -1      7349 2.58103E+03-3.23390E+02 4.61967E-01
 -1      7350 4.50790E+00-2.85481E+01-2.27034E-01
 -1      7351 5.81018E+00-2.72768E+01-2.29205E-01
 -1      7352 7.05417E+00-2.73806E+01 1.75218E-01
 -1      7353 3.29270E+01-4.39779E+01-6.90712E-01
 -1      7354 3.20076E+01-4.25426E+01-4.50052E-01
 -1      7355 2.97655E+01-4.08248E+01-4.89988E-01
 -1      7356 3.19272E+01-4.26127E+01 1.23741E+00
 -1      7357 3.37980E+02-4.97794E+01 3.34706E-01
 -1      7358 3.46365E+02-9.47012E+01 3.23200E-01
 -1      7359 3.38237E+03-3.53700E+02 4.97717E-01
 -1      7360 2.10538E+01 1.48861E+01 7.88206E-01
 -1      7361 2.00567E+01 1.12071E+01 6.80754E-01
 -1      7362 2.58240E+01 1.60380E+01 9.38530E-01
 -1      7363 2.46447E+01 1.27384E+01 4.20174E-02
 -1      7364 2.55687E+01 1.72679E+01 2.71205E-02
 -1      7365 5.55776E+01-6.85646E+00 7.92438E-01
 -1      7366 5.54436E+01-6.91764E+00-2.96231E-01
 -1      7367 5.16954E+03-2.33689E+02 5.86443E-01
 -1      7368 5.17047E+03-3.98092E+02 5.75106E-01
 -1      7369 1.55210E+03-2.02937E+01 4.32122E-01
 -1      7370 4.24873E+03-2.22610E+02 5.46098E-01
 -1      7371 4.24982E+03-3.78414E+02 5.33736E-01
 -1      7372 2.73710E+01-1.31694E+01 1.40388E-01
 -1      7373 3.50032E+01-1.32759E+01 2.44745E-01
 -1      7374 2.92760E+01-2.32247E+01 4.53317E-01
 -1      7375 1.20734E+04-2.81929E+02 8.34780E-01
 -1      7376 1.20173E+04-1.52859E+02 8.41437E-01
 -1      7377 1.19271E+04-2.93635E+02 8.28927E-01
 -1      7378 9.78447E+02 2.71277E+02 4.39400E-01
 -1      7379 6.45455E+03-2.42663E+01 6.53579E-01
 -1      7380 8.89026E+00 6.04250E+00-1.32961E+00
 -1      7381 8.70007E+00 5.58359E+00-1.73780E+00
 -1      7382 5.62967E+03-2.58382E+01 6.18679E-01
 -1      7383 5.71668E+03-1.58621E+02 6.14202E-01
 -1      7384 4.40298E+03-4.73354E+01 5.69673E-01
 -1      7385 4.55933E+03-2.72542E+01 5.76179E-01
 -1      7386 1.84507E+01-2.74335E+01 1.99471E-01
 -1      7387 1.94772E+01-3.05878E+01-4.60490E-01
 -1      7388 1.91418E+01-2.76549E+01-6.59903E-01
 -1      7389 2.09796E+01-3.01888E+01-7.96146E-01
 -1      7390 2.02970E+01-2.98794E+01-3.30825E-02
 -1      7391 2.45172E+01 2.17508E+01 7.77254E-01
 -1      7392 2.11735E+01 1.86957E+01 5.68262E-01
 -1      7393 5.55349E+03-4.16209E+02 5.88843E-01
 -1      7394 5.41877E+03-4.03410E+02 5.84479E-01
 -1      7395 2.21202E+03-2.17139E+02 4.52167E-01
 -1      7396 2.03580E+03-1.04775E+02 4.54887E-01
 -1      7397 2.00262E+01 1.11748E+01-6.09256E-01
 -1      7398 2.10160E+01 1.48672E+01-7.68631E-01
 -1      7399 2.57798E+01 1.60218E+01-8.60119E-01
 -1      7400 4.71045E+03-2.75820E+02 5.68627E-01
 -1      7401 4.63495E+02-2.78824E+02 4.52869E+00
 -1      7402 5.11089E+02-2.72457E+02 4.15275E+00
 -1      7403 4.63477E+02-2.78825E+02-3.93415E+00
 -1      7404 2.91038E+03-1.32112E+02 4.95270E-01
 -1      7405 2.97631E+03-2.40620E+02 4.86984E-01
 -1      7406 4.63459E+03-1.50954E+02 5.70671E-01
 -1      7407 1.25898E+01-1.56679E+01-5.37533E-01
 -1      7408 1.44522E+01-1.77530E+01-7.97985E-02
 -1      7409 1.43792E+01-1.98804E+01-2.54650E-01
 -1      7410 1.71761E+01-2.00169E+01-5.05259E-02
 -1      7411 6.39108E+01-7.26593E+01 2.70635E+00
 -1      7412 6.03839E+01-7.01035E+01 2.75000E+00
 -1      7413 6.03238E+01-6.99235E+01-1.89499E+00
 -1      7414 6.01493E+03-1.62086E+02 6.24362E-01
 -1      7415 5.84229E+03-1.48880E+02 6.21070E-01
 -1      7416 5.90554E+03-2.70013E+02 6.13908E-01
 -1      7417 1.65048E+03-2.01145E+01 4.38601E-01
 -1      7418 1.08118E+04-1.61161E+02 7.98152E-01
 -1      7419 1.07340E+04-3.04977E+02 7.86966E-01
 -1      7420 2.02701E+01-4.95560E+00-1.30125E-01
 -1      7421 2.09223E+01-7.84065E+00 1.24041E-01
 -1      7422 1.88884E+01 6.59390E-01 6.53320E-02
 -1      7423 9.14732E+00 1.39977E+01 3.57124E-01
 -1      7424 9.63352E+00 1.34800E+01-6.25526E-02
 -1      7425 1.35439E+01 1.68480E+01 5.14229E-01
 -1      7426 1.23060E+01 1.84442E+01 5.18354E-01
 -1      7427 1.29990E+01 1.79156E+01 1.64185E-02
 -1      7428 8.99775E+00 1.52123E+01-3.97549E-02
 -1      7429 2.23273E+01 1.82649E+01 8.43690E-01
 -1      7430 2.79771E+01 2.37741E+01 1.12768E+00
 -1      7431 2.68500E+01 2.17328E+01 3.19609E-01
 -1      7432 2.87643E+01 2.47069E+01 2.78586E-01
 -1      7433 3.81367E+03-2.60057E+02 5.26311E-01
 -1      7434 1.29578E+04 7.70841E+02 9.10588E-01
 -1      7435 1.28057E+04 7.24905E+02 9.45742E-01
 -1      7436 1.29578E+04 7.70831E+02 9.55675E-01
 -1      7437 6.60919E+03-2.35670E+01 6.58004E-01
 -1      7438 1.75564E+01-2.44333E+01-9.07580E-01
 -1      7439 1.80574E+01-2.74368E+01-6.20963E-01
 -1      7440 1.74451E+01-2.45536E+01 1.26210E+00
 -1      7441 1.90279E+01-2.77557E+01 1.07694E+00
 -1      7442 1.79351E+01-2.75295E+01 1.03252E+00
 -1      7443 1.93652E+01-3.06751E+01 9.41533E-01
 -1      7444 6.23879E+03-1.63018E+02 6.36152E-01
 -1      7445 6.28930E+03-3.88840E+01 6.44398E-01
 -1      7446 4.17800E+03 3.31840E+01 5.64576E-01
 -1      7447 4.10840E+03 1.32401E+02 5.69707E-01
 -1      7448 4.03078E+03 4.75983E+01 5.58497E-01
 -1      7449 3.24891E+03 1.21255E+02 5.29721E-01
 -1      7450 3.17714E+03 4.25303E+01 5.20487E-01
 -1      7451 3.31433E+03 2.93502E+01 5.26682E-01
 -1      7452 2.22527E+01 1.82011E+01-8.48545E-01
 -1      7453 2.44621E+01 2.17217E+01-7.80451E-01
 -1      7454 2.11311E+01 1.87164E+01-1.00970E+00
 -1      7455 1.97859E+01 1.61675E+01-2.24900E-01
 -1      7456 8.49539E+03-2.32560E+01 7.24534E-01
 -1      7457 8.57159E+03-2.56015E+01 7.13253E-01
 -1      7458 8.57161E+03-2.56119E+01 7.42126E-01
 -1      7459 8.57459E+03-2.33558E+02 8.31488E-01
 -1      7460 8.65093E+03-2.36118E+02 7.16208E-01
 -1      7461 8.57457E+03-2.33549E+02 5.96393E-01
 -1      7462 1.39506E+03-2.50081E+02 3.92879E-01
 -1      7463 2.08144E+01-3.02645E+01 1.29279E+00
 -1      7464 1.92113E+01-2.78099E+01 5.00825E-01
 -1      7465 2.02141E+01-2.98840E+01 5.22943E-01
 -1      7466 1.08898E+04-1.72818E+01 8.10322E-01
 -1      7467 1.07812E+01-2.80931E+01 6.40669E-01
 -1      7468 1.15567E+01-2.34655E+01 6.55899E-01
 -1      7469 2.50944E+01 2.33168E+01 7.16199E-01
 -1      7470 2.75872E+01 2.53936E+01 6.89717E-01
 -1      7471 2.71623E+01 2.40214E+01 7.75090E-01
 -1      7472 1.93045E+01 1.48134E+01-8.05742E-01
 -1      7473 1.58559E+01 1.16769E+01-7.96677E-01
 -1      7474 2.78445E+03-3.32615E+02 4.73345E-01
 -1      7475 1.31126E+03-2.77104E+02 3.81528E-01
 -1      7476 3.60466E+03-3.61640E+02 5.04701E-01
 -1      7477 1.86837E+03-1.83733E+01 4.52490E-01
 -1      7478 1.91854E+03-1.02416E+02 4.46711E-01
 -1      7479 1.98446E+03-1.87231E+01 4.60003E-01
 -1      7480 6.01787E+03-3.48989E+02 6.13435E-01
 -1      7481 6.63459E+03-2.97796E+02 6.38294E-01
 -1      7482 4.48747E+03-3.85215E+02 5.43321E-01
 -1      7483 8.90839E+02 1.14786E+02 4.08015E-01
 -1      7484 2.53727E+01-4.03043E+01 4.76121E-01
 -1      7485 2.52393E+01-4.11836E+01 1.33008E-01
 -1      7486 2.18573E+01-3.96351E+01 2.82983E-01
 -1      7487 5.19478E+00-3.15288E+01 1.83297E-01
 -1      7488 2.52911E+01-3.48036E+01 8.99420E-01
 -1      7489 2.71867E+01-3.22310E+01 9.01877E-01
 -1      7490 2.53663E+01-3.47469E+01-4.18665E-01
 -1      7491 2.72570E+01-3.21780E+01-4.39350E-01
 -1      7492 5.71169E+00-2.73230E+01 5.40442E-01
 -1      7493 4.42845E+00-2.85985E+01 5.45225E-01
 -1      7494 1.05021E+04-1.35590E+02 7.87733E-01
 -1      7495 1.05901E+04-2.84865E+02 7.81897E-01
 -1      7496 1.04462E+04-2.64762E+02 7.78111E-01
 -1      7497 2.08952E+03-2.02541E+02 4.47270E-01
 -1      7498 2.70882E+01 6.95914E+00 9.76160E-03
 -1      7499 3.11990E+01 5.80063E+00-6.39367E-01
 -1      7500 3.22853E+01 1.43168E+01 9.96661E-02
 -1      7501 2.93323E+01 1.18932E+01-8.25683E-01
 -1      7502 2.53385E+01 1.18579E+01-4.92264E-02
 -1      7503 1.26987E+04 5.78690E+02 9.12648E-01
 -1      7504 6.41717E+03 2.33667E+02 6.66637E-01
 -1      7505 6.52198E+03 1.11089E+02 6.65115E-01
 -1      7506 6.34979E+03 9.84378E+01 6.55501E-01
 -1      7507 5.54403E+03 1.06590E+02 6.27343E-01
 -1      7508 1.16860E+04 4.32821E+02 8.67898E-01
 -1      7509 1.18507E+04 4.57082E+02 8.75243E-01
 -1      7510 1.18778E+04 6.18603E+02 8.86999E-01
 -1      7511 1.17131E+04 5.94311E+02 8.79571E-01
 -1      7512 2.39925E+03 3.81824E+01 4.87606E-01
 -1      7513 2.52293E+03 2.60244E+01 4.92480E-01
 -1      7514 1.59048E+01-2.14146E+01 1.41981E+00
 -1      7515 1.54499E+01-2.24944E+01 1.03455E+00
 -1      7516 1.61058E+01-2.23903E+01-2.65035E-02
 -1      7517 1.31163E+01-1.93101E+01 1.01407E+00
 -1      7518 4.80108E+03-4.00800E+02 5.57784E-01
 -1      7519 4.92557E+03-3.93900E+02 5.63520E-01
 -1      7520 4.94316E+03 5.67790E+01 6.00319E-01
 -1      7521 5.02779E+03 1.45514E+02 6.08933E-01
 -1      7522 5.09820E+03 3.83943E+01 6.03749E-01
 -1      7523 2.71413E+01-3.81842E+01-4.49406E-01
 -1      7524 2.31578E+01-3.41297E+01-4.31097E-01
 -1      7525 2.26792E+01-3.30485E+01-6.94729E-01
 -1      7526 2.50999E+01-3.57825E+01 5.45172E-02
 -1      7527 8.59887E+00 5.60526E+00-6.09252E-02
 -1      7528 1.41672E+01 1.34879E+01 8.70262E-02
 -1      7529 1.63800E+01 1.37105E+01-6.84462E-02
 -1      7530 3.05643E+03-3.50662E+02 4.84433E-01
 -1      7531 3.16593E+03-3.47278E+02 4.90108E-01
 -1      7532 3.89968E+03-3.78416E+02 5.17645E-01
 -1      7533 4.01751E+03-3.73482E+02 5.22346E-01
 -1      7534 2.46782E+03 1.10319E+02 4.98940E-01
 -1      7535 1.56765E+01-2.23889E+01-1.14764E+00
 -1      7536 6.69939E+03-1.60549E+02 6.50644E-01
 -1      7537 2.38431E+03-3.15558E+02 4.49616E-01
 -1      7538 2.32857E+02 1.15248E+02 4.04084E+00
 -1      7539 1.29943E+04 3.90583E+02 9.11463E-01
 -1      7540 1.03819E+04-9.73056E+00 7.92642E-01
 -1      7541 1.04981E+04 1.15610E+02 8.05077E-01
 -1      7542 1.04383E+04 2.37539E+02 8.11910E-01
 -1      7543 1.03221E+04 1.12146E+02 7.99082E-01
 -1      7544 1.06438E+04 1.30170E+02 8.10663E-01
 -1      7545 1.23629E+03-3.80076E+02 3.67167E-01
 -1      7546 1.15420E+03-3.57727E+02 3.62232E-01
 -1      7547 1.14240E+03-2.78682E+02 3.68986E-01
 -1      7548 1.22417E+03-2.98554E+02 3.79346E-01
 -1      7549 6.24172E+03-3.51354E+02 6.23652E-01
 -1      7550 6.12759E+03-2.40856E+02 6.22288E-01
 -1      7551 1.79778E+03-9.17904E+01 4.41607E-01
 -1      7552 4.13303E+02-2.43389E+02 4.26514E+00
 -1      7553 1.69875E+01 2.08180E+01-6.61442E-01
 -1      7554 1.78954E+01 2.03507E+01-9.23082E-02
 -1      7555 1.35225E+01 1.68510E+01-5.14477E-01
 -1      7556 1.22888E+01 1.84233E+01-4.81093E-01
 -1      7557 1.63214E+01 2.18304E+01-6.14662E-02
 -1      7558 1.99675E+02-6.27743E+01 3.15010E-01
 -1      7559 1.87067E+02-8.52100E+01-1.81183E+00
 -1      7560 5.77967E+03-2.79216E+02 6.06426E-01
 -1      7561 5.44813E+03 2.18595E+02 6.30610E-01
 -1      7562 3.11296E+01 2.37577E+01-1.10700E+00
 -1      7563 2.39652E+01 1.80547E+01-8.63225E-01
 -1      7564 5.59682E+02-2.31352E+02 3.20155E-01
 -1      7565 1.36529E+04 1.45903E+02 9.18699E-01
 -1      7566 1.36529E+04 1.45912E+02 9.18520E-01
 -1      7567 1.34960E+04 3.91321E+02 9.27168E-01
 -1      7568 1.36252E+04 3.78082E+02 9.32746E-01
 -1      7569 1.34960E+04 3.91311E+02 9.31129E-01
 -1      7570 3.93198E+01-4.46890E+01 2.50722E+00
 -1      7571 3.99665E+01-3.75473E+01 2.17040E+00
 -1      7572 6.15295E+03 3.12889E+02 6.60742E-01
 -1      7573 5.98090E+03 3.11135E+02 6.56352E-01
 -1      7574 6.06077E+03 4.04883E+02 6.64849E-01
 -1      7575 9.91034E+03-1.42619E+02 7.67439E-01
 -1      7576 1.00265E+04-1.57803E+01 7.79668E-01
 -1      7577 1.00898E+04-1.40070E+02 7.73466E-01
 -1      7578 9.97369E+03-2.66894E+02 7.60574E-01
 -1      7579 1.52654E+01 1.30596E+01 9.32499E-01
 -1      7580 1.87140E+01 1.57484E+01 9.64315E-01
 -1      7581 1.03261E+04-1.38845E+02 7.82064E-01
 -1      7582 2.50610E+01-3.57204E+01 9.93356E-01
 -1      7583 2.68078E+01-3.76909E+01 9.92646E-01
 -1      7584 2.63958E+01-3.71661E+01 3.24757E-01
 -1      7585 1.21965E+04-1.68559E+02 8.46918E-01
 -1      7586 2.13526E+01-1.71358E+01 1.45813E-01
 -1      7587 1.99662E+01-1.88169E+01 1.00096E-01
 -1      7588 2.28639E+01-1.29055E+01 4.43965E-02
 -1      7589 1.93943E+01-9.84432E+00-7.61791E-02
 -1      7590 1.79009E+01-1.40931E+01 1.28771E-01
 -1      7591 2.01604E+02-1.11848E+02 3.12858E+00
 -1      7592 1.87056E+02-8.52168E+01 2.42437E+00
 -1      7593 2.01597E+02-1.11856E+02-2.52307E+00
 -1      7594 1.96967E+03-1.88283E+02 4.41222E-01
 -1      7595 5.03088E+03-4.63131E+02 5.65847E-01
 -1      7596 1.29187E+01-1.54638E+01 2.18395E+00
 -1      7597 1.20209E+01-1.36787E+01 2.84991E+00
 -1      7598 1.18434E+01-1.48586E+01 5.76566E-01
 -1      7599 1.27779E+01-1.56601E+01 1.74886E-01
 -1      7600 1.19613E+04-2.38112E+01 8.48127E-01
 -1      7601 1.18710E+04-1.64581E+02 8.35143E-01
 -1      7602 6.76447E+03-2.28516E+01 6.61402E-01
 -1      7603 2.70629E+01-3.82478E+01 1.08581E+00
 -1      7604 2.46898E+03-3.72583E+02 4.53485E-01
 -1      7605 5.34983E+01-4.67660E+01 4.00727E+00
 -1      7606 1.02004E+04 1.84915E+02 7.98131E-01
 -1      7607 1.03165E+04 3.10299E+02 8.11512E-01
 -1      7608 1.00722E+03-9.45286E+01 3.83178E-01
 -1      7609 1.02553E+03-1.82912E+02 3.69150E-01
 -1      7610 8.73060E+03-2.33024E+02 6.10928E-01
 -1      7611 8.66067E+03-3.76968E+02 5.27660E-01
 -1      7612 8.66069E+03-3.76977E+02 8.87302E-01
 -1      7613 8.73062E+03-2.33034E+02 8.27821E-01
 -1      7614 5.77935E+03-2.83719E+01 6.24937E-01
 -1      7615 1.37373E+04 4.75946E+02 9.43228E-01
 -1      7616 1.36944E+04 3.15910E+02 9.31169E-01
 -1      7617 1.38251E+04 2.92717E+02 9.34225E-01
 -1      7618 1.36681E+04 5.38116E+02 9.44696E-01
 -1      7619 1.35375E+04 5.61307E+02 9.40176E-01
 -1      7620 3.25915E+03-4.09038E+02 4.88112E-01
 -1      7621 4.11750E+03-4.39091E+02 5.23334E-01
 -1      7622 1.05840E+04 2.52178E+02 8.16522E-01
 -1      7623 5.15837E+03 1.72658E+02 6.15587E-01
 -1      7624 1.36945E+04 3.15901E+02 9.31152E-01
 -1      7625 1.37373E+04 4.75937E+02 9.42958E-01
 -1      7626 1.35375E+04 5.61298E+02 9.43022E-01
 -1      7627 1.17961E+04-1.61577E+01 8.42799E-01
 -1      7628 2.44568E+02-1.62584E+01 3.27883E-01
 -1      7629 2.02856E+02-1.22741E+01 3.24712E-01
 -1      7630 1.17808E+04-3.05327E+02 8.22745E-01
 -1      7631 8.50125E+00-2.45289E+01 1.39080E-01
 -1      7632 7.81220E+00-2.24016E+01 5.57559E-01
 -1      7633 8.71823E+00-1.94738E+01 4.64626E-02
 -1      7634 1.23161E+04-2.43510E+02 8.46221E-01
 -1      7635 1.21929E+04-3.56893E+02 8.34133E-01
 -1      7636 2.05947E+01-2.98529E+01 2.31086E-01
 -1      7637 2.12655E+01-3.21092E+01 2.67249E-01
 -1      7638 2.24352E+01-3.24042E+01 1.39749E-02
 -1      7639 9.90363E+03 1.07027E+02 7.83529E-01
 -1      7640 1.00831E+04 1.09851E+02 7.89551E-01
 -1      7641 9.96025E+03 2.32629E+02 7.93527E-01
 -1      7642 1.27413E+03-3.48927E+01 4.11660E-01
 -1      7643 1.24280E+03-1.27378E+02 4.00802E-01
 -1      7644 1.32873E+01-9.28151E+00-3.20693E-02
 -1      7645 1.63615E+01-1.16197E+01-1.12784E-01
 -1      7646 1.90598E+01-2.73789E+01 1.42850E+00
 -1      7647 3.34720E+02-1.42701E+02 3.06563E-01
 -1      7648 1.64985E+01-2.30046E+01 1.29772E+00
 -1      7649 1.51820E+01-2.14238E+01 8.57410E-01
 -1      7650 1.43886E+01-2.03180E+01 2.22278E+00
 -1      7651 1.57953E+01-2.43952E+01 1.20328E+00
 -1      7652 1.46266E+01-2.38904E+01 7.41137E-01
 -1      7653 6.28365E+00 7.95258E+00-3.07827E-01
 -1      7654 1.21811E+01 1.44951E+01-5.53529E-01
 -1      7655 4.50883E+02-9.20480E+01 3.35823E-01
 -1      7656 5.18031E+02-1.01432E+02 3.40097E-01
 -1      7657 6.24551E+03 2.20354E+02 6.57481E-01
 -1      7658 2.05615E+02 3.71035E+01 3.30570E-01
 -1      7659 1.70063E+02 3.65634E+01 3.19244E-01
 -1      7660 1.08097E+04 1.24799E+02 8.16467E-01
 -1      7661 7.32636E+03 2.25479E+02 6.99578E-01
 -1      7662 7.46303E+03 2.39836E+02 7.05648E-01
 -1      7663 7.39792E+03 1.01031E+02 6.93091E-01
 -1      7664 1.17059E+04-1.56893E+02 8.29919E-01
 -1      7665 1.96178E+03-3.56448E+02 4.22606E-01
 -1      7666 1.96366E+03-4.36801E+02 4.14239E-01
 -1      7667 1.86099E+03-3.89231E+02 4.13347E-01
 -1      7668 3.44399E+01 2.13268E+01-1.40410E+00
 -1      7669 3.24748E+01 2.20071E+01-1.25463E+00
 -1      7670 4.14235E+01 2.89797E+01-1.73606E+00
 -1      7671 3.90286E+01 2.84973E+01-1.49044E+00
 -1      7672 3.71927E+01 2.55408E+01 4.32204E-01
 -1      7673 8.35222E+03 2.30776E+02 7.36761E-01
 -1      7674 8.49085E+03 2.45116E+02 7.42680E-01
 -1      7675 8.42373E+03 1.03877E+02 7.31652E-01
 -1      7676 8.56248E+03 1.17971E+02 7.37816E-01
 -1      7677 3.29796E+01 2.34541E+01 3.42933E-02
 -1      7678 3.47639E+01 2.61591E+01-1.38016E+00
 -1      7679 3.92732E+01 2.95003E+01 4.76003E-01
 -1      7680 6.36283E+01 3.59662E+01 3.01202E-01
 -1      7681 7.09862E+01 4.90772E+01 2.03074E-01
 -1      7682 1.00935E+04-3.39698E+02 7.59824E-01
 -1      7683 1.18924E+04 1.35907E+02 8.56086E-01
 -1      7684 1.86312E+03-4.68053E+02 4.05298E-01
 -1      7685 5.19457E+02 6.36960E+01 3.66505E-01
 -1      7686 5.37870E+02 1.28953E+02 3.80540E-01
 -1      7687 7.70974E+03-1.63618E+02 6.87811E-01
 -1      7688 7.62367E+03-2.29644E+01 6.93149E-01
 -1      7689 7.55551E+03-1.64006E+02 6.82336E-01
 -1      7690 7.64160E+03-3.04765E+02 6.75408E-01
 -1      7691 1.76069E+02-1.15239E+02-2.93723E+00
 -1      7692 1.76067E+02-1.15269E+02 3.54321E+00
 -1      7693 1.11745E+03-2.00137E+02 3.78348E-01
 -1      7694 5.56665E+01 4.16267E+01-2.68382E+00
 -1      7695 4.84347E+01 3.51543E+01-4.41165E+00
 -1      7696 4.78210E+01 3.56556E+01-3.63724E+00
 -1      7697 4.92128E+01 3.76925E+01-2.05927E-01
 -1      7698 4.38347E+01 3.25642E+01-2.00034E+00
 -1      7699 5.01254E+01 3.78931E+01-1.18778E+00
 -1      7700 7.46968E+03-2.37685E+01 6.86614E-01
 -1      7701 2.80602E+01-3.88863E+01-3.94891E-01
 -1      7702 2.38148E+01-3.41003E+01-6.85016E-01
 -1      7703 1.72978E+01-2.82075E+01-4.32536E-01
 -1      7704 1.07297E+04 2.66816E+02 8.22762E-01
 -1      7705 1.20332E+04-4.37707E+02 8.23494E-01
 -1      7706 7.29401E+03-2.25589E+01 6.81115E-01
 -1      7707 7.22250E+03 1.01754E+02 6.86599E-01
 -1      7708 6.38926E+03-4.18855E+02 6.23899E-01
 -1      7709 8.72763E+03-2.46792E+01 7.48586E-01
 -1      7710 8.72762E+03-2.46708E+01 7.17827E-01
 -1      7711 8.80743E+03-2.13815E+01 7.35660E-01
 -1      7712 9.77295E+03-1.61161E+02 7.61559E-01
 -1      7713 9.84705E+03-1.84647E+01 7.73567E-01
 -1      7714 9.69028E+03-2.00925E+01 7.66863E-01
 -1      7715 3.88561E+02-8.30304E+01 3.32512E-01
 -1      7716 6.37801E+01-7.25342E+01-1.79805E+00
 -1      7717 6.67886E+01-7.55530E+01-2.23657E+00
 -1      7718 6.68377E+01-7.56024E+01 3.12304E+00
 -1      7719 1.48855E+01-1.98843E+01 4.15689E-01
 -1      7720 1.72866E+03-1.62905E+02 4.32145E-01
 -1      7721 1.00775E+04 3.07748E+02 8.03676E-01
 -1      7722 6.67690E+03 1.12405E+02 6.68095E-01
 -1      7723 1.03297E+04-3.38726E+02 7.68442E-01
 -1      7724 8.97406E+02 2.46669E+02 4.30041E-01
 -1      7725 2.60773E+01-3.76093E+01 8.75047E-01
 -1      7726 2.46790E+01-3.60447E+01 9.07577E-02
 -1      7727 2.87682E+01-4.00704E+01 1.22093E-01
 -1      7728 1.32333E+03-3.60809E+02 3.71343E-01
 -1      7729 5.49181E+01 1.91449E+01-8.47942E-01
 -1      7730 9.83626E+03-2.85340E+02 7.54861E-01
 -1      7731 1.15247E+04 4.09411E+02 8.60619E-01
 -1      7732 1.15010E+04 2.48883E+02 8.49459E-01
 -1      7733 1.16623E+04 2.72247E+02 8.56522E-01
 -1      7734 1.79379E+02 6.81223E+01 2.98530E+00
 -1      7735 8.24523E+03 1.04957E+02 7.24426E-01
 -1      7736 9.53561E+03 2.46729E+02 7.78497E-01
 -1      7737 9.46364E+03 1.05925E+02 7.66734E-01
 -1      7738 9.39371E+03 2.33435E+02 7.73422E-01
 -1      7739 7.77809E+03-2.21487E+01 7.00030E-01
 -1      7740 1.47946E+03-2.69572E+02 3.97769E-01
 -1      7741-2.89592E+00-1.39510E+01-3.79100E-01
 -1      7742-1.96644E+00-1.20601E+01-2.75823E-01
 -1      7743-3.64754E+00-1.04756E+01-3.94307E-01
 -1      7744-2.66885E+00-8.58448E+00-3.01772E-01
 -1      7745-2.25492E+00-1.01907E+01 3.91610E-02
 -1      7746 1.07712E+03 3.86344E+01 4.09565E-01
 -1      7747 9.90110E+02-7.67124E+00 3.96561E-01
 -1      7748 1.16757E+03 8.83610E+01 4.21692E-01
 -1      7749 2.91640E+02-2.10881E+01 3.34101E-01
 -1      7750 9.61625E+03-1.62622E+02 7.54450E-01
 -1      7751 9.69893E+03-3.03732E+02 7.48876E-01
 -1      7752 2.36155E+01-3.49782E+01-2.95948E-01
 -1      7753 2.08798E+01-3.35687E+01-2.87300E-01
 -1      7754 2.48626E+01-3.63617E+01 4.68078E-01
 -1      7755 7.20091E+03 3.02912E+02 7.00070E-01
 -1      7756 3.50949E+01-2.28913E+01 5.92685E-01
 -1      7757 9.53366E+03-2.17175E+01 7.60183E-01
 -1      7758 2.46437E+02 3.64049E+01 3.38962E-01
 -1      7759 2.81990E+02 1.29337E+02 3.57362E-01
 -1      7760 1.76296E+03-3.40516E+02 4.11883E-01
 -1      7761 7.03923E+02 1.50827E+02 3.99404E-01
 -1      7762 6.83939E+02 2.18829E+02 4.09669E-01
 -1      7763 2.61039E+01-3.70472E+01 1.68820E-01
 -1      7764 2.78899E+01 2.67788E+01-1.30806E-02
 -1      7765 2.95989E+01 2.89656E+01 5.55328E-01
 -1      7766 2.52998E+01 2.58593E+01 5.17052E-01
 -1      7767 2.55866E+01 2.74934E+01-1.07444E-01
 -1      7768 2.32318E+01 2.32357E+01-1.03904E-01
 -1      7769 5.95159E+03-4.07795E+01 6.31000E-01
 -1      7770 5.87407E+03-4.10937E+02 6.03616E-01
 -1      7771 1.05555E+03 2.73737E+02 4.43458E-01
 -1      7772 2.44341E+01-3.52705E+01 9.57068E-01
 -1      7773 1.75809E+03-1.92705E+01 4.45112E-01
 -1      7774 1.21980E+01 1.45597E+01 5.63715E-01
 -1      7775 7.56558E+00 1.15088E+01 2.73346E-01
 -1      7776 1.16309E+04-8.50674E+00 8.37464E-01
 -1      7777 1.76493E+03-4.17500E+02 4.03823E-01
 -1      7778 4.79722E+03 1.05562E+02 5.99259E-01
 -1      7779 3.89501E+03 9.52372E+01 5.56961E-01
 -1      7780 3.75380E+03 9.86880E+01 5.52307E-01
 -1      7781 2.92072E+03 8.93335E+01 5.12545E-01
 -1      7782 3.05123E+03 8.62978E+01 5.16555E-01
 -1      7783 2.69690E+03-4.81364E+02 4.52044E-01
 -1      7784 2.58181E+03-4.18581E+02 4.52995E-01
 -1      7785 2.58299E+03-5.14037E+02 4.44550E-01
 -1      7786 2.25611E+01-1.77520E+01 1.66301E-01
 -1      7787 1.99355E+01-2.28953E+01 2.01137E-01
 -1      7788 3.38273E+03-4.58157E+02 4.91459E-01
 -1      7789 3.50839E+03-5.25182E+02 4.88237E-01
 -1      7790 3.38343E+03-5.62859E+02 4.80770E-01
 -1      7791 2.19499E+01 2.14102E+01 6.95755E-01
 -1      7792 1.64868E+01 1.82768E+01 6.20603E-01
 -1      7793 4.38404E+03-5.60855E+02 5.25466E-01
 -1      7794 4.24980E+03-4.90455E+02 5.25589E-01
 -1      7795 4.25004E+03-6.02712E+02 5.17343E-01
 -1      7796 5.31112E+03-5.89191E+02 5.66522E-01
 -1      7797 5.17009E+03-5.16181E+02 5.64026E-01
 -1      7798 5.16993E+03-6.34462E+02 5.56566E-01
 -1      7799 1.23968E+03-4.35462E+02 3.61374E+00
 -1      7800 1.15753E+03-4.11410E+02 3.59090E+00
 -1      7801 1.23966E+03-4.35450E+02-2.90320E+00
 -1      7802 8.22574E+03 3.10104E+02 7.38408E-01
 -1      7803 2.47004E+03-4.66375E+02 4.43787E-01
 -1      7804 1.04709E+04 3.97521E+02 8.23728E-01
 -1      7805 8.32496E+01-8.10136E+01 3.82820E-01
 -1      7806 6.78510E+01-6.59368E+01 4.23831E-01
 -1      7807 7.63478E+01-8.02544E+01 5.67112E-01
 -1      7808 2.89384E+03-3.44941E+02 4.77004E-01
 -1      7809 2.62305E+01-1.06633E+01 2.45024E-02
 -1      7810 7.34818E+03 3.81924E+02 7.10129E-01
 -1      7811 2.28321E+03 7.63427E+01 4.88548E-01
 -1      7812 7.35567E+03-2.73181E+02 6.67753E-01
 -1      7813 7.41259E+03-1.48610E+02 6.77533E-01
 -1      7814 7.49844E+03-2.88951E+02 6.70890E-01
 -1      7815 1.86278E+01-2.64770E+01-7.56553E-01
 -1      7816 3.72374E+03-3.73999E+02 5.12762E-01
 -1      7817 3.25976E+03-5.12359E+02 4.78235E-01
 -1      7818 1.20044E+04 5.52309E+02 8.87022E-01
 -1      7819 4.61442E+03-3.97568E+02 5.51392E-01
 -1      7820 4.11768E+03-5.50227E+02 5.16686E-01
 -1      7821 4.76540E+01 8.12799E-01 1.21114E+00
 -1      7822 2.26247E+01-1.76963E+01 1.46514E-01
 -1      7823 2.29204E+01-1.28544E+01 2.35144E-01
 -1      7824 2.00347E+01-1.87535E+01 1.86178E-01
 -1      7825 2.00101E+01-2.28309E+01 1.19836E-01
 -1      7826 5.03067E+03-5.80518E+02 5.55971E-01
 -1      7827 4.76140E+01 8.33171E-01-7.08970E-01
 -1      7828 8.37603E+03 3.89888E+02 7.48862E-01
 -1      7829 2.02389E+01-3.71647E+01-1.57701E-01
 -1      7830 1.17272E+04 1.43525E+02 8.50736E-01
 -1      7831 6.07293E+03 2.19195E+02 6.51003E-01
 -1      7832 9.28186E+03 1.06762E+02 7.62275E-01
 -1      7833 2.03064E+03 6.48560E+01 4.70836E-01
 -1      7834 1.91350E+03 6.32562E+01 4.63329E-01
 -1      7835 4.59247E+01 3.40262E+01-3.94853E+00
 -1      7836 4.70451E+01 3.58832E+01-1.09541E+00
 -1      7837 8.54501E+02 1.69952E+02 4.13488E-01
 -1      7838 1.21405E+04-3.94883E+01 8.53269E-01
 -1      7839 1.63716E+03-1.80319E+02 4.20975E-01
 -1      7840 9.76230E+03 1.20859E+02 7.79027E-01
 -1      7841 1.41241E+02 8.59196E+01 3.25358E-01
 -1      7842 1.20430E+02 6.06450E+01 3.12112E-01
 -1      7843 1.23856E+02 8.09459E+01 2.98239E-01
 -1      7844 2.20460E+01-3.23101E+01-4.28102E-01
 -1      7845 1.81407E+03 4.52623E+01 4.54469E-01
 -1      7846 1.34875E+01-2.95360E+01-2.92848E-01
 -1      7847 1.71189E+01-2.99203E+01-4.04197E-01
 -1      7848 1.44584E+01-2.52784E+01-7.09429E-01
 -1      7849 8.91043E+01 3.86953E+01 2.84012E-01
 -1      7850 7.32273E+01 2.49184E+01 1.48770E-01
 -1      7851 8.39502E+01 2.20195E+01 1.81590E-01
 -1      7852 6.18504E+03 8.32121E+01 6.47647E-01
 -1      7853 9.56352E+03 4.06691E+02 7.91255E-01
 -1      7854 9.42159E+03 3.93202E+02 7.84711E-01
 -1      7855 6.58970E+03 2.47036E+02 6.76426E-01
 -1      7856 9.83732E+02 3.40402E+02-2.85363E+00
 -1      7857 9.83714E+02 3.40403E+02 3.75433E+00
 -1      7858 8.98896E+02 3.25502E+02-2.94530E+00
 -1      7859 8.98867E+02 3.25503E+02 3.83468E+00
 -1      7860 3.18989E+01 2.63918E+01-1.23817E+00
 -1      7861 2.87131E+01 2.52160E+01-2.74212E-01
 -1      7862 3.35190E+01 2.69402E+01-3.51053E-01
 -1      7863 9.81889E+03 2.46355E+02 7.89512E-01
 -1      7864 1.15484E+04 5.70000E+02 8.71942E-01
 -1      7865 1.18236E+04 2.95611E+02 8.63987E-01
 -1      7866 2.03330E+01-2.92737E+01-8.62581E-01
 -1      7867 2.13470E+01-2.90499E+01 1.94293E-01
 -1      7868 2.23195E+01-2.79860E+01-9.76942E-02
 -1      7869 2.33777E+01-2.52898E+01 1.93265E-01
 -1      7870 9.26612E+03 3.14607E+02 7.73930E-01
 -1      7871 1.68920E+03-9.08167E+01 4.37591E-01
 -1      7872 1.07455E+03-3.35849E+02 3.55014E-01
 -1      7873 7.30305E+01 1.04445E+01 2.20776E-01
 -1      7874 8.83061E+01 5.90223E+00 2.94945E-01
 -1      7875 9.94471E+01 2.94529E+01 3.00110E-01
 -1      7876 1.21527E+04-5.12699E+02 8.22600E-01
 -1      7877 5.33536E+03 3.54002E+02 6.36450E-01
 -1      7878 6.21046E+03 5.84307E+02 6.81320E-01
 -1      7879 6.06142E+03 5.21757E+02 6.71595E-01
 -1      7880 6.06222E+03 6.38808E+02 6.77819E-01
 -1      7881 1.51410E+01-2.24426E+01 3.44334E-01
 -1      7882 1.46147E+01-2.48420E+01 3.86600E-01
 -1      7883 2.16888E+03 8.09626E+01 4.83851E-01
 -1      7884 2.12671E+01 5.07408E+00-4.50827E-01
 -1      7885 1.86465E+03-5.24106E+02 3.21843E+00
 -1      7886 1.96500E+03-4.93897E+02-2.13099E+00
 -1      7887 1.86464E+03-5.24096E+02-2.42429E+00
 -1      7888 1.22012E+03 2.79456E+01 4.15108E-01
 -1      7889 6.20976E+03 4.66759E+02 6.74384E-01
 -1      7890 9.60561E+03 1.19068E+02 7.72693E-01
 -1      7891 1.04959E+03-2.58482E+02 3.65390E-01
 -1      7892 1.13936E+04 6.21777E+02 8.69865E-01
 -1      7893 1.12430E+04 5.37483E+02 8.59540E-01
 -1      7894 1.12387E+04 6.73505E+02 8.68102E-01
 -1      7895 2.97364E+03-4.55235E+02 4.71535E-01
 -1      7896 4.11101E+01 2.54063E+01-2.05984E+00
 -1      7897 3.68529E+01 2.20528E+01 6.75740E-02
 -1      7898 4.41215E+01 3.07028E+01 6.44274E-01
 -1      7899 5.57781E+02 1.96768E+02 3.98599E-01
 -1      7900 3.80948E+03-4.92584E+02 5.05493E-01
 -1      7901 5.74838E+03-4.19452E+02 5.94297E-01
 -1      7902 5.64734E+03-5.47560E+02 5.82317E-01
 -1      7903 6.94592E+00 1.26061E+01 2.97422E-01
 -1      7904 9.96099E+00 1.72035E+01 4.97710E-01
 -1      7905 2.01753E+03-2.94881E+02 4.33585E-01
 -1      7906 2.13844E+03-3.11629E+02 4.37594E-01
 -1      7907 7.84247E+03-1.48357E+02 6.93580E-01
 -1      7908 7.77415E+03-2.89881E+02 6.80829E-01
 -1      7909 7.90700E+03-2.74888E+02 6.86549E-01
 -1      7910 9.62640E+02-1.54378E+02 3.67252E-01
 -1      7911 9.08619E+02-2.17330E+02 3.57377E-01
 -1      7912 9.70112E+02-2.47458E+02 3.58014E-01
 -1      7913 1.60762E+03-2.81299E+02 4.07758E-01
 -1      7914 6.76377E+03-2.83861E+02 6.45570E-01
 -1      7915 6.82882E+03-1.46086E+02 6.57125E-01
 -1      7916 6.89339E+03-2.69779E+02 6.50341E-01
 -1      7917 4.70484E+03-5.22749E+02 5.44628E-01
 -1      7918 2.67983E+01-3.79708E+01 7.83586E-01
 -1      7919 7.68895E+03 1.16266E+02 7.04995E-01
 -1      7920 7.53478E+03 1.15033E+02 6.97952E-01
 -1      7921 9.55506E+03-2.90844E+02 7.44315E-01
 -1      7922 9.41133E+03-2.77966E+02 7.40735E-01
 -1      7923 9.47246E+03-1.49895E+02 7.49863E-01
 -1      7924 1.20475E+04 8.83520E+01 8.58013E-01
 -1      7925 1.57781E+02-8.34368E+01 3.09170E-01
 -1      7926 1.68670E+02-5.36698E+01 3.13279E-01
 -1      7927 1.48602E+02-1.08780E+02 3.47560E-01
 -1      7928 3.36274E+01 2.66380E+01 4.09605E-01
 -1      7929 1.08394E+04-4.51305E+02 7.80151E-01
 -1      7930 1.07326E+04-5.92460E+02 7.67209E-01
 -1      7931 1.06272E+04-4.46064E+02 7.72944E-01
 -1      7932 2.55836E+01-1.69202E+01 2.52926E-01
 -1      7933 3.97197E+03 1.79502E+02 5.68250E-01
 -1      7934 5.69320E+03 1.04884E+02 6.31817E-01
 -1      7935 1.09529E+04-1.49688E+02 8.03960E-01
 -1      7936 1.08750E+04-2.93582E+02 7.91660E-01
 -1      7937 1.10160E+04-2.82160E+02 7.97123E-01
 -1      7938 3.12218E+03 1.64360E+02 5.31326E-01
 -1      7939 1.76069E+03 1.07375E+02 4.55916E-01
 -1      7940 1.70509E+03 4.27817E+01 4.44950E-01
 -1      7941 5.60757E+03 2.37261E+02 6.39936E-01
 -1      7942 9.44428E+00 1.05517E+01 1.28724E-01
 -1      7943 8.88495E+00 5.54211E+00 3.78274E-01
 -1      7944 2.40127E+01 1.80803E+01 8.76692E-01
 -1      7945 3.11498E+01 2.37535E+01 1.15984E+00
 -1      7946 2.88062E+01 1.97409E+01 1.07800E+00
 -1      7947 6.55187E+02 3.23484E+01 3.78841E-01
 -1      7948 7.25447E+02 8.09507E+01 3.88839E-01
 -1      7949 5.88732E+02-1.16816E+01 3.63882E-01
 -1      7950 1.46552E+01 1.89562E+01 5.33638E-01
 -1      7951 1.33180E+01 2.05201E+01 5.34424E-01
 -1      7952 1.02119E+04-6.89894E+02 7.40776E-01
 -1      7953 1.00579E+04-6.38229E+02 7.38627E-01
 -1      7954 1.02126E+04-5.51210E+02 7.50260E-01
 -1      7955 3.92075E+01 2.95487E+01-1.80700E+00
 -1      7956 4.20845E+01 3.19300E+01-1.27535E+00
 -1      7957 1.04833E+04-4.25858E+02 7.68278E-01
 -1      7958 5.90133E+03 2.17971E+02 6.49051E-01
 -1      7959 1.16737E+04-4.51450E+02 8.09179E-01
 -1      7960 1.18869E+04-4.49389E+02 8.17797E-01
 -1      7961 6.52979E+03-4.31585E+02 6.27128E-01
 -1      7962 6.73111E+03-4.32840E+02 6.31318E-01
 -1      7963 1.28057E+04 7.24915E+02 9.03798E-01
 -1      7964 6.91443E+00 1.26057E+01-4.02071E-01
 -1      7965 4.62672E+00 1.08958E+01-5.15884E-02
 -1      7966 5.46796E+00 1.30310E+01-4.49456E-01
 -1      7967 9.94838E+00 1.71851E+01-4.72228E-01
 -1      7968 7.13663E+00 1.55933E+01 1.48959E-02
 -1      7969 7.73988E+03-4.42508E+02 6.70415E-01
 -1      7970 7.63221E+03-5.79822E+02 6.56981E-01
 -1      7971 7.53400E+03-4.41944E+02 6.63453E-01
 -1      7972 1.08697E+04 2.53544E+02 8.27305E-01
 -1      7973 1.10098E+04 2.40247E+02 8.31183E-01
 -1      7974 1.09497E+04 1.11452E+02 8.20854E-01
 -1      7975 1.21338E+04 2.00537E+02 8.68288E-01
 -1      7976 1.19787E+04 2.48085E+02 8.66209E-01
 -1      7977 2.28484E+03-3.17233E+02 4.46183E-01
 -1      7978 1.15660E+04 1.20198E+02 8.43560E-01
 -1      7979 2.09701E+01-7.97880E+00-9.30391E-02
 -1      7980 4.88129E+03 1.93874E+02 6.07471E-01
 -1      7981 6.01278E+03 8.28455E+01 6.41494E-01
 -1      7982 1.13531E+03 2.75431E+02 4.45289E-01
 -1      7983 1.15081E+03 1.82352E+02 4.35046E-01
 -1      7984 1.23094E+04-5.68507E+02 8.24674E-01
 -1      7985 1.23064E+04-7.05167E+02 8.15859E-01
 -1      7986 1.21496E+04-6.49339E+02 8.13754E-01
 -1      7987 2.12454E+01-3.16762E+01-4.44945E-01
 -1      7988 2.09311E+01-3.05733E+01-7.73940E-01
 -1      7989 2.87699E+01 1.97404E+01-1.01507E+00
 -1      7990 6.13131E+03-7.55127E+02 1.51965E+00
 -1      7991 6.27787E+03-6.17129E+02 6.02720E-01
 -1      7992 6.27814E+03-7.03598E+02-2.33570E-01
 -1      7993 6.13129E+03-7.55120E+02-3.46933E-01
 -1      7994 6.13096E+03-6.68989E+02 5.95394E-01
 -1      7995 4.64727E+03 1.06353E+02 5.92122E-01
 -1      7996 1.23740E+04 6.23122E+02 9.04689E-01
 -1      7997 1.25074E+04 7.47121E+02 9.00728E-01
 -1      7998 1.25074E+04 7.47112E+02 9.33264E-01
 -1      7999 1.26698E+04 7.24882E+02 9.40422E-01
 -1      8000 1.25363E+04 6.00912E+02 9.08874E-01
 -1      8001 1.03661E+04-6.38541E+02 7.50495E-01
 -1      8002 1.03668E+04-4.99785E+02 7.59264E-01
 -1      8003 1.17995E+04-7.48027E+02 8.27169E-01
 -1      8004 1.19740E+04-7.48147E+02 8.25389E-01
 -1      8005 1.17995E+04-7.48016E+02 7.62527E-01
 -1      8006 1.19740E+04-7.48137E+02 7.76769E-01
 -1      8007 1.19929E+04-5.93506E+02 8.12223E-01
 -1      8008 1.14118E+04-6.61335E+02 7.86578E-01
 -1      8009 1.14118E+04-7.49789E+02 7.28316E-01
 -1      8010 1.12571E+04-8.13523E+02 8.37329E-01
 -1      8011 1.12571E+04-7.25062E+02 7.77427E-01
 -1      8012 1.12571E+04-8.13513E+02 7.05951E-01
 -1      8013 7.12423E+03-7.76064E+02 1.30268E+00
 -1      8014 7.27514E+03-6.33227E+02 6.40234E-01
 -1      8015 7.27526E+03-7.22139E+02 3.21199E-02
 -1      8016 7.12421E+03-7.76055E+02-5.74474E-02
 -1      8017 7.12404E+03-6.87378E+02 6.31144E-01
 -1      8018 8.13999E+03-7.90912E+02 1.12756E+00
 -1      8019 8.13998E+03-7.90903E+02 1.93863E-01
 -1      8020 8.13995E+03-7.00434E+02 6.68003E-01
 -1      8021 8.29403E+03-6.44645E+02 6.76496E-01
 -1      8022 8.29401E+03-7.35265E+02 2.62091E-01
 -1      8023 1.25683E+04-2.64998E+02 8.53438E-01
 -1      8024 1.24440E+04-1.60075E+02 8.55992E-01
 -1      8025 1.24404E+04-3.48440E+02 8.43706E-01
 -1      8026 9.17118E+03-8.00638E+02 9.88450E-01
 -1      8027 9.17116E+03-8.00627E+02 4.04393E-01
 -1      8028 9.17124E+03-7.08915E+02 7.02962E-01
 -1      8029 9.32684E+03-6.51378E+02 7.11450E-01
 -1      8030 9.32674E+03-7.43174E+02 4.53794E-01
 -1      8031 2.76601E+03 6.78316E+01 5.08627E-01
 -1      8032 8.70953E+01-6.34273E+01 3.18423E-01
 -1      8033 8.35879E+01-4.69272E+01 4.08986E-01
 -1      8034 7.08809E+01-5.04276E+01 4.58538E-01
 -1      8035 6.19296E+02 2.07972E+02 4.03594E-01
 -1      8036 1.21279E+03-2.17970E+02 3.86796E-01
 -1      8037 1.05871E+01 7.20607E+00-1.16690E-01
 -1      8038 9.73666E+00 6.55449E+00-3.04284E-02
 -1      8039 9.80141E+03-4.45043E+02 7.42346E-01
 -1      8040 9.59072E+03-4.48773E+02 7.35697E-01
 -1      8041 2.23680E+01-3.23854E+01 5.28937E-01
 -1      8042 1.09448E+04-5.97776E+02 7.74011E-01
 -1      8043 1.09266E+04-7.49470E+02 6.79067E-01
 -1      8044 1.09266E+04-7.49479E+02 8.49404E-01
 -1      8045 1.07523E+04-7.49080E+02 8.57331E-01
 -1      8046 1.07522E+04-7.49067E+02 6.57942E-01
 -1      8047 5.84019E+03 9.44937E+01 6.34743E-01
 -1      8048 2.22410E+01-2.80477E+01 4.90413E-01
 -1      8049 2.08108E+01-3.18585E+01-3.62333E-01
 -1      8050 9.93880E+03-4.26739E+02 7.47984E-01
 -1      8051 6.15052E+01-4.09148E+01 2.09930E-01
 -1      8052 2.19960E+03-5.15429E+02 2.81079E+00
 -1      8053 2.08105E+03-5.04830E+02 2.87388E+00
 -1      8054 2.06643E+03-4.03715E+02 4.23410E-01
 -1      8055 2.08103E+03-5.04825E+02-2.04884E+00
 -1      8056 2.19958E+03-5.15428E+02-1.97284E+00
 -1      8057 3.90760E+01-4.95920E+01 2.98784E+00
 -1      8058 3.84954E+01-4.87131E+01 2.14954E+00
 -1      8059 3.82275E+01-4.91609E+01 4.22606E-01
 -1      8060 3.88336E+01-5.00390E+01 1.23301E+00
 -1      8061 3.91859E+01-4.95008E+01-2.11616E+00
 -1      8062 3.85727E+01-4.86444E+01-1.27135E+00
 -1      8063 3.88630E+01-5.00053E+01-3.95827E-01
 -1      8064 3.60590E+01-4.76549E+01-1.34627E+00
 -1      8065 9.67765E+03 2.60032E+02 7.85033E-01
 -1      8066 9.10685E+00 1.40021E+01-4.78448E-01
 -1      8067 2.89333E+01-4.05436E+01 1.00451E+00
 -1      8068 2.82807E+03-5.62143E+02 2.50094E+00
 -1      8069 2.96028E+03-5.70942E+02 2.44435E+00
 -1      8070 2.82805E+03-5.62130E+02-1.59297E+00
 -1      8071 2.96028E+03-5.70924E+02-1.52174E+00
 -1      8072 2.81267E+03-4.47304E+02 4.63486E-01
 -1      8073 7.00597E+03-1.45904E+02 6.63095E-01
 -1      8074 8.06194E+02 9.73890E+01 3.97368E-01
 -1      8075 1.85636E+02 1.37562E+01 3.27795E-01
 -1      8076 2.23724E+02 1.07314E+01 3.26930E-01
 -1      8077 4.21808E+01 3.22021E+01 2.32136E-02
 -1      8078 4.08331E+01 3.11053E+01-9.17447E-01
 -1      8079 8.31672E+03-2.18404E+01 7.19711E-01
 -1      8080 2.63286E+03 4.88996E+01 4.99050E-01
 -1      8081 1.70844E+01-3.27088E+01 7.47417E-01
 -1      8082 1.71046E+01-3.55218E+01 5.67838E-01
 -1      8083 1.24457E+01-3.81199E+01-1.21896E-02
 -1      8084 1.25386E+01-3.54834E+01 2.46721E-01
 -1      8085 1.62083E+01-3.81528E+01 2.21190E-01
 -1      8086 1.51295E+01-3.31587E+01 1.24538E-01
 -1      8087 1.51804E+01-3.55506E+01-1.86971E-01
 -1      8088 3.65090E+03-6.11023E+02 2.16532E+00
 -1      8089 3.79438E+03-6.18211E+02 2.11297E+00
 -1      8090 3.65088E+03-6.11015E+02-1.18573E+00
 -1      8091 3.79435E+03-6.18207E+02-1.12231E+00
 -1      8092 3.63488E+03-4.86356E+02 4.95709E-01
 -1      8093 5.17023E+03-7.22112E+02 1.77076E+00
 -1      8094 5.31132E+03-6.77319E+02-5.36130E-01
 -1      8095 5.17021E+03-7.22095E+02-6.69273E-01
 -1      8096 1.76633E+03-4.72220E+02 3.04992E+00
 -1      8097 3.88637E+01 1.75238E+01 1.36456E-01
 -1      8098 3.48478E+01 1.06193E+01-9.84812E-01
 -1      8099 3.95952E+01 1.95394E+01-1.71538E+00
 -1      8100 3.29396E+01 1.62896E+01-1.13995E+00
 -1      8101 2.58419E+03-5.84731E+02 2.77224E+00
 -1      8102 2.69793E+03-5.53037E+02-1.66924E+00
 -1      8103 2.58417E+03-5.84713E+02-1.89741E+00
 -1      8104 3.50912E+03-6.03555E+02-1.25447E+00
 -1      8105 3.38429E+03-6.40433E+02 2.39630E+00
 -1      8106 3.38428E+03-6.40422E+02-1.44722E+00
 -1      8107 4.25060E+03-6.85881E+02-1.04079E+00
 -1      8108 4.25062E+03-6.85884E+02 2.06274E+00
 -1      8109 4.38451E+03-6.44670E+02 1.91911E+00
 -1      8110 1.98636E+01 7.16715E+00-1.48842E-02
 -1      8111 2.19055E+01 5.27822E+00 2.27817E-01
 -1      8112 2.26891E+01 3.83219E+00 1.64669E-01
 -1      8113 2.73731E+01 1.03481E+01 3.33397E-01
 -1      8114 4.91288E+03 3.13467E+02 6.16084E-01
 -1      8115 5.05949E+03 2.65874E+02 6.17413E-01
 -1      8116 2.84183E+01-3.98400E+01 7.69938E-01
 -1      8117 4.72020E+01 3.61380E+01 6.30613E-01
 -1      8118 2.35071E+03 1.47658E+02 4.94694E-01
 -1      8119 1.79863E+01-2.89805E+01 4.07344E-01
 -1      8120 1.59565E+01-2.75430E+01 2.09466E-01
 -1      8121 1.41755E+02 3.81234E+01 3.32872E-01
 -1      8122 1.50099E+02 6.57962E+01-2.47232E+00
 -1      8123 4.68825E+03-6.56401E+02 1.82350E+00
 -1      8124 4.53569E+03-6.50657E+02 1.86873E+00
 -1      8125 4.51925E+03-5.18061E+02 5.34666E-01
 -1      8126 4.53568E+03-6.50648E+02-8.14091E-01
 -1      8127 4.68823E+03-6.56396E+02-7.56248E-01
 -1      8128 8.87187E+03-1.49686E+02 7.29964E-01
 -1      8129 8.93641E+03-2.78209E+02 7.23280E-01
 -1      8130 9.05320E+03-1.49062E+02 7.36626E-01
 -1      8131 1.94377E+01-9.79629E+00 3.34179E-01
 -1      8132 5.98689E+03-6.95748E+02 1.48718E+00
 -1      8133 5.98656E+03-6.10115E+02 5.92407E-01
 -1      8134 1.02118E+04-7.94357E+02 8.92113E-01
 -1      8135 1.02118E+04-7.94347E+02 5.77504E-01
 -1      8136 1.00578E+04-7.42568E+02 5.69391E-01
 -1      8137 5.62965E+03-6.86471E+02 1.57168E+00
 -1      8138 5.46997E+03-6.82005E+02 1.61076E+00
 -1      8139 5.45328E+03-5.43175E+02 5.76284E-01
 -1      8140 5.46995E+03-6.81995E+02-4.79803E-01
 -1      8141 5.62964E+03-6.86455E+02-4.27850E-01
 -1      8142 6.30234E+03 3.74381E+02 6.69580E-01
 -1      8143 8.02258E+03-1.47892E+02 6.99671E-01
 -1      8144 8.19552E+02 2.22911E+02 4.25223E-01
 -1      8145 9.67327E+03-7.45178E+02 9.26310E-01
 -1      8146 9.49991E+03-7.44230E+02 9.41109E-01
 -1      8147 9.48266E+03-5.93640E+02 7.21118E-01
 -1      8148 9.49989E+03-7.44222E+02 4.84273E-01
 -1      8149 9.67325E+03-7.45171E+02 5.11349E-01
 -1      8150 9.94369E+02-3.22220E+02 3.47557E-01
 -1      8151 1.03660E+04-7.43045E+02 8.76905E-01
 -1      8152 3.48805E+01 1.06670E+01 1.26030E+00
 -1      8153 3.96497E+01 1.95793E+01 1.95064E+00
 -1      8154 3.30016E+01 1.63210E+01 1.29242E+00
 -1      8155 1.35287E+01-3.25369E+01-1.84775E-01
 -1      8156 1.72491E+01-3.54581E+01-2.09667E-01
 -1      8157 1.08285E+04 4.15490E+02 8.35808E-01
 -1      8158 1.06166E+04 4.12261E+02 8.29525E-01
 -1      8159 1.12383E+04 7.71662E+02 9.19428E-01
 -1      8160 1.10826E+04 7.16994E+02 8.13051E-01
 -1      8161 1.10830E+04 6.18899E+02 8.58318E-01
 -1      8162 1.12383E+04 7.71652E+02 8.28798E-01
 -1      8163 5.47757E+00 1.30243E+01 4.25145E-01
 -1      8164 3.64178E+02-1.84631E+02 3.00578E-01
 -1      8165 2.42070E+01 1.04203E+01-7.28520E-01
 -1      8166 2.94188E+01 1.67865E+01-9.90245E-01
 -1      8167 6.44247E+03-7.07138E+02 1.38883E+00
 -1      8168 6.60756E+03-7.10487E+02 1.35552E+00
 -1      8169 6.44245E+03-7.07129E+02-1.84456E-01
 -1      8170 6.60755E+03-7.10474E+02-1.38860E-01
 -1      8171 6.42551E+03-5.64665E+02 6.13346E-01
 -1      8172 6.97593E+03-7.16178E+02 1.28344E+00
 -1      8173 6.97577E+03-6.27870E+02 6.26493E-01
 -1      8174 1.23019E+04 2.69218E+02 8.79049E-01
 -1      8175 1.22267E+04 7.26925E+01 8.63477E-01
 -1      8176 1.23948E+04 1.41356E+02 8.74068E-01
 -1      8177 2.47114E+03-5.35798E+02-1.79222E+00
 -1      8178 5.92125E+03 5.76331E+02 6.70695E-01
 -1      8179 5.92050E+03 4.59951E+02 6.63443E-01
 -1      8180 7.44375E+03-7.24690E+02 1.20254E+00
 -1      8181 7.61278E+03-7.27076E+02 1.17637E+00
 -1      8182 7.44373E+03-7.24680E+02 7.59205E-02
 -1      8183 7.61276E+03-7.27063E+02 1.15930E-01
 -1      8184 7.42677E+03-5.78625E+02 6.50490E-01
 -1      8185 7.98903E+03-7.30735E+02 1.11768E+00
 -1      8186 7.98901E+03-6.40527E+02 6.66284E-01
 -1      8187 2.19541E+01-3.23915E+01 9.64936E-01
 -1      8188 1.27454E+04-2.65581E+02 8.59683E-01
 -1      8189 1.25984E+04-4.30650E+02 8.43849E-01
 -1      8190 5.11066E+02-2.72449E+02-3.54012E+00
 -1      8191 2.29149E+01 2.37952E+01 5.37726E-01
 -1      8192 1.98840E+01 2.20615E+01 5.12959E-01
 -1      8193 4.11820E+03-6.32550E+02 1.99874E+00
 -1      8194 9.12249E+01-7.92705E+01 3.29117E-01
 -1      8195 7.41861E+01-6.37650E+01 4.30652E-01
 -1      8196 4.21936E+01 3.16592E+01-2.49300E+00
 -1      8197 4.35028E+01 3.24686E+01-3.05950E+00
 -1      8198 3.72028E+01 2.86311E+01-1.46238E+00
 -1      8199 1.23125E+04-4.31870E+02 8.33779E-01
 -1      8200 7.00865E+03-3.53763E+02 6.49144E-01
 -1      8201 7.12145E+03-2.29697E+02 6.62050E-01
 -1      8202 7.48943E+00 1.14876E+01-3.58183E-01
 -1      8203 3.64622E+00 6.28748E+00-2.06902E-02
 -1      8204 5.03092E+03-6.67471E+02-6.26941E-01
 -1      8205 1.01903E+04 5.20287E+02 8.21313E-01
 -1      8206 1.03446E+04 6.07707E+02 8.32649E-01
 -1      8207 1.01858E+04 6.57677E+02 8.30250E-01
 -1      8208 4.60237E+01 2.98908E+01-2.71309E+00
 -1      8209 4.38204E+01 3.05508E+01-2.47230E+00
 -1      8210 4.61175E+01 3.32381E+01-2.20622E+00
 -1      8211 6.19273E+00 7.92747E+00 3.55126E-01
 -1      8212 3.60089E+00 6.27810E+00 4.30483E-03
 -1      8213 3.67193E+01-4.62023E+01 1.62668E+00
 -1      8214 3.54851E+01-4.49247E+01 1.35245E+00
 -1      8215 3.37206E+01-4.37420E+01 4.25639E-01
 -1      8216 3.48285E+01-4.50309E+01 4.21050E-01
 -1      8217 3.67971E+01-4.61330E+01-7.16297E-01
 -1      8218 3.55643E+01-4.48529E+01-4.31499E-01
 -1      8219 3.26279E+03 2.22294E+02 5.37738E-01
 -1      8220 8.21007E+02 2.98347E+02 3.77056E+00
 -1      8221 4.12416E+03 2.41368E+02 5.79782E-01
 -1      8222 3.98772E+03 2.87499E+02 5.80798E-01
 -1      8223 5.31141E+03-4.70211E+02 5.74319E-01
 -1      8224 7.50267E+02 2.21364E+02 4.17013E-01
 -1      8225 2.01802E+01-2.93348E+01 1.31868E+00
 -1      8226 1.44446E+01-1.77187E+01 2.91530E-01
 -1      8227 1.72501E+01-1.99417E+01 3.03207E-01
 -1      8228 1.26573E+01-1.55750E+01 7.32613E-01
 -1      8229 1.33124E+01-9.27414E+00 2.17297E-01
 -1      8230 1.63949E+01-1.15825E+01 3.45169E-01
 -1      8231 9.35179E+03-2.06690E+01 7.55697E-01
 -1      8232 1.52813E+03-4.42892E+02 3.18713E+00
 -1      8233 1.42585E+03-4.30475E+02 3.25700E+00
 -1      8234 1.41309E+03-3.39582E+02 3.79784E-01
 -1      8235 1.42583E+03-4.30471E+02-2.50802E+00
 -1      8236 1.52810E+03-4.42889E+02-2.42402E+00
 -1      8237 8.02376E+03-3.60428E+02 6.86450E-01
 -1      8238 9.44696E+03-4.35703E+02 7.31179E-01
 -1      8239 8.79509E+03-3.61436E+02 5.51441E-01
 -1      8240 8.79511E+03-3.61445E+02 8.75667E-01
 -1      8241 8.62971E+03 2.59476E+02 7.48536E-01
 -1      8242-3.83467E+00-1.54567E+01 1.85402E-02
 -1      8243-5.75241E+00-1.54420E+01-6.09658E-01
 -1      8244-4.60112E+00-1.19982E+01 5.88263E-02
 -1      8245 9.05434E+03-3.64754E+02 7.22743E-01
 -1      8246 9.17121E+03-2.35510E+02 7.35711E-01
 -1      8247 1.17341E+04 7.44523E+02 9.04103E-01
 -1      8248 1.15694E+04 7.20180E+02 9.04617E-01
 -1      8249 1.17341E+04 7.44515E+02 8.76100E-01
 -1      8250 1.00311E+04 6.04650E+02 8.21026E-01
 -1      8251 2.48906E+01 2.54871E+00-6.10441E-02
 -1      8252 2.68072E+01-6.68551E+00 9.43313E-02
 -1      8253 2.45510E+01-4.68954E+00 2.13920E-01
 -1      8254 2.70758E+01-3.81298E-01 1.73790E-01
 -1      8255 9.29067E+03-1.48641E+02 7.45092E-01
 -1      8256 6.12488E+03-5.33396E+01 6.36234E-01
 -1      8257 2.69595E+03-3.84527E+02 4.59784E-01
 -1      8258 7.60007E+03 2.54240E+02 7.11130E-01
 -1      8259 3.50788E+03-4.19355E+02 4.95596E-01
 -1      8260 1.50216E+03 7.28788E+01 4.44598E-01
 -1      8261 8.43647E+03-1.50464E+02 7.14533E-01
 -1      8262 8.37768E+03-2.77497E+02 7.05314E-01
 -1      8263 8.25794E+03-1.48721E+02 7.10290E-01
 -1      8264 4.38395E+03-4.47696E+02 5.34571E-01
 -1      8265 3.58213E+03 7.47831E+01 5.43911E-01
 -1      8266 1.24674E+04-6.50752E+02 8.24961E-01
 -1      8267 1.26135E+04-1.20255E+02 8.64545E-01
 -1      8268 1.27906E+04-1.20827E+02 8.70657E-01
 -1      8269 1.29640E+04 2.43341E+02 9.00660E-01
 -1      8270 4.29446E+03 4.16374E+02 6.00953E-01
 -1      8271 4.30877E+03 5.30745E+02 6.13309E-01
 -1      8272 4.16864E+03 5.77181E+02 6.12684E-01
 -1      8273 4.15429E+03 4.63719E+02 6.02716E-01
 -1      8274 7.23712E+03-1.46917E+02 6.70817E-01
 -1      8275 9.16965E+02-3.08508E+02 3.40276E-01
 -1      8276 9.01588E+02-1.27217E+02 3.68024E-01
 -1      8277 7.39113E+03-4.25709E+02 6.59954E-01
 -1      8278 2.32470E+01-4.05425E+01 1.09477E-01
 -1      8279 1.21324E+04 3.43259E+02 8.77954E-01
 -1      8280 3.13452E+01-4.17201E+01-2.91763E-01
 -1      8281 2.98678E+01-4.05248E+01-3.56721E-01
 -1      8282 3.06698E+01-4.12228E+01-3.16637E-01
 -1      8283 2.93554E+01-4.00129E+01-4.03981E-01
 -1      8284 1.02060E+04-1.30886E+01 7.86019E-01
 -1      8285 3.43671E+03 5.46478E+01 5.34280E-01
 -1      8286 1.09685E+04 4.02263E+02 8.40371E-01
 -1      8287 1.85014E+00 7.65268E+00 3.92390E-01
 -1      8288 2.80676E+00 1.04274E+01 4.60383E-01
 -1      8289 1.36785E+00 7.89656E+00 4.00556E-01
 -1      8290 1.90718E+00 8.99079E+00-8.32926E-02
 -1      8291 7.97013E-01 5.28154E+00 3.17751E-01
 -1      8292 4.30926E+03 6.01837E+01 5.73630E-01
 -1      8293 4.46474E+03 8.12355E+01 5.82151E-01
 -1      8294 1.26698E+04 7.24891E+02 9.01965E-01
 -1      8295 2.46946E+01-2.62449E+01-1.57348E-01
 -1      8296 1.69822E+03-2.66374E+02 4.16411E-01
 -1      8297 1.01838E+04 7.62036E+02 9.75276E-01
 -1      8298 1.03426E+04 7.12103E+02 7.24871E-01
 -1      8299 1.01838E+04 7.62024E+02 6.98861E-01
 -1      8300 1.29337E+04 9.60996E+01 8.90035E-01
 -1      8301 4.23909E+03 1.60216E+02 5.79238E-01
 -1      8302 2.89758E+01-5.64074E+00-2.84644E-01
 -1      8303 2.90398E+01-1.31288E+01 1.51700E-01
 -1      8304 1.32653E+03-4.17704E+02-2.59547E+00
 -1      8305 9.29179E+03-3.64829E+02 7.29705E-01
 -1      8306 2.88065E+01 8.26484E-01-5.03862E-01
 -1      8307 3.37058E+03 1.47548E+02 5.37021E-01
 -1      8308 6.13068E+03-4.28591E+02 6.12517E-01
 -1      8309 6.64022E+01-7.18531E+01 4.83652E-01
 -1      8310 1.01949E+04 3.82968E+02 8.12381E-01
 -1      8311 1.59925E+03 7.55577E+01 4.49585E-01
 -1      8312 2.49225E+03 2.05349E+02 5.12276E-01
 -1      8313 6.86059E+03-4.19278E+02 6.37184E-01
 -1      8314 3.06101E+02-1.68237E+02 3.03060E-01
 -1      8315 8.98864E+03-2.05049E+01 7.42772E-01
 -1      8316 2.32862E+02 1.15254E+02-3.32040E+00
 -1      8317 2.57696E+03 1.34412E+02 5.05739E-01
 -1      8318 9.91835E+03 3.92147E+02 8.01435E-01
 -1      8319 6.06279E+03 7.22581E+02 1.61962E+00
 -1      8320 6.21096E+03 6.68419E+02 1.51164E+00
 -1      8321 6.06280E+03 7.22575E+02-2.48021E-01
 -1      8322 3.12661E+01-4.29423E+01 3.50673E-02
 -1      8323 2.79538E+01-3.92431E+01 1.06390E+00
 -1      8324 2.55895E+01-3.73597E+01 1.01917E+00
 -1      8325 2.71139E+01-3.88108E+01 3.53580E-01
 -1      8326 5.23767E+03 6.42136E+02 1.74903E+00
 -1      8327 5.09443E+03 6.92835E+02 1.88614E+00
 -1      8328 5.09368E+03 6.11969E+02 6.42984E-01
 -1      8329 5.09444E+03 6.92825E+02-5.82864E-01
 -1      8330 5.23701E+03 5.60802E+02 6.48490E-01
 -1      8331 1.06945E+04 7.13213E+02 9.33353E-01
 -1      8332 1.05185E+04 7.12698E+02 9.42490E-01
 -1      8333 1.05036E+04 5.57625E+02 8.35309E-01
 -1      8334 1.05185E+04 7.12689E+02 7.48284E-01
 -1      8335 1.06945E+04 7.13203E+02 7.69312E-01
 -1      8336 8.25909E+03-3.62047E+02 6.93201E-01
 -1      8337 8.86082E+03 1.05533E+02 7.47164E-01
 -1      8338 8.71848E+03 1.19187E+02 7.43180E-01
 -1      8339 8.77190E+03 2.46087E+02 7.52945E-01
 -1      8340 8.91431E+03 2.32622E+02 7.56823E-01
 -1      8341 1.09804E+04-4.39954E+02 7.84943E-01
 -1      8342 7.23978E+03-3.55919E+02 6.57190E-01
 -1      8343 1.23005E+04 4.11964E+02 8.88247E-01
 -1      8344 1.15751E+03-4.11393E+02-2.88622E+00
 -1      8345 1.21310E+04 4.86001E+02 8.87062E-01
 -1      8346 1.19773E+04 3.90794E+02 8.75509E-01
 -1      8347 7.87263E+03-4.27883E+02 6.76816E-01
 -1      8348 2.28936E+01 2.38064E+01-7.41504E-01
 -1      8349 2.52872E+01 2.58718E+01-7.24381E-01
 -1      8350 3.07187E+01 2.73969E+01-9.65451E-01
 -1      8351 2.64431E+01 2.54689E+01-3.26107E-01
 -1      8352 2.83799E+01 2.56093E+01-9.91106E-01
 -1      8353 7.95803E+03-2.12936E+01 7.07029E-01
 -1      8354 6.94135E+03-2.21104E+01 6.69993E-01
 -1      8355 1.69788E+03 3.14501E+02 4.79758E-01
 -1      8356 1.57822E+03 2.67048E+02 4.72068E-01
 -1      8357 1.60790E+03 3.67126E+02 4.81356E-01
 -1      8358 9.77704E+03 4.05721E+02 7.97816E-01
 -1      8359 2.71291E+01 2.40156E+01-7.79958E-01
 -1      8360 1.68575E+01-2.76830E+01-5.50733E-01
 -1      8361 1.42473E+01-2.26666E+01-9.34340E-01
 -1      8362 7.71489E+02 1.49913E+02 4.07889E-01
 -1      8363 1.36529E+04-1.77652E+02 8.97437E-01
 -1      8364 1.36529E+04-1.77662E+02 8.97526E-01
 -1      8365 1.34979E+04-4.17705E+02 8.77021E-01
 -1      8366 1.36272E+04-4.04466E+02 8.81795E-01
 -1      8367 1.34979E+04-4.17696E+02 8.75687E-01
 -1      8368 3.43102E+03 4.92845E+02 5.70437E-01
 -1      8369 3.41987E+03 3.86386E+02 5.64365E-01
 -1      8370 3.29911E+03 5.33857E+02 5.69125E-01
 -1      8371 3.28788E+03 4.28574E+02 5.59986E-01
 -1      8372 8.24452E+03 6.98980E+02 1.15576E+00
 -1      8373 8.09045E+03 7.50907E+02 1.21054E+00
 -1      8374 8.24549E+03 6.01651E+02 7.57799E-01
 -1      8375 8.09138E+03 6.53752E+02 7.53039E-01
 -1      8376 8.09046E+03 7.50897E+02 3.11841E-01
 -1      8377 4.95757E+03 6.56451E+02-5.81004E-01
 -1      8378 4.95683E+03 5.76203E+02 6.35228E-01
 -1      8379 9.29104E+03 6.08139E+02 7.94106E-01
 -1      8380 9.13172E+03 7.61226E+02 5.24089E-01
 -1      8381 9.28997E+03 7.06550E+02 1.03563E+00
 -1      8382 9.13171E+03 7.61231E+02 1.07412E+00
 -1      8383 9.13275E+03 6.62917E+02 7.92648E-01
 -1      8384 2.89373E+00 5.69044E+00 6.66525E-03
 -1      8385 2.77746E+00 5.53566E+00 3.85680E-03
 -1      8386 1.26941E+01-2.02551E+01 8.87270E-01
 -1      8387 1.23053E+04-8.04078E+02 8.22513E-01
 -1      8388 1.21486E+04-7.48236E+02 8.25578E-01
 -1      8389 1.23053E+04-8.04069E+02 7.95950E-01
 -1      8390 1.16394E+04-2.92878E+02 8.18816E-01
 -1      8391 1.14980E+04-2.80426E+02 8.13846E-01
 -1      8392 1.15323E+04-4.38960E+02 8.04612E-01
 -1      8393 8.51574E+03-3.60799E+02 8.87567E-01
 -1      8394 8.51572E+03-3.60790E+02 5.19445E-01
 -1      8395 1.02096E+04-2.12811E+02 7.72988E-01
 -1      8396 1.02133E+04-4.12601E+02 7.59044E-01
 -1      8397 8.41751E+03 7.00769E+02 1.13183E+00
 -1      8398 8.59089E+03 7.02426E+02 1.11103E+00
 -1      8399 8.41753E+03 7.00757E+02 4.07560E-01
 -1      8400 8.59091E+03 7.02413E+02 4.41615E-01
 -1      8401 8.39997E+03 5.49245E+02 7.60707E-01
 -1      8402 9.04213E+03 1.06655E+02 7.52741E-01
 -1      8403 3.66409E+03 1.99706E+02 5.56122E-01
 -1      8404 1.53581E+02 1.15479E+01 3.16164E-01
 -1      8405 1.48083E+02 1.05592E+02-4.39571E+00
 -1      8406 1.68497E+02 1.12954E+02-4.31401E+00
 -1      8407 1.75124E+02 9.50146E+01-3.38027E+00
 -1      8408 1.83588E+02 1.20652E+02 3.51041E-01
 -1      8409 1.53438E+02 9.21290E+01-3.50043E+00
 -1      8410 5.53310E+02 2.72707E+01 3.70474E-01
 -1      8411 2.27290E+01-2.25010E+01 2.59149E-02
 -1      8412 6.58028E+00 1.61673E+01-5.36077E-01
 -1      8413 1.10882E+01 2.00749E+01-5.16163E-01
 -1      8414 8.51470E+03 4.04539E+02 7.54478E-01
 -1      8415 4.09698E+01-4.29390E+00-2.85224E-01
 -1      8416 4.47075E+01 7.02473E+00-1.11234E+00
 -1      8417 7.79286E+01 3.89782E+01 1.99544E-01
 -1      8418 9.49238E+01 5.49188E+01 2.78807E-01
 -1      8419 2.50531E+01 2.33175E+01-7.27298E-01
 -1      8420 1.24220E+04 4.80508E+02 8.96898E-01
 -1      8421 1.15861E+04-1.85150E+02 8.42104E-01
 -1      8422 1.15861E+04-1.85141E+02 8.05735E-01
 -1      8423 1.15111E+04-3.67779E+01 8.18952E-01
 -1      8424 1.34431E+01-3.26014E+01 6.48001E-01
 -1      8425 9.46485E+03 7.07653E+02 1.01766E+00
 -1      8426 9.63996E+03 7.08651E+02 1.00303E+00
 -1      8427 9.46487E+03 7.07644E+02 5.97766E-01
 -1      8428 9.63998E+03 7.08645E+02 6.24936E-01
 -1      8429 9.44956E+03 5.53153E+02 7.96304E-01
 -1      8430 5.49406E+03 3.73626E+02 6.43324E-01
 -1      8431 4.30962E+03 6.08563E+02-7.85852E-01
 -1      8432 4.16958E+03 6.54374E+02 2.19232E+00
 -1      8433 4.16960E+03 6.54365E+02-9.58277E-01
 -1      8434 3.29595E+01-4.30471E+01 4.26107E-01
 -1      8435 3.38578E+01-4.34112E+01-1.35489E-01
 -1      8436 3.20663E+01-4.23364E+01 2.77772E-01
 -1      8437 7.48491E+03 3.96748E+02 7.16210E-01
 -1      8438 9.89516E+00-1.20126E+01 1.74176E+00
 -1      8439 9.63851E+00-1.36446E+01 2.55523E-02
 -1      8440 2.68187E+02 9.19484E+00 3.39914E-01
 -1      8441 1.26587E+04 2.44876E+01 8.75528E-01
 -1      8442 1.25644E+04 1.81204E+02 8.82639E-01
 -1      8443 6.13074E+03-5.48705E+02 6.04745E-01
 -1      8444 7.55760E+03 6.90309E+02 1.25629E+00
 -1      8445 7.38702E+03 6.87831E+02 1.28499E+00
 -1      8446 7.37017E+03 5.38684E+02 7.23229E-01
 -1      8447 7.38703E+03 6.87819E+02 1.82148E-01
 -1      8448 7.55762E+03 6.90296E+02 2.21529E-01
 -1      8449 6.31866E+00-1.86325E+01 4.09018E-01
 -1      8450 1.05289E+01-1.99618E+01 7.83187E-01
 -1      8451 1.08339E+02 6.71424E+01 2.98820E-01
 -1      8452 8.72831E+03 4.03972E+02 7.61931E-01
 -1      8453 8.61326E+03 5.49143E+02 7.66960E-01
 -1      8454 1.84973E+02-3.42790E+01 3.18639E-01
 -1      8455 7.82953E+03 1.02871E+02 7.10280E-01
 -1      8456 8.00961E+03 1.04119E+02 7.18152E-01
 -1      8457 7.88110E+03 2.28155E+02 7.21631E-01
 -1      8458 1.30971E+03 2.42778E+01 4.22663E-01
 -1      8459 1.40054E+03 3.31096E+01 4.33054E-01
 -1      8460 1.68388E+02-1.14285E+01 3.17863E-01
 -1      8461 1.24705E+04-5.14094E+02 8.33890E-01
 -1      8462 1.24663E+04-7.49648E+02 8.08907E-01
 -1      8463 7.74041E+03 2.41249E+02 7.15181E-01
 -1      8464 6.27775E+03-4.96345E+02 6.12159E-01
 -1      8465 3.73114E+01-4.69804E+01 2.22780E+00
 -1      8466 3.74235E+01-4.68848E+01-1.32442E+00
 -1      8467 2.99770E+01 2.40114E+01 1.34272E+00
 -1      8468 4.03859E+03 6.17619E+02 2.16230E+00
 -1      8469 4.03768E+03 5.41204E+02 6.02225E-01
 -1      8470-2.92189E+00-1.39908E+01 4.17957E-01
 -1      8471-5.77462E+00-1.54811E+01 6.21492E-01
 -1      8472-3.68500E+00-1.04823E+01 4.98000E-01
 -1      8473 1.69394E+03 3.91095E+02 4.90601E-01
 -1      8474 8.90126E+03-4.33627E+02 7.11280E-01
 -1      8475 8.76005E+03-5.16621E+02 4.67586E-01
 -1      8476 6.86392E+03 2.22103E+02 6.82304E-01
 -1      8477 6.81411E+03 9.94468E+01 6.70891E-01
 -1      8478 6.99120E+03 1.00747E+02 6.81111E-01
 -1      8479 6.47428E+03 3.88526E+02 6.77792E-01
 -1      8480 1.12473E+04 4.01508E+02 8.50701E-01
 -1      8481 1.11285E+04 3.20854E+02 8.41128E-01
 -1      8482 1.13193E+04 1.68249E+02 8.39957E-01
 -1      8483 1.12005E+04 8.76653E+01 8.30304E-01
 -1      8484 1.13193E+04 1.68240E+02 8.36047E-01
 -1      8485 2.46255E+01-2.62931E+01 5.48387E-01
 -1      8486 1.11324E+04 1.13128E+02 8.27614E-01
 -1      8487 1.10723E+04-1.56733E+01 8.16909E-01
 -1      8488 6.37663E+03 6.72086E+02 1.47476E+00
 -1      8489 6.54311E+03 6.75560E+02 1.44109E+00
 -1      8490 6.37664E+03 6.72076E+02-8.76846E-02
 -1      8491 6.54313E+03 6.75555E+02-4.03459E-02
 -1      8492 6.35947E+03 5.29154E+02 6.81429E-01
 -1      8493 8.41301E+03-4.32876E+02 6.96593E-01
 -1      8494 8.55116E+03-5.16553E+02 4.37430E-01
 -1      8495 1.00586E+04-4.99687E+02 7.47850E-01
 -1      8496 1.32776E+04 4.51217E+02 9.25352E-01
 -1      8497 1.33830E+04 6.17396E+02 9.36329E-01
 -1      8498 1.33629E+04 4.57313E+02 9.24397E-01
 -1      8499 1.33830E+04 6.17387E+02 9.43342E-01
 -1      8500 5.98638E+03-4.90514E+02 6.01995E-01
 -1      8501 1.22525E+04 5.54561E+02 8.95848E-01
 -1      8502 9.02644E+03 3.14007E+02 7.66798E-01
 -1      8503 2.31961E+01-3.47801E+01 9.15354E-01
 -1      8504 2.46825E+01-3.60667E+01 9.41460E-01
 -1      8505 2.18001E+01-3.33288E+01 7.60851E-01
 -1      8506 2.28287E+01-3.42311E+01 2.37133E-01
 -1      8507 1.49106E+01-2.62875E+01-1.30802E-02
 -1      8508 1.04568E+02-9.25903E+01 3.31228E-01
 -1      8509 1.17396E+02-8.61086E+01 3.17190E-01
 -1      8510 1.20125E+02-1.07800E+02 3.28971E-01
 -1      8511 5.39741E+03 6.46985E+02 1.70497E+00
 -1      8512 5.55826E+03 6.51617E+02 1.66473E+00
 -1      8513 5.39743E+03 6.46972E+02-3.85926E-01
 -1      8514 5.55828E+03 6.51602E+02-3.33525E-01
 -1      8515 5.38137E+03 5.08787E+02 6.50357E-01
 -1      8516 3.43205E+03 5.66108E+02 2.33014E+00
 -1      8517 3.30027E+03 6.06298E+02 2.53250E+00
 -1      8518 3.30029E+03 6.06295E+02-1.37864E+00
 -1      8519 3.04986E+01 2.63026E+01-1.08182E+00
 -1      8520 7.69579E+03 3.96620E+02 7.24209E-01
 -1      8521 2.64847E+01-3.82006E+01 8.89224E-01
 -1      8522 8.70751E+01 5.74498E+01 2.17796E-01
 -1      8523 7.16206E+01 4.24353E+01 9.94439E-02
 -1      8524 1.81407E+01-2.45774E+01 1.25130E-01
 -1      8525 2.09390E+01-3.06160E+01 5.30731E-01
 -1      8526 1.67611E+01-2.66546E+01 1.26995E-01
 -1      8527 2.01211E+01-3.02988E+01 2.74483E-01
 -1      8528 2.51458E+01-3.56425E+01-3.75168E-01
 -1      8529 8.53527E+02 4.59842E+01 3.96935E-01
 -1      8530 9.02016E+02-1.41309E+01 3.87385E-01
 -1      8531 2.76541E+01-2.63522E+01 6.71830E-01
 -1      8532 2.26560E+01-2.25603E+01 3.25972E-01
 -1      8533 1.78920E+01 2.27186E+01-6.61863E-01
 -1      8534 1.32987E+01 2.05266E+01-5.20334E-01
 -1      8535 6.44263E+01 2.68045E+01 4.65003E-01
 -1      8536 8.01232E+01 5.70505E+01 7.52872E-02
 -1      8537 3.06183E+01 2.58810E+01 1.14844E+00
 -1      8538 3.09191E+01 2.69454E+01 1.02127E+00
 -1      8539 1.31259E+04 3.40858E+02 9.12637E-01
 -1      8540 4.10377E+01 1.29482E+01-1.35625E+00
 -1      8541 4.56065E+01 2.13990E+01 2.61076E-01
 -1      8542 4.03088E+01 1.05805E+01 2.41442E-01
 -1      8543 7.06555E+03 7.35268E+02 1.39269E+00
 -1      8544 6.91907E+03 6.78359E+02 6.79513E-02
 -1      8545 6.92010E+03 5.83313E+02 7.08626E-01
 -1      8546 7.06658E+03 6.39803E+02 7.17498E-01
 -1      8547 7.06557E+03 7.35255E+02 5.96417E-02
 -1      8548 1.55585E+01 1.60726E+01-6.29813E-01
 -1      8549 1.77527E+01 1.63263E+01-9.50267E-01
 -1      8550 1.33226E+04 7.47300E+02 9.46016E-01
 -1      8551 8.97876E+03 7.03964E+02 1.06500E+00
 -1      8552 8.97981E+03 6.05842E+02 7.84385E-01
 -1      8553 1.41695E+01-1.86583E+01 2.12709E+00
 -1      8554 1.65364E+03 1.39049E+02 4.53787E-01
 -1      8555 1.36944E+04-3.47676E+02 8.88072E-01
 -1      8556 1.37373E+04-5.07748E+02 8.79067E-01
 -1      8557 1.38251E+04-3.24491E+02 8.93987E-01
 -1      8558 1.36701E+04-5.64539E+02 8.72845E-01
 -1      8559 1.35395E+04-5.87725E+02 8.66342E-01
 -1      8560 1.36945E+04-3.47686E+02 8.87664E-01
 -1      8561 1.37374E+04-5.07758E+02 8.78794E-01
 -1      8562 1.35395E+04-5.87734E+02 8.67093E-01
 -1      8563 7.67848E+01-4.75460E+00 2.67065E-01
 -1      8564 1.27962E+04 6.02929E+01 8.82687E-01
 -1      8565-1.98907E+00-1.21027E+01 3.11787E-01
 -1      8566-2.70556E+00-8.58940E+00 3.82058E-01
 -1      8567 1.22347E+00-1.54950E+01 3.73726E-02
 -1      8568 8.20146E-01-1.68939E+01 2.84756E-01
 -1      8569 4.41514E+00-1.92542E+01 3.72789E-01
 -1      8570 2.02714E+00-1.30718E+01 1.88880E-02
 -1      8571 1.81870E+00-1.48069E+01 1.14101E-01
 -1      8572-3.02044E-01-1.15407E+01-9.20839E-03
 -1      8573 3.18004E+03 5.70880E+02 2.49102E+00
 -1      8574 3.17892E+03 4.99389E+02 5.63162E-01
 -1      8575 5.75404E+03 2.27706E+02 6.43176E-01
 -1      8576 7.99021E+03 3.08491E+02 7.29239E-01
 -1      8577-4.40160E+00-7.14548E+00-5.83471E-01
 -1      8578-3.90966E+00-5.38899E+00-5.91678E-01
 -1      8579-3.98336E+00-7.32523E+00 9.19742E-02
 -1      8580-2.67691E+00-4.96015E+00-3.87383E-01
 -1      8581-2.99165E+00-6.93331E+00-3.70322E-01
 -1      8582 8.21029E+02 2.98323E+02-2.90274E+00
 -1      8583 1.51585E+03 3.55183E+02 4.73520E-01
 -1      8584 1.79027E+01 2.27095E+01 4.70175E-01
 -1      8585 1.15112E+04-3.67865E+01 8.42741E-01
 -1      8586 1.69564E+03 4.50146E+02 3.29387E+00
 -1      8587 1.69567E+03 4.50132E+02-2.30051E+00
 -1      8588 1.78350E+03 4.75859E+02-2.32280E+00
 -1      8589 1.32235E+04 1.40774E+02 9.03130E-01
 -1      8590 1.33906E+04 2.25134E+02 9.14527E-01
 -1      8591 1.82196E+01-2.45125E+01 1.86849E-01
 -1      8592 1.69594E+01-2.64784E+01 1.62983E-01
 -1      8593 4.99656E+01 3.40957E+01 1.61500E-01
 -1      8594 5.19404E+01 3.32149E+01-1.57743E+00
 -1      8595 1.95948E+03 1.46483E+02 4.74552E-01
 -1      8596 1.35038E+01-9.50041E+00-3.26507E-01
 -1      8597 1.75207E+01-5.22722E+00-1.24628E-01
 -1      8598 2.79970E+00 1.04313E+01-4.82368E-01
 -1      8599 1.84310E+00 7.65428E+00-4.05045E-01
 -1      8600 1.31690E+00 7.89016E+00-5.69721E-01
 -1      8601 7.47919E-01 5.27488E+00-4.58324E-01
 -1      8602 1.78576E+03 3.37296E+02 4.81761E-01
 -1      8603 1.78174E+03 4.15535E+02 4.93628E-01
 -1      8604 2.62359E+03 5.14811E+02 2.67776E+00
 -1      8605 2.49996E+03 5.47614E+02 2.91694E+00
 -1      8606 2.49854E+03 4.81204E+02 5.34751E-01
 -1      8607 2.49997E+03 5.47608E+02-1.83420E+00
 -1      8608 2.62233E+03 4.47342E+02 5.36998E-01
 -1      8609 3.14504E+01-8.90613E+00-7.63579E-02
 -1      8610 7.22277E+03 4.59043E+02 7.12941E-01
 -1      8611 3.38467E+03 2.49884E+02 5.49877E-01
 -1      8612 5.86200E+00 1.75207E+01-1.93951E-02
 -1      8613 9.14036E+00 2.18760E+01-6.21650E-01
 -1      8614 9.93425E+00 2.12562E+01 4.29048E-03
 -1      8615 3.09806E+01-3.09044E+01-5.77086E-01
 -1      8616 3.68817E+01-3.19642E+01-8.79053E-01
 -1      8617 5.13084E+01 3.56431E+01-4.59342E+00
 -1      8618 1.58777E+03 4.37493E+02 3.36927E+00
 -1      8619 1.58778E+03 4.37478E+02-2.39065E+00
 -1      8620 1.49629E+03 4.23715E+02-2.44922E+00
 -1      8621 4.11609E+01 2.54261E+01 2.26937E+00
 -1      8622 3.45020E+01 2.13538E+01 1.53703E+00
 -1      8623 6.96974E+03 3.00788E+02 6.90982E-01
 -1      8624 1.30957E+04 1.93614E+02 9.02174E-01
 -1      8625 1.34608E+03 8.48870E+01 4.32091E-01
 -1      8626 1.37373E+04 3.90163E+02 9.37237E-01
 -1      8627 1.37373E+04 3.90177E+02 9.37785E-01
 -1      8628 8.24959E+03 4.69022E+02 7.49902E-01
 -1      8629 1.13742E+04 3.25218E+02 8.50510E-01
 -1      8630 1.14462E+04 9.18879E+01 8.42092E-01
 -1      8631 1.14462E+04 9.18975E+01 8.32704E-01
 -1      8632 9.29403E+03 4.74273E+02 7.85611E-01
 -1      8633 1.30057E+01-2.49188E+01 6.18079E-01
 -1      8634 1.66658E+01-2.82530E+01-1.51569E-01
 -1      8635 6.72657E+03 2.34638E+02 6.79133E-01
 -1      8636 5.48626E+01 1.91785E+01 1.33533E+00
 -1      8637-6.30898E-01-3.76337E+00 4.12980E-03
 -1      8638-6.97145E-01-2.26634E+00-8.50244E-02
 -1      8639-1.72647E+00-7.63041E+00-1.69524E-01
 -1      8640-2.06765E+00-5.75627E+00-2.48129E-01
 -1      8641-1.07626E+00-3.70794E+00-2.89759E-02
 -1      8642 1.44625E+03 1.25742E+02 4.46381E-01
 -1      8643 3.16785E+03 3.95466E+02 5.49345E-01
 -1      8644 2.71610E+01 2.84971E+01 5.30957E-01
 -1      8645 2.27923E+01 2.51740E+01 4.92804E-01
 -1      8646 2.30013E+02-1.35318E+02-2.94055E+00
 -1      8647 2.30033E+02-1.35322E+02 3.54149E+00
 -1      8648 1.23197E+04-5.51700E+01 8.58612E-01
 -1      8649 1.14447E+04-1.72713E+02 7.99285E-01
 -1      8650 1.14447E+04-1.72723E+02 8.40147E-01
 -1      8651 2.68779E+03 1.59140E+02 5.13357E-01
 -1      8652 4.13292E+02-2.43381E+02-3.67273E+00
 -1      8653 7.94543E+03 4.64580E+02 7.36973E-01
 -1      8654 7.94140E+03 5.96576E+02 7.44568E-01
 -1      8655 8.09541E+03 5.21379E+02 7.45228E-01
 -1      8656 9.13570E+03 5.29204E+02 7.83839E-01
 -1      8657 2.94201E+01-4.11951E+01 1.09269E+00
 -1      8658 2.62445E+01-3.75766E+01 7.68081E-02
 -1      8659 4.14021E+03 3.50708E+02 5.91011E-01
 -1      8660 6.40635E+02-3.09578E+02 4.05361E+00
 -1      8661 6.92054E+02-2.66348E+02 3.28267E-01
 -1      8662 6.40614E+02-3.09564E+02-3.42296E+00
 -1      8663 5.75459E+02-2.89059E+02-3.44119E+00
 -1      8664 6.24157E+02-2.48725E+02 3.24423E-01
 -1      8665 4.16327E-01 2.00617E+00 1.66979E-01
 -1      8666 1.76563E+00 5.85889E+00 7.47590E-02
 -1      8667 7.08711E-01 3.48269E+00 3.11373E-02
 -1      8668 2.94677E+01 1.68085E+01 1.10691E+00
 -1      8669 3.10574E+01 1.24762E+01 1.09009E+00
 -1      8670 2.92633E+01 4.39559E+00 3.38364E-01
 -1      8671 2.62167E+01 8.76970E+00 9.98265E-01
 -1      8672 3.13605E+03 2.64188E+02 5.39025E-01
 -1      8673 3.27700E+03 3.23758E+02 5.49524E-01
 -1      8674 1.24892E+04-1.53451E+01 8.67082E-01
 -1      8675 1.78348E+03 4.75860E+02 3.32916E+00
 -1      8676 1.30616E+04 4.32624E+01 8.91057E-01
 -1      8677 2.11659E+01-3.17468E+01 9.11906E-01
 -1      8678 1.83781E+01-2.87046E+01 9.97085E-01
 -1      8679 1.10222E+02 7.76967E+01 4.19047E+00
 -1      8680 9.54093E+01 6.87434E+01 3.74728E+00
 -1      8681 9.54248E+01 6.86454E+01-3.21717E+00
 -1      8682 1.10187E+02 7.76780E+01-3.60158E+00
 -1      8683 7.21811E+03 5.89461E+02 7.21629E-01
 -1      8684 7.07116E+03 5.09781E+02 7.08217E-01
 -1      8685 6.68174E+03 3.86669E+02 6.88506E-01
 -1      8686 6.56621E+03 5.28278E+02 6.91912E-01
 -1      8687 2.10162E+01-3.05609E+01-1.32671E-01
 -1      8688 2.12828E+01-3.22127E+01 7.87924E-02
 -1      8689 1.78026E+01-2.86961E+01-3.39718E-02
 -1      8690 1.80647E+01-2.74631E+01 1.46039E-01
 -1      8691 5.19030E+03 2.93848E+02 6.23547E-01
 -1      8692 1.86870E+01-2.84100E+01 6.47427E-01
 -1      8693 2.07884E+01-3.06294E+01 1.24263E+00
 -1      8694 8.87064E+03 3.90772E+02 7.66763E-01
 -1      8695 1.15694E+04 7.20170E+02 8.60802E-01
 -1      8696 1.18014E+02 3.79508E+01 3.16862E-01
 -1      8697 1.04822E+02 1.09506E+01 3.07218E-01
 -1      8698 1.50058E+02 6.58017E+01 3.15112E+00
 -1      8699 4.09555E+00 1.31156E+01 4.96400E-01
 -1      8700 7.83036E+00 1.70371E+01 5.23998E-01
 -1      8701 1.06078E+03 3.45217E+02 3.61920E+00
 -1      8702 6.92469E+03 4.53823E+02 6.99710E-01
 -1      8703 1.13979E+04 4.85735E+02 8.61233E-01
 -1      8704 1.77524E+03 1.82932E+02 4.66292E-01
 -1      8705 5.69404E+03 3.75271E+02 6.51501E-01
 -1      8706 2.22963E+01-3.31613E+01 7.12517E-01
 -1      8707 7.60278E+01-2.17525E+01 3.57629E-01
 -1      8708 1.32266E+03 1.54714E+02 4.39398E-01
 -1      8709 5.84288E+03-5.51717E+02 5.91398E-01
 -1      8710 1.05204E+04-5.87079E+02 7.59172E-01
 -1      8711 1.02281E+02-7.28463E+01 2.81366E-01
 -1      8712 3.13760E+03-4.62816E+02 4.79068E-01
 -1      8713 8.81860E+01-3.09604E+01 3.26046E-01
 -1      8714 7.20817E+01-3.64596E+01 2.80474E-01
 -1      8715 3.98652E+03-4.98500E+02 5.12560E-01
 -1      8716 9.45079E+02-6.87540E+01 3.82533E-01
 -1      8717 1.89266E+01 6.30863E-01-2.76921E-01
 -1      8718 3.23001E+01-4.27596E+01 9.49393E-01
 -1      8719 3.03907E+01-4.18679E+01 8.82440E-01
 -1      8720 3.05516E+01-4.15528E+01 3.05009E-01
 -1      8721 4.89236E+03-5.27159E+02 5.52941E-01
 -1      8722 9.22098E+01-9.41294E+01-3.18595E+00
 -1      8723 8.45279E+01-9.06397E+01 3.91006E+00
 -1      8724 8.44328E+01-9.08232E+01-3.18238E+00
 -1      8725 1.89474E+03 4.51857E+02 3.05936E+00
 -1      8726 1.89318E+03 3.90168E+02 4.97911E-01
 -1      8727 1.24700E+04 3.37908E+02 8.89434E-01
 -1      8728 1.31119E+02-8.40702E+01 3.27538E-01
 -1      8729 1.39874E+02-5.92311E+01 3.08884E-01
 -1      8730 6.82801E+03-5.68698E+02 6.24246E-01
 -1      8731 6.62621E+03-5.66790E+02 6.19560E-01
 -1      8732 9.69318E+03-5.90184E+02 7.29735E-01
 -1      8733 9.90398E+03-5.86608E+02 7.36452E-01
 -1      8734 7.83841E+03-5.80840E+02 6.65059E-01
 -1      8735 2.71558E+01-3.93083E+01 2.79693E-02
 -1      8736 1.25547E+03 8.68194E+01 4.26619E-01
 -1      8737 1.07154E+04 5.61001E+02 8.41968E-01
 -1      8738 1.09274E+04 5.64305E+02 8.48988E-01
 -1      8739 1.17797E+04-5.95553E+02 8.04150E-01
 -1      8740 1.15665E+04-5.97558E+02 7.95592E-01
 -1      8741 3.47968E+01-4.41660E+01-3.03658E-01
 -1      8742 3.37820E+01-4.34872E+01 1.08250E+00
 -1      8743 3.47172E+01-4.42397E+01 1.22777E+00
 -1      8744 2.21087E+03-4.12030E+02 4.31030E-01
 -1      8745 2.35893E+03-4.19879E+02 4.40009E-01
 -1      8746 5.75477E+02-2.89062E+02 4.06662E+00
 -1      8747-1.83569E-01 3.42332E+00-1.94194E-01
 -1      8748-8.77752E-02 3.46054E+00-3.36681E-01
 -1      8749 2.55059E-01 3.15497E+00-1.53783E-01
 -1      8750 9.15103E-02 6.79605E+00-3.61009E-01
 -1      8751 1.35170E-01 3.08693E+00-5.04283E-02
 -1      8752 5.20002E+01 3.32932E+01 1.82950E+00
 -1      8753 1.25903E+02 9.22425E+01 4.78185E+00
 -1      8754 1.47995E+02 1.05606E+02 5.05098E+00
 -1      8755 1.25926E+02 9.21638E+01-4.15873E+00
 -1      8756-2.56495E+00-3.51973E+00 2.80092E-02
 -1      8757-2.41910E+00-3.70652E+00-1.29787E-01
 -1      8758-1.45430E+00-3.08398E+00-7.04275E-02
 -1      8759-1.59156E+00-2.88127E+00 2.67759E-02
 -1      8760 2.29273E+01-3.32214E+01 2.68565E-01
 -1      8761-8.84247E-01-1.14360E+01-1.26719E-01
 -1      8762 1.51099E+01 1.22049E+01-1.05673E+00
 -1      8763 1.83178E+01 1.53260E+01-1.06036E+00
 -1      8764 9.36577E+01-1.28182E+01 3.07945E-01
 -1      8765 1.19104E+04 7.44687E+02 9.01497E-01
 -1      8766 1.20370E+04 6.78370E+02 8.96616E-01
 -1      8767 1.19105E+04 7.44678E+02 8.90987E-01
 -1      8768 6.73404E+01 4.83341E+01-1.70670E+00
 -1      8769 2.18962E+01 2.13990E+01-6.91853E-01
 -1      8770 1.86644E+01 1.84802E+01-8.65272E-01
 -1      8771 2.18895E+01 2.05911E+01-9.18859E-01
 -1      8772 2.38431E+01-7.66438E+00 3.46769E-01
 -1      8773 2.03087E+01-4.90704E+00 3.79125E-01
 -1      8774 7.27527E+03-5.08221E+02 6.47469E-01
 -1      8775 7.12410E+03-5.62727E+02 6.39988E-01
 -1      8776 3.77425E+02-3.48135E+01 3.39398E-01
 -1      8777 3.28189E+02-5.67606E+00 3.42736E-01
 -1      8778 4.61510E+03 6.20713E+02 1.92354E+00
 -1      8779 4.46164E+03 6.14766E+02 1.97134E+00
 -1      8780 4.45029E+03 4.83202E+02 6.13428E-01
 -1      8781 4.46165E+03 6.14759E+02-7.22924E-01
 -1      8782 4.61511E+03 6.20709E+02-6.65038E-01
 -1      8783 1.44673E+01-2.03726E+01 1.01910E-01
 -1      8784 8.14031E+03-5.73304E+02 6.75761E-01
 -1      8785 1.33630E+04 4.57304E+02 9.33056E-01
 -1      8786 1.95850E+01 8.72636E+00 5.71390E-01
 -1      8787 2.35677E+01 1.13992E+01 7.67514E-01
 -1      8788 1.95539E+01 8.69299E+00-4.80590E-01
 -1      8789 2.35252E+01 1.13667E+01-6.53129E-01
 -1      8790 1.03779E+02-3.58938E+01 3.07277E-01
 -1      8791 1.15758E+02-6.21111E+01 2.97724E-01
 -1      8792 1.26327E+02-3.85270E+01 3.02497E-01
 -1      8793 1.38829E+02-1.07957E+01 2.99705E-01
 -1      8794 1.14075E+02-1.19660E+01 3.13386E-01
 -1      8795 9.17180E+03-5.80163E+02 7.12442E-01
 -1      8796 1.05387E+02 4.85345E+01 3.25014E-01
 -1      8797 1.29280E+04-8.50272E+01 8.77835E-01
 -1      8798 7.71562E+01 5.77935E+01 3.03470E+00
 -1      8799 7.06183E+01 5.28997E+01 2.57177E+00
 -1      8800 6.16579E+01 4.47052E+01 1.69729E+00
 -1      8801 6.49703E+01 4.86761E+01 1.64122E-01
 -1      8802 6.72378E+01 4.81170E+01 2.16026E+00
 -1      8803 7.71760E+01 5.77470E+01-2.67662E+00
 -1      8804 7.06320E+01 5.28739E+01-2.28282E+00
 -1      8805 6.16643E+01 4.47140E+01-1.46014E+00
 -1      8806 1.85904E+03 1.26613E+02 4.66913E-01
 -1      8807 7.07586E+03 3.79884E+02 7.00361E-01
 -1      8808 7.09726E+03 1.79297E+02 6.87776E-01
 -1      8809 2.09592E+03 1.64691E+02 4.85668E-01
 -1      8810 7.83634E+03 3.83932E+02 7.29020E-01
 -1      8811-1.13399E+00-1.65044E+00-3.52287E-01
 -1      8812-1.74011E+00-3.03929E+00-4.38078E-01
 -1      8813 1.53880E+03-3.54204E+02 3.93897E-01
 -1      8814 1.66887E+03-3.68609E+02 4.02857E-01
 -1      8815 4.84100E+02 9.33913E+01 3.72900E-01
 -1      8816 4.86393E+02 2.06435E+01 3.56840E-01
 -1      8817 7.83694E+00 6.05484E+00 7.61999E-01
 -1      8818 1.19316E+01 1.13425E+01 7.40059E-01
 -1      8819 1.27608E+01 1.01668E+01 9.96454E-01
 -1      8820 1.32576E+04 2.91125E+02 9.14273E-01
 -1      8821 8.09952E+03 3.89120E+02 7.37789E-01
 -1      8822 8.11888E+03 1.84350E+02 7.26653E-01
 -1      8823 1.52943E+02-3.09997E+01 3.05102E-01
 -1      8824 1.33562E+02-1.09183E+02 3.25895E-01
 -1      8825 1.27511E+02 1.55786E+01 3.12456E-01
 -1      8826 1.66809E+03 2.12888E+02 4.66084E-01
 -1      8827 1.79024E+03 2.59121E+02 4.71732E-01
 -1      8828 4.73597E+03 2.41411E+02 6.06705E-01
 -1      8829 2.05007E+01 2.47305E+01-6.70861E-01
 -1      8830 1.58178E+01 2.26942E+01-5.39534E-01
 -1      8831 7.98938E+03-5.13760E+02 6.75023E-01
 -1      8832 9.01862E+03-6.48912E+02 7.01493E-01
 -1      8833 1.08685E+01-2.80408E+01-2.87152E-01
 -1      8834 1.17034E+01-2.34535E+01-6.08470E-01
 -1      8835 1.06702E+03-3.97070E+02 3.66872E+00
 -1      8836 1.06699E+03-3.97054E+02-2.98155E+00
 -1      8837 9.87179E+02-3.81213E+02-3.04137E+00
 -1      8838 5.84096E+03 3.66413E+02 6.57398E-01
 -1      8839 3.49367E+03 1.74383E+02 5.46543E-01
 -1      8840 1.48676E+03 2.57485E+02 4.66479E-01
 -1      8841 1.42603E+03 3.43149E+02 4.70178E-01
 -1      8842 9.13870E+03 3.95588E+02 7.75316E-01
 -1      8843 9.15436E+03 1.87965E+02 7.62474E-01
 -1      8844 4.37093E+03 1.88459E+02 5.86476E-01
 -1      8845 2.84106E+03 1.82352E+02 5.19421E-01
 -1      8846 9.82812E+01-5.40418E+01 2.81562E-01
 -1      8847 9.88402E+03-7.41827E+02 9.09348E-01
 -1      8848 9.88401E+03-7.41817E+02 5.43452E-01
 -1      8849 2.02565E+01 7.72545E+00-5.24122E-01
 -1      8850 5.82499E+03-6.91703E+02-3.69665E-01
 -1      8851 5.82501E+03-6.91711E+02 1.52708E+00
 -1      8852 7.48104E+02-2.36681E+02 3.38072E-01
 -1      8853 6.58128E+02-2.04060E+02 3.33883E-01
 -1      8854 1.46781E+01-2.27311E+01 1.62452E+00
 -1      8855 1.64250E+01-2.66061E+01 9.33444E-01
 -1      8856 2.71299E+01-3.93974E+01 9.61265E-01
 -1      8857 4.31044E+00-2.14273E+01 1.15646E-01
 -1      8858 6.47958E+00-2.52901E+01 5.49791E-01
 -1      8859 7.81886E+03-7.28657E+02 1.60759E-01
 -1      8860 7.81888E+03-7.28663E+02 1.14561E+00
 -1      8861 6.80920E+03-7.13195E+02-8.56211E-02
 -1      8862 6.80922E+03-7.13204E+02 1.31637E+00
 -1      8863 4.87554E+03-6.62235E+02 1.77215E+00
 -1      8864 4.87552E+03-6.62219E+02-6.87522E-01
 -1      8865 3.97113E+03-6.25917E+02 2.05332E+00
 -1      8866 3.97111E+03-6.25900E+02-1.04769E+00
 -1      8867 3.12390E+03-5.80702E+02-1.43884E+00
 -1      8868 3.12391E+03-5.80700E+02 2.37463E+00
 -1      8869 1.05401E+04-7.43586E+02 8.65890E-01
 -1      8870 1.05401E+04-7.43577E+02 6.34303E-01
 -1      8871 7.59906E+00-2.54098E+01-2.71306E-01
 -1      8872 4.47487E+00-1.92047E+01-1.73368E-01
 -1      8873 3.55502E+00-2.24991E+01-2.22353E-01
 -1      8874 5.36715E+00-1.34546E+01 4.85420E-01
 -1      8875 1.20659E+01 6.11834E-01 1.36257E-01
 -1      8876 1.70205E+01 5.49170E+00 4.09154E-01
 -1      8877 1.40409E+01 3.14115E+00 1.38180E-01
 -1      8878 1.33278E+01-3.40983E+00 1.52048E-01
 -1      8879 1.80559E+01 2.22917E+00 8.02351E-02
 -1      8880 1.62177E+01-8.78691E-01 2.98616E-01
 -1      8881 3.61130E+02-2.26377E+02 4.38483E+00
 -1      8882 3.21992E+02-2.12434E+02 4.72036E+00
 -1      8883 3.22058E+02-2.12416E+02-3.55772E+00
 -1      8884 3.61122E+02-2.26367E+02-3.73294E+00
 -1      8885 2.99722E+03 2.06176E+02 5.27569E-01
 -1      8886 1.30559E+04-1.37872E+02 8.78946E-01
 -1      8887 2.34726E+03-5.25919E+02 2.73074E+00
 -1      8888 2.34723E+03-5.25903E+02-1.87328E+00
 -1      8889 3.83697E+03 2.25557E+02 5.67398E-01
 -1      8890 7.52025E+02 2.93690E+02-3.07771E+00
 -1      8891 7.52011E+02 2.93697E+02 3.93599E+00
 -1      8892 9.66290E+03 5.52470E+02 8.04362E-01
 -1      8893 9.87653E+03 5.51672E+02 8.11263E-01
 -1      8894 2.72209E+02 1.59810E+02-4.10947E+00
 -1      8895 2.72200E+02 1.59816E+02 4.82997E+00
 -1      8896 2.25152E+02 1.40577E+02 3.69852E-01
 -1      8897 2.46748E+00 1.12766E+01 5.31238E-01
 -1      8898 1.12274E+00 8.82839E+00 4.67925E-01
 -1      8899-2.43316E+00-3.68861E+00 1.59242E-01
 -1      8900-1.46750E+00-3.06761E+00 1.00969E-01
 -1      8901 1.15863E+04-7.49994E+02 7.45124E-01
 -1      8902 1.15863E+04-7.50002E+02 8.29277E-01
 -1      8903 1.03492E+04 4.70239E+02 8.22957E-01
 -1      8904 1.23665E+01-3.81880E+01 5.49228E-01
 -1      8905 1.45624E+01-3.78168E+01 5.76762E-01
 -1      8906 1.49628E+03 4.23718E+02 3.41310E+00
 -1      8907 1.09064E+04 7.16624E+02 9.24491E-01
 -1      8908 1.09064E+04 7.16617E+02 7.92507E-01
 -1      8909 5.09247E+03 4.99258E+02 6.34801E-01
 -1      8910 4.95564E+03 4.64319E+02 6.27372E-01
 -1      8911 7.11898E+03-2.13613E+01 6.75626E-01
 -1      8912 4.55247E+03 2.14728E+02 5.96876E-01
 -1      8913 2.61252E+01-3.76226E+01-6.79706E-01
 -1      8914 3.89208E+00 6.65902E+00 1.67089E-01
 -1      8915 1.07711E+02-1.04388E+02-3.59489E+00
 -1      8916 1.07639E+02-1.04393E+02 4.27574E+00
 -1      8917 9.21874E+01-9.40571E+01 3.90910E+00
 -1      8918 5.07178E+01 3.87787E+01 7.19412E-01
 -1      8919 5.88943E+01 4.45822E+01 1.39569E-01
 -1      8920 4.98087E+01 3.70128E+01 7.49767E-01
 -1      8921 5.65630E+01 4.29335E+01-8.17437E-01
 -1      8922 1.65769E+03-4.60458E+02 3.12542E+00
 -1      8923 1.65766E+03-4.60438E+02-2.34572E+00
 -1      8924 1.00356E+04 4.67405E+02 8.12757E-01
 -1      8925 8.13847E+03-2.04319E+01 7.13476E-01
 -1      8926 1.32874E+00 3.66062E+00 8.54942E-02
 -1      8927 1.52093E+00 3.92162E+00 1.13411E-01
 -1      8928 3.91277E+00 8.54631E+00 2.14489E-01
 -1      8929 2.30823E+00 5.08731E+00-3.49720E-02
 -1      8930 4.09943E+01-4.26070E+00 7.22375E-01
 -1      8931 4.46941E+01 7.05506E+00 1.56826E+00
 -1      8932 2.94717E+01-4.12755E+01-9.72199E-01
 -1      8933 4.10493E+01 1.29738E+01 1.79775E+00
 -1      8934 3.57430E+03 5.73821E+02 2.27080E+00
 -1      8935 3.71833E+03 5.81259E+02 2.21906E+00
 -1      8936 3.57432E+03 5.73810E+02-1.10247E+00
 -1      8937 3.71835E+03 5.81240E+02-1.03663E+00
 -1      8938 3.56469E+03 4.50466E+02 5.68953E-01
 -1      8939 2.81348E+02 5.34053E+01 3.46976E-01
 -1      8940 2.99919E+02 1.02338E+02 3.58803E-01
 -1      8941 7.70623E+02 3.19594E+01 3.81739E-01
 -1      8942 2.68428E+02-1.91322E+02-3.68713E+00
 -1      8943 2.68326E+02-1.91287E+02 4.86978E+00
 -1      8944 2.53770E+02-1.51524E+02 2.98386E-01
 -1      8945 6.42140E+02-3.32961E+01 3.64969E-01
 -1      8946 7.11087E+02 1.14017E+01 3.79164E-01
 -1      8947 6.40191E+01 1.44836E+01 2.65403E-01
 -1      8948 3.76932E+01-1.39795E+01 3.47604E-01
 -1      8949 3.77824E+01-2.41292E+01 1.00808E+00
 -1      8950 9.85355E+03 7.08079E+02 6.57589E-01
 -1      8951 9.85354E+03 7.08090E+02 9.86157E-01
 -1      8952 6.81891E+03 3.74718E+02 6.90220E-01
 -1      8953 3.16371E+00 9.34571E+00-3.70373E-01
 -1      8954 3.17430E+00 9.34731E+00 3.52777E-01
 -1      8955 2.39543E+03 5.14694E+02-1.79793E+00
 -1      8956 2.39405E+03 4.49396E+02 5.28093E-01
 -1      8957 1.36229E+03 2.82271E+02 4.55448E-01
 -1      8958 3.04318E+03 5.62125E+02 2.55436E+00
 -1      8959 3.06018E+03 4.65438E+02 5.54311E-01
 -1      8960 3.04319E+03 5.62110E+02-1.42949E+00
 -1      8961 2.88619E+03 5.33293E+02-1.44487E+00
 -1      8962 2.90287E+03 4.38439E+02 5.46624E-01
 -1      8963 8.82708E+03 5.48889E+02 7.75315E-01
 -1      8964 2.23581E+03 1.83445E+02 4.97815E-01
 -1      8965 5.09146E+03 3.86743E+02 6.25668E-01
 -1      8966 9.17017E+03-1.96252E+01 7.50036E-01
 -1      8967 1.16848E+01 4.77372E+00 1.99031E-01
 -1      8968 4.85474E+00-3.39682E+01-1.85624E-01
 -1      8969 3.66171E+00-3.03073E+01 1.65883E-01
 -1      8970 4.30062E+01-3.28859E+01-1.20572E+00
 -1      8971 3.62380E+01-3.97479E+01-1.35906E+00
 -1      8972 3.67426E+02 1.18841E+01 3.47952E-01
 -1      8973 4.50608E+01 2.44558E+01-2.32206E+00
 -1      8974 4.68867E+01 1.79772E+01-1.90946E+00
 -1      8975 1.96501E+03-4.93900E+02 2.94552E+00
 -1      8976 4.63463E+03 5.11857E+02 6.21604E-01
 -1      8977 4.80116E+03 6.50819E+02 1.91784E+00
 -1      8978 4.80118E+03 6.50805E+02-6.42880E-01
 -1      8979 4.82090E+03 5.40736E+02 6.29581E-01
 -1      8980 7.89826E+00-2.23470E+01-3.12959E-01
 -1      8981 4.84008E+01-5.45264E+01 5.08055E+00
 -1      8982 4.84919E+01-5.43111E+01-4.23063E+00
 -1      8983 1.23349E+04 7.47053E+02 9.22180E-01
 -1      8984 1.22134E+04 6.78481E+02 8.95373E-01
 -1      8985 1.23348E+04 7.47061E+02 8.99887E-01
 -1      8986 9.87208E+02-3.81219E+02 3.71563E+00
 -1      8987 3.89089E+03 6.10505E+02 2.21677E+00
 -1      8988 3.73513E+03 4.77911E+02 5.81317E-01
 -1      8989 3.89091E+03 6.10497E+02-1.01344E+00
 -1      8990 3.90792E+03 5.05647E+02 5.94233E-01
 -1      8991 7.58056E+03 5.39245E+02 7.29215E-01
 -1      8992 7.79177E+03 5.39613E+02 7.37084E-01
 -1      8993 1.06079E+03 3.45207E+02-2.71102E+00
 -1      8994 4.02347E+03 4.28874E+02 5.93864E-01
 -1      8995 2.71772E+03 2.84827E+02 5.27090E-01
 -1      8996 1.90115E+01-3.04526E+01-3.74363E-01
 -1      8997 8.80464E+03 7.02564E+02 4.80671E-01
 -1      8998 8.80463E+03 7.02570E+02 1.08643E+00
 -1      8999 2.27173E+03 5.04118E+02 2.93637E+00
 -1      9000 2.12860E+03 4.73993E+02 2.92433E+00
 -1      9001 2.14757E+03 3.90250E+02 5.09866E-01
 -1      9002 2.27175E+03 5.04116E+02-1.88007E+00
 -1      9003 2.29118E+03 4.18179E+02 5.20959E-01
 -1      9004 3.02838E+03 3.35192E+02 5.41492E-01
 -1      9005 6.77446E+02 2.77894E+02-3.17430E+00
 -1      9006 6.77421E+02 2.77900E+02 4.01676E+00
 -1      9007 6.13317E+02 2.64049E+02 4.09640E+00
 -1      9008 4.20809E+02-5.27256E+01 3.41712E-01
 -1      9009 4.85734E+02-5.91083E+01 3.45544E-01
 -1      9010 1.37373E+04-4.21953E+02 8.84853E-01
 -1      9011 1.37374E+04-4.21968E+02 8.84202E-01
 -1      9012 7.12426E+03-4.38223E+02 6.47630E-01
 -1      9013 7.76869E+03 6.91288E+02 1.22258E+00
 -1      9014 7.76870E+03 6.91285E+02 2.69227E-01
 -1      9015 8.17655E+02-2.00704E+01 3.82629E-01
 -1      9016 2.51718E+03 3.01218E+02 5.25757E-01
 -1      9017 2.37494E+03 2.41222E+02 5.10260E-01
 -1      9018 4.25504E+03 2.70234E+02 5.87912E-01
 -1      9019 1.29224E+04-2.66161E+02 8.65849E-01
 -1      9020 1.27754E+04-4.31243E+02 8.50016E-01
 -1      9021 1.26285E+04-5.96324E+02 8.34124E-01
 -1      9022 2.40306E+03 3.60873E+02 5.23891E-01
 -1      9023 2.50766E+03 3.91223E+02 5.28050E-01
 -1      9024 8.14075E+03-4.46295E+02 6.83812E-01
 -1      9025 8.13949E+03-2.33292E+02 6.98700E-01
 -1      9026 6.97881E+02-5.67711E+01 3.66781E-01
 -1      9027 5.91770E+02-1.89410E+02 3.32255E-01
 -1      9028 1.13232E+04-3.95551E+01 8.36812E-01
 -1      9029 1.11405E+04-4.11531E+01 8.30826E-01
 -1      9030 1.12037E+04-1.73658E+02 8.35142E-01
 -1      9031 5.70550E+02-1.22311E+02 3.43170E-01
 -1      9032 5.75864E+03 6.55428E+02 1.61482E+00
 -1      9033 5.58039E+03 5.11720E+02 6.56314E-01
 -1      9034 5.75866E+03 6.55427E+02-2.69451E-01
 -1      9035 5.78100E+03 5.14378E+02 6.63931E-01
 -1      9036 2.09527E+01-2.20564E+00 2.07676E-01
 -1      9037 6.27815E+03-7.03603E+02 1.42672E+00
 -1      9038 7.27528E+03-7.22146E+02 1.23349E+00
 -1      9039 9.17241E+03-4.51510E+02 7.20814E-01
 -1      9040 2.90019E+00 1.37258E+01-1.49492E-02
 -1      9041 1.70190E+00 1.34647E+01 6.73328E-01
 -1      9042 1.35975E+00 1.12450E+01-1.09198E-01
 -1      9043 1.14118E+04-7.49798E+02 8.34061E-01
 -1      9044 4.41036E+03 3.35329E+02 5.99310E-01
 -1      9045 8.77168E+01 6.56071E+01-3.24204E+00
 -1      9046 7.38187E+01 5.49713E+01 1.49795E-01
 -1      9047 8.76783E+01 6.57638E+01 3.71583E+00
 -1      9048 6.75086E+03 6.75300E+02 1.40055E+00
 -1      9049 6.77414E+03 5.27140E+02 6.99230E-01
 -1      9050 6.75088E+03 6.75286E+02 1.95717E-02
 -1      9051 5.15467E+01 6.39073E-01-1.16513E+00
 -1      9052 1.43440E+01-2.19837E+01-8.17716E-02
 -1      9053 1.98307E+03 2.54012E+02 4.87053E-01
 -1      9054 3.52888E+03 3.11841E+02 5.55965E-01
 -1      9055 1.30023E+04-6.88989E+02 8.41078E-01
 -1      9056 1.29623E+04-4.77564E+02 8.53433E-01
 -1      9057 1.28154E+04-6.42660E+02 8.37667E-01
 -1      9058 9.32744E+03-5.22494E+02 7.19762E-01
 -1      9059 3.87218E+03 3.65063E+02 5.80785E-01
 -1      9060 7.12470E+02-3.25723E+02 3.96954E+00
 -1      9061 7.12461E+02-3.25711E+02-3.32866E+00
 -1      9062 7.68677E+02-2.97428E+02-2.81150E+00
 -1      9063 1.23309E+03 3.36410E+02 3.20939E+00
 -1      9064 1.15204E+03 3.59122E+02 3.53874E+00
 -1      9065 1.15206E+03 3.59120E+02-2.61997E+00
 -1      9066 1.21630E+03 2.50600E+02 4.45607E-01
 -1      9067 1.44050E+01-1.55017E+01 9.76716E-02
 -1      9068 1.33874E+01-6.79570E+00 9.33784E-02
 -1      9069 3.04689E+02 2.45467E+01 3.46099E-01
 -1      9070 4.59235E+03 3.63324E+02 6.11460E-01
 -1      9071 4.77821E+03 3.90588E+02 6.16981E-01
 -1      9072 7.34352E+01-8.15054E+01 3.42678E+00
 -1      9073 7.35083E+01-8.15647E+01-2.65273E+00
 -1      9074 1.23282E+03 1.54438E+02 4.34104E-01
 -1      9075 7.98902E+03-7.30725E+02 2.01425E-01
 -1      9076 5.79433E+01 4.95734E+00-1.38475E+00
 -1      9077 5.00446E+01 1.20942E+01-1.57565E+00
 -1      9078 1.76632E+03-4.72202E+02-2.25699E+00
 -1      9079 1.65662E+01-2.29837E+01-9.39933E-01
 -1      9080 1.52791E+01-1.98999E+01-1.47715E+00
 -1      9081 1.15019E+01 5.13300E+00-1.78520E-01
 -1      9082 1.70125E+01 5.45384E+00-3.03915E-01
 -1      9083 5.02659E+02 1.57110E+02 3.86827E-01
 -1      9084 3.78101E+01 5.42637E+00-8.34748E-01
 -1      9085 1.20370E+04 6.78379E+02 8.95948E-01
 -1      9086 3.97185E+01 3.04626E+01 3.02601E-04
 -1      9087 4.10079E+01 3.10417E+01-1.47813E+00
 -1      9088 3.73431E+01 2.95351E+01-3.49937E-01
 -1      9089 3.54512E+01 2.83513E+01-1.38436E+00
 -1      9090 5.31134E+03-6.77327E+02 1.65506E+00
 -1      9091 1.30659E+04-3.86266E+02 8.63076E-01
 -1      9092 1.32095E+04-5.06380E+02 8.60345E-01
 -1      9093 1.31059E+04-5.97683E+02 8.50743E-01
 -1      9094 3.18007E+03 5.70869E+02-1.35342E+00
 -1      9095 8.44846E+03-5.88539E+02 6.86175E-01
 -1      9096 8.55117E+03-5.16562E+02 9.50581E-01
 -1      9097 3.07253E+00-1.16952E+01-4.84328E-02
 -1      9098 2.83909E+01-1.97723E+01 5.59864E-01
 -1      9099 2.77477E+01-3.84362E+01-4.84624E-01
 -1      9100 4.38449E+03-6.44658E+02-8.78193E-01
 -1      9101 2.87695E+01-4.13583E+01 6.73950E-02
 -1      9102 2.73295E+01-4.14187E+01 1.19487E-01
 -1      9103 2.74395E+01-4.07564E+01 5.02936E-01
 -1      9104 3.50913E+03-6.03559E+02 2.22246E+00
 -1      9105 3.61658E+01-3.97724E+01 1.93481E+00
 -1      9106 3.09069E+01-3.09566E+01 1.05681E+00
 -1      9107 1.11009E+04-6.61408E+02 7.75837E-01
 -1      9108 1.12570E+04-6.00913E+02 7.85733E-01
 -1      9109 2.69794E+03-5.53045E+02 2.56335E+00
 -1      9110 2.26311E+03 3.00112E+02 5.06862E-01
 -1      9111 8.98275E+03 4.72377E+02 7.75355E-01
 -1      9112 1.84753E+00 3.84275E+00 8.49426E-02
 -1      9113 4.71980E+00 8.82044E+00 1.44816E-01
 -1      9114 4.03862E+03 6.17605E+02-9.43411E-01
 -1      9115 1.46422E+01-1.88643E+01-3.84929E-01
 -1      9116 1.37914E+01-1.71163E+01-2.16576E+00
 -1      9117 1.22783E+01-1.48395E+01-6.22431E-01
 -1      9118 8.58926E+02-7.23930E+01 3.76652E-01
 -1      9119 1.54946E+03 1.68776E+02 4.60627E-01
 -1      9120 1.98618E+01 2.20776E+01-7.06406E-01
 -1      9121 4.11819E+03-6.32536E+02-9.79896E-01
 -1      9122 2.47116E+03-5.35808E+02 2.66318E+00
 -1      9123 8.70038E-01-1.68594E+01-1.73722E-01
 -1      9124 6.20711E-01-1.93945E+01 8.11300E-02
 -1      9125 5.03094E+03-6.67482E+02 1.72442E+00
 -1      9126 1.10826E+04 7.17003E+02 9.16701E-01
 -1      9127 1.10873E+04 4.82947E+02 8.49954E-01
 -1      9128 5.28135E+01 2.84626E+01-4.19473E+00
 -1      9129 2.59435E+01-3.76266E+01-3.23030E-01
 -1      9130 2.85679E+01-3.97800E+01-2.71533E-01
 -1      9131 1.45001E+01-2.01646E+01-1.82672E+00
 -1      9132 5.52463E+02-5.80847E+01 3.51386E-01
 -1      9133 2.75379E+03 5.24207E+02 2.61272E+00
 -1      9134 2.88618E+03 5.33294E+02 2.55261E+00
 -1      9135 2.75380E+03 5.24200E+02-1.51547E+00
 -1      9136 2.74838E+03 4.11811E+02 5.38546E-01
 -1      9137 8.86621E+03-5.89039E+02 7.00133E-01
 -1      9138 8.76007E+03-5.16631E+02 9.35957E-01
 -1      9139 2.27799E+01 2.51817E+01-7.00678E-01
 -1      9140 1.32278E+04-1.29124E+02 8.85547E-01
 -1      9141 5.32883E+01-3.03127E+01-1.69450E+00
 -1      9142 2.31584E+01-4.06214E+01 6.61675E-01
 -1      9143 2.51509E+01-4.12601E+01 6.89076E-01
 -1      9144 2.57119E+01-3.92366E+01 8.89447E-01
 -1      9145 1.00578E+04-7.42577E+02 8.94997E-01
 -1      9146 6.13343E+02 2.64034E+02-3.27028E+00
 -1      9147 8.53356E+02-1.66714E+02 3.59013E-01
 -1      9148 4.95756E+03 6.56459E+02 1.86601E+00
 -1      9149 3.47692E+01 2.60949E+01 1.44712E+00
 -1      9150 3.25149E+01 2.20015E+01 1.35035E+00
 -1      9151 3.08159E+01 2.85517E+01-2.35415E-01
 -1      9152 1.72654E+01-2.54010E+01 1.07618E+00
 -1      9153 1.72750E+01-3.27755E+01-3.71703E-01
 -1      9154-3.29485E-01 3.38895E+00-4.19897E-01
 -1      9155 5.73494E+01 4.26164E+01-1.59460E+00
 -1      9156 3.90227E+01 2.85211E+01 2.38003E+00
 -1      9157 3.67696E+01-3.19865E+01 1.53173E+00
 -1      9158 2.87160E+03 3.10599E+02 5.33049E-01
 -1      9159 1.64574E+01 1.82716E+01-6.01809E-01
 -1      9160 1.76369E+01-3.88004E+01 6.05322E-01
 -1      9161 2.05734E+01-4.01723E+01 6.20921E-01
 -1      9162 1.91776E+01-3.91274E+01 2.57967E-01
 -1      9163 2.12863E+03 4.73974E+02-1.88712E+00
 -1      9164 2.00745E+03 3.62849E+02 5.00426E-01
 -1      9165 4.30960E+03 6.08566E+02 2.02360E+00
 -1      9166 1.34480E+01-1.93798E+01-1.26680E+00
 -1      9167 3.45176E+02 1.15238E+02 3.60762E-01
 -1      9168 4.10433E+02 1.42672E+02 3.74767E-01
 -1      9169 3.72879E+02 1.61583E+02 3.74063E-01
 -1      9170 3.69985E+03 3.39324E+02 5.64583E-01
 -1      9171 1.93425E+01 1.48188E+01 8.22264E-01
 -1      9172 1.57062E+01 1.20212E+01 1.02163E+00
 -1      9173 1.22134E+04 6.78471E+02 9.09572E-01
 -1      9174 9.28998E+03 7.06541E+02 5.66570E-01
 -1      9175 2.54534E+01-1.53283E+01 1.94468E-01
 -1      9176 4.22807E+01 3.16508E+01 2.61575E+00
 -1      9177 4.08527E+01 3.11400E+01 9.27999E-01
 -1      9178 3.72285E+01 2.86790E+01 1.49391E+00
 -1      9179 4.14111E+01 3.12064E+01 2.52848E+00
 -1      9180 4.53370E+01 3.42973E+01 1.92627E+00
 -1      9181 2.91954E+01-4.11491E+01 5.27641E-01
 -1      9182 7.50967E+02-1.27871E+02 3.62876E-01
 -1      9183 6.60964E+02-1.02025E+02 3.52024E-01
 -1      9184 3.50380E+00-2.25585E+01 4.52463E-01
 -1      9185 7.56619E+02-3.91720E+01 3.73679E-01
 -1      9186 1.23754E+02-1.20588E+02 4.84708E+00
 -1      9187 1.23779E+02-1.20611E+02-4.15018E+00
 -1      9188-1.42854E+00-1.66922E+01-3.17170E-01
 -1      9189-2.09189E+00-2.06799E+01 5.30098E-02
 -1      9190-2.64730E+00-2.31498E+01-4.23692E-01
 -1      9191 4.17178E-01-2.18804E+01-2.73146E-01
 -1      9192-2.65500E-01-2.57137E+01 1.14319E-01
 -1      9193 4.09066E+00 1.31228E+01-5.23283E-01
 -1      9194 1.31931E+04-7.04714E+02 8.46191E-01
 -1      9195 1.31931E+04-7.04724E+02 8.47502E-01
 -1      9196 1.33245E+04-7.73789E+02 8.46967E-01
 -1      9197 1.33409E+04-5.75452E+02 8.61456E-01
 -1      9198 1.33408E+04-5.75443E+02 8.59535E-01
 -1      9199 3.42610E+02 4.35503E+01 3.52656E-01
 -1      9200 4.07321E+02 6.33792E+01 3.59737E-01
 -1      9201 3.19330E+02 7.25101E+01 3.54870E-01
 -1      9202 1.48636E+01 1.72779E+00-6.56523E-02
 -1      9203 1.77645E+01 4.27840E+00-3.20801E-01
 -1      9204 1.20153E+01 5.49727E-01-3.64173E-02
 -1      9205 1.32882E+01-3.45538E+00 4.02336E-03
 -1      9206 1.61987E+01-9.47403E-01-1.34181E-01
 -1      9207 2.62360E+03 5.14798E+02-1.59241E+00
 -1      9208 1.33949E+04-2.19782E+02 8.85707E-01
 -1      9209 4.09909E+02-2.83296E+00 3.52479E-01
 -1      9210 1.88353E+01-2.80985E+01 1.24503E+00
 -1      9211 8.60949E+02-2.54863E+02 3.43752E-01
 -1      9212 2.95660E+01 2.89636E+01-6.08423E-01
 -1      9213 5.19688E+02-1.58703E+01 3.57366E-01
 -1      9214 3.43207E+03 5.66095E+02-1.17273E+00
 -1      9215 1.75691E+01-5.16133E+00 3.36139E-01
 -1      9216 3.25735E+02 1.45343E+02 3.66638E-01
 -1      9217-2.10811E-01-3.86996E+00-3.56852E-02
 -1      9218-3.68819E-01-3.43306E+00 1.62293E-02
 -1      9219-4.25304E-01-3.32520E+00-1.65100E-02
 -1      9220 1.87851E+00-1.48185E+01-5.91060E-02
 -1      9221 4.78472E+00-3.40280E+01 5.43525E-01
 -1      9222-1.14234E+00-3.61871E+00 5.80889E-02
 -1      9223-1.25522E+00-7.54602E+00-5.60282E-03
 -1      9224 3.20000E+01 2.60377E+01 1.32543E+00
 -1      9225 5.46000E+02 2.47466E+02 4.18247E+00
 -1      9226 4.91189E+02 2.05071E+02 3.81691E+00
 -1      9227 5.46021E+02 2.47459E+02-3.37371E+00
 -1      9228 1.35106E+01-3.48237E+00-1.48442E-01
 -1      9229 1.35772E+01-6.97973E+00-1.44144E-01
 -1      9230 8.24453E+03 6.98967E+02 3.70146E-01
 -1      9231 1.33048E+03 3.48494E+02 3.13504E+00
 -1      9232 1.23311E+03 3.36394E+02-2.29090E+00
 -1      9233 1.33050E+03 3.48480E+02-2.20376E+00
 -1      9234 1.29994E+03 2.23596E+02 4.44946E-01
 -1      9235 4.51757E+02 5.06653E+01 3.62350E-01
 -1      9236 4.54963E+02-1.95070E+01 3.52319E-01
 -1      9237 7.13454E+02-1.73238E+02 3.46026E-01
 -1      9238 6.25578E+02-1.44729E+02 3.42947E-01
 -1      9239 2.12013E+03 2.75131E+02 4.97474E-01
 -1      9240 6.06474E+02-7.71517E+01 3.54459E-01
 -1      9241-5.51061E+00-1.70951E+01-5.84149E-01
 -1      9242-3.43870E+00-1.72094E+01 2.83806E-02
 -1      9243-5.53513E+00-1.71368E+01 6.12387E-01
 -1      9244 1.24926E+01-1.40246E+01-2.23587E+00
 -1      9245 2.41630E+02 1.57793E+02-4.62351E+00
 -1      9246 2.05095E+02 1.14874E+02-3.72383E+00
 -1      9247 3.20713E+01 2.68861E+01-2.52213E-03
 -1      9248 1.42231E+03 1.97641E+02 4.50596E-01
 -1      9249 1.72040E+00 5.83128E+00-1.00838E-01
 -1      9250 4.07684E-01 1.99064E+00-1.79824E-01
 -1      9251 6.85916E-01 3.47077E+00-1.17159E-01
 -1      9252 5.21761E+01-3.97044E+01-2.70404E+00
 -1      9253 2.05150E+01 2.47236E+01 4.66048E-01
 -1      9254 2.06852E+01 2.64687E+01-1.08065E-01
 -1      9255 2.00504E+01 2.73677E+01 5.12506E-01
 -1      9256 1.58379E+01 2.26929E+01 5.57431E-01
 -1      9257 1.61557E+01 2.46263E+01 1.69477E-03
 -1      9258 8.11382E+02-1.12214E+02 3.68625E-01
 -1      9259 4.51095E+01 2.44996E+01 2.58182E+00
 -1      9260 4.69025E+01 1.79424E+01 2.40568E+00
 -1      9261 2.41623E+02 1.57804E+02 5.32797E+00
 -1      9262 2.05081E+02 1.14898E+02 4.43643E+00
 -1      9263 1.89761E+03 3.10041E+02 4.88403E-01
 -1      9264 1.39806E+01 5.26238E+00 4.95594E-02
 -1      9265-1.46540E+00-1.67363E+01 3.96305E-01
 -1      9266-2.68817E+00-2.31992E+01 5.50773E-01
 -1      9267 3.61937E-01-2.19268E+01 4.68275E-01
 -1      9268 5.00669E+01 1.20147E+01 2.11232E+00
 -1      9269-1.80074E-01 3.10460E+00 8.31025E-02
 -1      9270 7.49189E-02 6.43694E+00 3.33803E-02
 -1      9271 4.13906E+01 2.88809E+01 2.80182E+00
 -1      9272 1.89475E+03 4.51842E+02-2.04982E+00
 -1      9273 1.90343E+01-3.22682E+01-3.22000E-01
 -1      9274 1.91976E+01-3.48909E+01-2.83242E-01
 -1      9275 1.13775E+04-3.78640E+02 8.03843E-01
 -1      9276 2.01035E+03 4.63092E+02 2.98953E+00
 -1      9277 2.01038E+03 4.63080E+02-1.96586E+00
 -1      9278 3.81884E+02 9.52873E+01 3.64731E-01
 -1      9279 3.18604E-01 1.90157E+00 1.18630E-01
 -1      9280 4.54766E-01 3.30045E+00-7.94454E-02
 -1      9281 1.24664E+04-7.49657E+02 8.27866E-01
 -1      9282 1.69777E+00 1.34683E+01-6.99710E-01
 -1      9283 2.46054E+00 1.12794E+01-5.55762E-01
 -1      9284 1.07262E+00 8.82242E+00-6.61290E-01
 -1      9285-4.07954E+00-1.96774E+01-4.90391E-01
 -1      9286-4.11133E+00-1.97226E+01 5.62724E-01
 -1      9287 8.97878E+03 7.03956E+02 5.15144E-01
 -1      9288 1.37090E+04 7.67559E+02 9.61334E-01
 -1      9289 1.37090E+04 7.67553E+02 9.60847E-01
 -1      9290 1.38248E+04 8.00820E+02 9.67163E-01
 -1      9291 1.38248E+04 8.00825E+02 9.67487E-01
 -1      9292 6.34166E+00 1.89665E+01-6.26115E-01
 -1      9293 3.89686E+01 3.01864E+01-1.14394E+00
 -1      9294 3.36855E+01 2.79955E+01-1.14637E+00
 -1      9295 3.52919E+02 1.93606E+02 4.84521E+00
 -1      9296 3.07302E+02 1.74077E+02 4.92604E+00
 -1      9297 3.07403E+02 1.74097E+02-3.65784E+00
 -1      9298 1.30895E+04-7.96023E+02 8.36888E-01
 -1      9299-5.82148E+00-1.38067E+01-6.29453E-01
 -1      9300-5.09763E+00-1.01839E+01-6.17757E-01
 -1      9301-4.57687E+00-1.04892E+01 5.51518E-02
 -1      9302 2.39543E+03 5.14697E+02 2.86570E+00
 -1      9303 5.80779E+01 4.96011E+00 1.75028E+00
 -1      9304 1.37092E+04-7.99498E+02 8.58810E-01
 -1      9305 1.38276E+04-8.33744E+02 8.60789E-01
 -1      9306 1.38276E+04-8.33739E+02 8.60867E-01
 -1      9307 1.37092E+04-7.99493E+02 8.58958E-01
 -1      9308 4.50473E+02 1.20546E+02 3.71068E-01
 -1      9309 4.32282E+02 1.89991E+02 3.92538E+00
 -1      9310 4.32303E+02 1.89985E+02-3.11763E+00
 -1      9311 4.91213E+02 2.05049E+02-3.02867E+00
 -1      9312 8.47094E+02-3.10962E+02 3.39007E+00
 -1      9313 7.68696E+02-2.97428E+02 3.47097E+00
 -1      9314 8.06742E+02-2.03979E+02 3.47340E-01
 -1      9315 8.47074E+02-3.10961E+02-2.72108E+00
 -1      9316 1.33692E+04-4.46594E+02 8.71372E-01
 -1      9317 3.68834E+01 1.08467E-01 1.94135E-01
 -1      9318 2.32746E+01-3.47169E+01-4.17573E-01
 -1      9319 6.91905E+03 6.78368E+02 1.36467E+00
 -1      9320 1.13242E+04-2.70935E+02 8.36991E-01
 -1      9321 2.23732E+01-3.31031E+01-2.84026E-01
 -1      9322 1.92242E+01-3.06011E+01-2.57607E-01
 -1      9323 3.53021E+02 1.93582E+02-3.57138E+00
 -1      9324 5.23593E+03 4.47413E+02 6.39331E-01
 -1      9325 1.75095E+02 9.50829E+01 4.07984E+00
 -1      9326 5.29492E+01 2.84850E+01 4.40793E+00
 -1      9327 5.86076E+01 4.40199E+01-1.75655E+00
 -1      9328 1.87396E+03 2.03905E+02 4.71651E-01
 -1      9329 8.29444E+03-5.17282E+02 6.84510E-01
 -1      9330 1.37063E+02-1.24898E+02-4.02076E+00
 -1      9331 2.45266E+01-3.51884E+01-3.37525E-01
 -1      9332 2.35309E+01-3.50549E+01 9.08699E-01
 -1      9333 1.30943E+04-2.57417E+02 8.72611E-01
 -1      9334 3.30492E+01-4.31011E+01 1.00780E+00
 -1      9335 3.13457E+01-4.19117E+01 2.94505E-01
 -1      9336 1.59675E+01 2.48089E+01-5.78519E-01
 -1      9337 1.83480E+01 2.68163E+01-5.79776E-01
 -1      9338 1.45594E+01 2.39951E+01 2.75182E-03
 -1      9339 1.35410E+01-9.42477E+00 4.89052E-01
 -1      9340 9.03074E+02-3.66273E+02 3.79589E+00
 -1      9341 9.03048E+02-3.66263E+02-3.13421E+00
 -1      9342 2.63249E+01-4.13202E+01 1.31029E-01
 -1      9343 2.64428E+01-4.05494E+01 4.89210E-01
 -1      9344 6.97584E+03-5.03732E+02 6.36532E-01
 -1      9345-7.96453E-01-2.07431E+00-1.22506E-01
 -1      9346-1.28926E+00-3.35656E+00-1.57235E-02
 -1      9347 3.17101E+01 2.97391E+00 3.12972E-04
 -1      9348 2.51611E+00 4.40746E+00-3.83383E-02
 -1      9349 4.78193E+00 8.90364E+00-2.07358E-01
 -1      9350 9.01918E+03-5.20400E+02 7.11110E-01
 -1      9351 3.32953E+01 2.60413E+01 1.18994E+00
 -1      9352 2.01310E+01 2.05117E+01-2.89241E-01
 -1      9353 3.94349E+02 2.07788E+02 4.50919E+00
 -1      9354 3.94393E+02 2.07766E+02-3.69193E+00
 -1      9355 1.30377E+01-6.25597E-01 6.67420E-02
 -1      9356 2.33601E+01-3.36950E+01 9.76194E-01
 -1      9357 2.19716E+01-3.18946E+01 1.25848E+00
 -1      9358 1.02359E+00 3.37564E+00 1.61554E-01
 -1      9359 1.85978E+00 4.69992E+00 1.87582E-02
 -1      9360 2.60185E+03 2.31048E+02 5.17350E-01
 -1      9361 2.15714E+01-3.31021E+01-4.77426E-01
 -1      9362 1.29587E+04-7.96032E+02 8.33950E-01
 -1      9363 1.27718E+04-7.49700E+02 8.33317E-01
 -1      9364 1.29586E+04-7.96023E+02 8.31458E-01
 -1      9365 3.34245E+00-1.21185E+01 1.13319E-02
 -1      9366 6.50212E+00-1.86350E+01-2.72283E-01
 -1      9367 5.84058E+00-1.31772E+01-4.48445E-01
 -1      9368 9.86763E+00-1.41283E+01-4.75729E-01
 -1      9369 1.06551E+01-1.99908E+01-8.30061E-01
 -1      9370-1.67001E+00-2.35035E+00-2.04815E-01
 -1      9371-1.75232E+00-2.26283E+00-8.02231E-02
 -1      9372-8.97529E-01-1.14886E+01 1.67050E-01
 -1      9373-2.38619E-01-8.64888E+00 2.92906E-03
 -1      9374 1.26357E+04-7.49686E+02 8.29920E-01
 -1      9375 1.26357E+04-7.49677E+02 8.18818E-01
 -1      9376 2.39141E+01-1.63979E+00 5.81973E-01
 -1      9377 2.27222E-02-4.53593E+00-1.91647E-02
 -1      9378 6.42903E-01-5.71628E+00 6.58727E-02
 -1      9379 1.23604E-01-4.56841E+00 7.36468E-02
 -1      9380 1.10921E+01 2.00705E+01 5.36885E-01
 -1      9381 2.63187E+03 3.55781E+02 5.30545E-01
 -1      9382 2.34492E+01-3.36143E+01-4.10834E-01
 -1      9383 2.21206E+01-3.18370E+01-7.43502E-01
 -1      9384 3.87994E+00 8.55960E+00-2.85112E-01
 -1      9385 1.32661E+04-2.48672E+02 8.79242E-01
 -1      9386 5.34058E+01 3.37636E+01-4.43414E+00
 -1      9387 5.18372E+01 3.63438E+01-3.07914E+00
 -1      9388 4.61121E+01 2.99752E+01 2.93591E+00
 -1      9389 5.35223E+01 3.38073E+01 4.62585E+00
 -1      9390 5.19372E+01 3.63963E+01 3.27881E+00
 -1      9391 1.07315E+01-3.74765E+01 5.43512E-01
 -1      9392 1.09052E+01-3.46645E+01 2.27852E-01
 -1      9393 1.08095E+01-3.74095E+01-4.43433E-02
 -1      9394 3.78535E+01 5.46991E+00 1.17573E+00
 -1      9395 1.69560E+00 3.70566E+00-9.63081E-03
 -1      9396 2.69936E+00 5.51440E+00-1.92085E-02
 -1      9397 3.64929E+01-5.56754E+00-1.56208E-01
 -1      9398 3.36920E+01 3.48263E+00-6.11191E-01
 -1      9399 2.88383E+01-4.08967E+01 3.07475E-01
 -1      9400 1.07420E+00-6.12326E+00 1.30001E-01
 -1      9401 3.27471E+00-1.43768E+01-8.65328E-02
 -1      9402 2.86589E+00-2.57105E+01-2.47547E-01
 -1      9403 1.30895E+04-7.96033E+02 8.37541E-01
 -1      9404 1.20021E+01 2.88748E+00 1.12677E-01
 -1      9405 1.27717E+04-7.49691E+02 8.25468E-01
 -1      9406 3.35735E+00-3.26608E+01-2.27755E-01
 -1      9407 1.84750E+00-2.99050E+01-2.83698E-01
 -1      9408 2.22507E+00-2.89165E+01 1.48010E-01
 -1      9409 4.10445E+01 3.10297E+01 1.53868E+00
 -1      9410 5.31827E+01-3.03502E+01 2.35763E+00
 -1      9411 4.29134E+01-3.28076E+01 1.90794E+00
 -1      9412 1.27469E+01-1.82619E+01 5.88630E-01
 -1      9413 7.45518E-01-9.26560E+00 9.76203E-02
 -1      9414 5.22423E-01-5.39143E+00 9.15081E-02
 -1      9415 2.63149E+01-4.17436E+00 5.50486E-01
 -1      9416 1.32378E+04-3.77524E+02 8.69825E-01
 -1      9417 2.98120E+01-8.79989E+00 2.30210E-02
 -1      9418 5.50952E-01 6.20996E+00 4.15711E-01
 -1      9419 3.56860E+01 2.82201E+01 1.51330E+00
 -1      9420 3.77454E+01 2.95517E+01 4.33825E-01
 -1      9421 1.82502E+00 4.66097E+00-5.43558E-02
 -1      9422-2.10847E-01 6.04419E+00 7.37199E-01
 -1      9423-2.97698E-01 3.07758E+00 2.61684E-01
 -1      9424-1.29279E-01 2.69321E+00 5.23351E-01
 -1      9425 2.06015E-02 2.74152E+00 3.14858E-01
 -1      9426 1.11009E+04-5.37326E+02 7.84112E-01
 -1      9427 4.01391E+01-5.07412E+01-2.83355E+00
 -1      9428 4.00117E+01-5.08461E+01 3.69834E+00
 -1      9429 2.71280E+01 2.84982E+01-5.87425E-01
 -1      9430 2.09775E+01-3.06009E+01 2.56416E-01
 -1      9431 5.36665E+01 2.15962E+01-3.48234E+00
 -1      9432 1.39392E+03 4.10484E+02 3.48730E+00
 -1      9433 1.39394E+03 4.10478E+02-2.53652E+00
 -1      9434 1.19734E+01 2.84378E+00-3.41009E-02
 -1      9435 1.33692E+04-4.46584E+02 8.68512E-01
 -1      9436 1.61267E+01-3.83819E+01 5.89221E-01
 -1      9437 1.77194E+01-3.87085E+01 2.41130E-01
 -1      9438 1.39487E+04 8.63434E+02 9.75862E-01
 -1      9439 1.38744E+04 8.20552E+02 9.70583E-01
 -1      9440 1.38990E+04 8.43707E+02 9.72837E-01
 -1      9441 1.14117E+04-5.37176E+02 7.94529E-01
 -1      9442 1.34410E+01-2.31020E+01-1.67011E-04
 -1      9443 1.39019E+04-8.76637E+02 8.60650E-01
 -1      9444 1.39494E+04-8.95647E+02 8.61080E-01
 -1      9445 1.38752E+04-8.52754E+02 8.61245E-01
 -1      9446 2.21571E+02 1.47897E+02 7.08514E+00
 -1      9447 2.06372E+02 1.31428E+02 1.94171E+00
 -1      9448 1.47794E+01-2.64292E+01 1.34760E-01
 -1      9449 1.37123E+01-2.52078E+01 4.25790E-02
 -1      9450 4.35393E+01 3.24391E+01 3.16769E+00
 -1      9451 4.68725E+01 3.55285E+01 2.47951E+00
 -1      9452 3.31258E+01-4.30259E+01-6.21181E-02
 -1      9453 1.35215E+01-2.43430E+01-1.71534E-01
 -1      9454 4.37394E+01 3.22234E+01 3.07659E+00
 -1      9455 2.21276E+02 1.47722E+02-6.40949E+00
 -1      9456 2.06088E+02 1.31282E+02-1.22217E+00
 -1      9457-1.76187E+00-7.64742E+00 2.23407E-01
 -1      9458 3.65105E+01-5.53230E+00 5.49805E-01
 -1      9459 1.32567E+04-8.12040E+02 8.41654E-01
 -1      9460 1.34044E+04-6.82765E+02 8.55944E-01
 -1      9461 1.32566E+04-8.12030E+02 8.42536E-01
 -1      9462 1.34044E+04-6.82756E+02 8.55562E-01
 -1      9463 2.42981E+00 1.47658E+01-6.91068E-01
 -1      9464 4.16237E+00 1.65303E+01-6.45768E-01
 -1      9465 3.76664E+00 1.50758E+01-1.65020E-02
 -1      9466 4.17091E+00 1.65282E+01 6.08466E-01
 -1      9467 2.43469E+00 1.47624E+01 6.60435E-01
 -1      9468 2.90019E+01-4.06129E+01-8.23332E-01
 -1      9469 3.37295E+01 3.53022E+00 9.14377E-01
 -1      9470 1.35913E+04-9.12917E+02 8.46792E-01
 -1      9471 1.36593E+04-8.92200E+02 8.50714E-01
 -1      9472 1.35570E+04-8.56820E+02 8.49334E-01
 -1      9473 1.35913E+04-9.12908E+02 8.47849E-01
 -1      9474 1.35569E+04-8.56811E+02 8.50205E-01
 -1      9475 1.36593E+04-8.92191E+02 8.51431E-01
 -1      9476-3.16196E+00-3.93125E+00-7.02495E-01
 -1      9477-5.84007E+00-1.38441E+01 6.28283E-01
 -1      9478-5.10957E+00-1.02168E+01 6.03475E-01
 -1      9479-3.02590E+00-6.92801E+00 4.57345E-01
 -1      9480 4.98058E+01 3.73433E+01 2.65054E+00
 -1      9481 4.59563E+01 3.27609E+01 3.48278E+00
 -1      9482 5.13383E+01 3.55191E+01 4.76586E+00
 -1      9483 5.73982E+01 4.27698E+01 1.80253E+00
 -1      9484 9.92152E-01 3.34930E+00-1.77350E-01
 -1      9485-4.50705E-01-4.31454E+00-3.74423E-02
 -1      9486-3.32255E-01-4.73636E+00-1.07060E-01
 -1      9487-1.13334E+00-1.65623E+00 3.35750E-01
 -1      9488-1.74379E+00-3.05120E+00 4.14036E-01
 -1      9489-2.70205E+00-4.95556E+00 4.71711E-01
 -1      9490 1.36681E+04 6.23882E+02 9.50316E-01
 -1      9491 1.36681E+04 6.23887E+02 9.50261E-01
 -1      9492 1.35092E+04 7.67143E+02 9.53972E-01
 -1      9493-6.56841E-01-2.67174E+01-3.59805E-01
 -1      9494 4.02057E+01 3.06828E+01 1.93529E+00
 -1      9495 3.89960E+01 3.01850E+01 1.15245E+00
 -1      9496 4.01508E+01 3.06795E+01-1.89796E+00
 -1      9497 5.20228E+00 1.78011E+01-6.37725E-01
 -1      9498 4.76259E+00 1.63495E+01-1.83425E-02
 -1      9499 6.35870E+00 1.89685E+01 5.78933E-01
 -1      9500 5.21449E+00 1.78012E+01 5.95875E-01
 -1      9501 1.37157E+04-7.13473E+02 8.64766E-01
 -1      9502 1.35179E+04-7.07656E+02 8.58125E-01
 -1      9503 1.35113E+04-7.93681E+02 8.52275E-01
 -1      9504 1.36701E+04-6.50334E+02 8.67246E-01
 -1      9505 1.37157E+04-7.13459E+02 8.64704E-01
 -1      9506 1.35179E+04-7.07646E+02 8.58122E-01
 -1      9507 1.36701E+04-6.50329E+02 8.67237E-01
 -1      9508 5.27756E-01-2.83815E+01-3.24192E-01
 -1      9509 9.09549E-01-2.73784E+01 1.30889E-01
 -1      9510 5.20343E+01-3.97660E+01 3.48126E+00
 -1      9511 1.36958E+04 2.20184E+02 9.25180E-01
 -1      9512 1.36958E+04 2.20169E+02 9.24765E-01
 -1      9513 2.69527E+01-3.79183E+01-4.02371E-01
 -1      9514 3.39259E+01 2.77399E+01 1.26272E+00
 -1      9515 1.63384E+02-1.38890E+02 4.73806E+00
 -1      9516 1.63360E+02-1.38997E+02-4.18016E+00
 -1      9517 1.93517E+02-1.49623E+02 2.98477E-01
 -1      9518 3.15825E+01-2.43934E+01 1.02164E+00
 -1      9519 1.78480E+00-2.99592E+01 5.47259E-01
 -1      9520 3.29057E+00-3.27177E+01 5.46428E-01
 -1      9521 2.80343E+00-2.57607E+01 5.13823E-01
 -1      9522 1.12570E+04-4.76809E+02 7.93847E-01
 -1      9523 1.11955E+04-4.28072E+02 7.51122E-01
 -1      9524 1.11955E+04-4.28081E+02 8.37671E-01
 -1      9525 1.12627E+04-2.22243E+02 8.10009E-01
 -1      9526 1.13241E+04-2.70927E+02 7.80110E-01
 -1      9527 1.65333E-01-4.63741E+00-1.66725E-01
 -1      9528 9.06692E-01-6.47919E+00-1.48756E-01
 -1      9529 3.13212E+00-1.43835E+01 1.17191E-01
 -1      9530 1.24476E+00-8.97212E+00-9.22946E-03
 -1      9531 3.25899E+01-1.66615E+01 4.88303E-01
 -1      9532 2.05751E+01 6.37940E+00 5.45695E-01
 -1      9533 8.85158E-02 2.78152E+00-4.23297E-01
 -1      9534-2.39604E-01 6.39913E+00-9.12313E-01
 -1      9535 5.01529E-01 6.20068E+00-5.92775E-01
 -1      9536 4.60064E+01 3.40662E+01 4.04565E+00
 -1      9537 1.35356E+01-3.42732E+00 2.79755E-01
 -1      9538 1.33923E+01-6.03404E+00 2.80399E-01
 -1      9539 1.38236E+01-1.68230E+01 2.94425E+00
 -1      9540 1.55748E+01-2.71918E+01 4.95034E-01
 -1      9541 7.46046E-01-9.27266E+00-3.89253E-02
 -1      9542 9.46058E+00 6.56515E+00 1.09365E+00
 -1      9543 1.22469E+01 8.70511E+00 1.04568E+00
 -1      9544 1.00081E+04 7.61247E+02 6.72346E-01
 -1      9545 1.00081E+04 7.61260E+02 9.88675E-01
 -1      9546 3.24992E+01-4.41879E+01-1.20080E+00
 -1      9547 1.37089E+01-2.54045E+01 1.26456E-02
 -1      9548-1.92782E+00-2.50752E+00 1.66503E-01
 -1      9549 1.33614E+03-4.49513E+02 3.53861E+00
 -1      9550 2.65111E+01-3.82252E+01-7.26949E-01
 -1      9551-1.31466E-01 2.68742E+00-5.24601E-01
 -1      9552 1.54579E+04 1.29486E+03 1.05699E+00
 -1      9553 1.52867E+04 1.20272E+03 1.04537E+00
 -1      9554 1.52965E+04 1.27078E+03 1.04991E+00
 -1      9555 1.54566E+04 1.22789E+03 1.05275E+00
 -1      9556 1.52854E+04 1.13574E+03 1.04107E+00
 -1      9557 1.54468E+04 1.15983E+03 1.04814E+00
 -1      9558 1.09123E+00 1.21059E+01 6.82640E-01
 -1      9559 4.86375E-01 9.45737E+00 6.56670E-01
 -1      9560 8.54584E-01 9.92091E+00-1.06798E-01
 -1      9561 8.65400E+03-6.65790E+02 1.00266E+00
 -1      9562 8.56809E+03-6.65097E+02 6.84788E-01
 -1      9563 8.74003E+03-6.66466E+02 6.90815E-01
 -1      9564 8.65398E+03-6.65782E+02 3.73102E-01
 -1      9565 1.03858E+04-7.94991E+02 6.01777E-01
 -1      9566 1.79879E-01 1.81290E+00 2.37807E-01
 -1      9567 3.14777E-01 3.19287E+00 5.89847E-02
 -1      9568 7.91828E+03 7.48724E+02 1.23825E+00
 -1      9569 7.91829E+03 7.48714E+02 2.71447E-01
 -1      9570 1.46195E+04 1.32708E+03 1.02919E+00
 -1      9571 1.47809E+04 1.30300E+03 1.03386E+00
 -1      9572 1.46668E+04 1.20273E+03 1.02387E+00
 -1      9573 1.45068E+04 1.15984E+03 1.01548E+00
 -1      9574 1.46682E+04 1.13576E+03 1.01985E+00
 -1      9575 1.46208E+04 1.26011E+03 1.02541E+00
 -1      9576 2.83591E+01-4.09497E+01 5.15179E-01
 -1      9577 2.97196E+01-4.12229E+01 3.06817E-01
 -1      9578 1.46668E+04 1.20275E+03 1.02265E+00
 -1      9579 1.45067E+04 1.15986E+03 1.01416E+00
 -1      9580 1.46681E+04 1.13577E+03 1.01803E+00
 -1      9581 1.47802E+04 1.30291E+03 1.03375E+00
 -1      9582 1.46202E+04 1.26002E+03 1.02532E+00
 -1      9583 1.46188E+04 1.32700E+03 1.03019E+00
 -1      9584-2.09964E+00-5.75406E+00 3.12065E-01
 -1      9585-7.07639E-01-2.67712E+01 5.51961E-01
 -1      9586 2.44389E+02-1.72545E+02 5.85596E-01
 -1      9587 2.30649E+01-3.44911E+01-1.12076E-01
 -1      9588 4.71391E-01-2.84357E+01 5.51650E-01
 -1      9589 3.24597E+03-6.31873E+02-1.52003E+00
 -1      9590 3.24599E+03-6.31885E+02 2.45843E+00
 -1      9591 1.39487E+04 8.63429E+02 9.75773E-01
 -1      9592 1.40076E+04 8.91509E+02 9.79719E-01
 -1      9593 1.83696E+01 2.68191E+01 5.10465E-01
 -1      9594 1.52855E+04-1.16776E+03 8.90653E-01
 -1      9595 1.54469E+04-1.19185E+03 8.94599E-01
 -1      9596 1.52868E+04-1.23474E+03 8.86239E-01
 -1      9597 1.51741E+04-1.33476E+03 8.75575E-01
 -1      9598 1.53355E+04-1.35885E+03 8.79499E-01
 -1      9599 1.53342E+04-1.29187E+03 8.83990E-01
 -1      9600-4.86612E+00-8.78186E+00-6.31003E-01
 -1      9601-4.38939E+00-9.03146E+00 5.31140E-02
 -1      9602 2.39467E+01 2.80213E+01 5.13480E-01
 -1      9603 2.17060E+01 2.77762E+01 5.09694E-01
 -1      9604 2.23735E+01 2.69235E+01-1.07139E-01
 -1      9605 1.43325E+01 2.40510E+01-5.80029E-01
 -1      9606 1.29670E+01 2.32199E+01 2.75758E-03
 -1      9607 1.21308E+04-8.04001E+02 7.84175E-01
 -1      9608 1.23064E-01 2.80097E+00 3.99770E-01
 -1      9609 1.14146E+04 7.71946E+02 8.47205E-01
 -1      9610 1.14146E+04 7.71955E+02 9.13991E-01
 -1      9611 2.19050E+01-4.04424E+01 6.38957E-01
 -1      9612 2.05609E+01-3.94284E+01 2.71700E-01
 -1      9613 1.36292E+01-2.54544E+01 2.84274E-01
 -1      9614 1.40229E+04 9.06312E+02 9.81142E-01
 -1      9615 1.39487E+04 8.63425E+02 9.75640E-01
 -1      9616 1.39487E+04 8.63439E+02 9.75942E-01
 -1      9617 1.40229E+04 9.06322E+02 9.81296E-01
 -1      9618 1.46683E+04-1.16775E+03 8.69482E-01
 -1      9619 1.46670E+04-1.23473E+03 8.64790E-01
 -1      9620 1.45069E+04-1.19184E+03 8.62013E-01
 -1      9621 1.46189E+04-1.29175E+03 8.58859E-01
 -1      9622 1.46175E+04-1.35872E+03 8.53958E-01
 -1      9623 1.47789E+04-1.33464E+03 8.61696E-01
 -1      9624 1.39494E+04-8.95652E+02 8.61081E-01
 -1      9625 1.40237E+04-9.38545E+02 8.60915E-01
 -1      9626 1.40237E+04-9.38535E+02 8.60911E-01
 -1      9627 1.39494E+04-8.95642E+02 8.61095E-01
 -1      9628 1.39494E+04-8.95638E+02 8.61111E-01
 -1      9629 1.33389E+04-8.15864E+02 8.43972E-01
 -1      9630 1.34068E+04-7.77614E+02 8.49520E-01
 -1      9631 8.99852E+03-7.99303E+02 1.00881E+00
 -1      9632 8.99850E+03-7.99292E+02 3.72056E-01
 -1      9633 5.96863E+03-7.50939E+02-3.98757E-01
 -1      9634 6.95692E+03-7.72999E+02-1.02683E-01
 -1      9635 1.40818E+04 9.34391E+02 9.85120E-01
 -1      9636 1.40818E+04 9.34397E+02 9.85152E-01
 -1      9637 1.33391E+04-8.15872E+02 8.45525E-01
 -1      9638 1.34070E+04-7.77631E+02 8.49739E-01
 -1      9639 1.40077E+04-9.23433E+02 8.61329E-01
 -1      9640 1.54432E+04-1.33190E+03 8.85360E-01
 -1      9641 1.52868E+04-1.23471E+03 8.85867E-01
 -1      9642 1.52819E+04-1.30782E+03 8.81108E-01
 -1      9643 1.54419E+04-1.26493E+03 8.89530E-01
 -1      9644 1.52854E+04-1.16774E+03 8.90106E-01
 -1      9645 1.54468E+04-1.19182E+03 8.94365E-01
 -1      9646 2.97424E-01 1.89488E+00-1.70827E-01
 -1      9647 1.40820E+04-9.66331E+02 8.61170E-01
 -1      9648 1.40819E+04-9.66325E+02 8.61132E-01
 -1      9649 9.34411E+03-8.01858E+02 9.70466E-01
 -1      9650 1.20654E+01 2.38069E+01-6.05198E-01
 -1      9651 1.43767E+01-2.48407E+01 7.27901E-01
 -1      9652 8.31096E+03-7.92876E+02 1.10259E+00
 -1      9653 1.10827E+04-8.13198E+02 6.86670E-01
 -1      9654 1.10827E+04-8.13209E+02 8.44294E-01
 -1      9655 1.03596E+04 7.62726E+02 9.63733E-01
 -1      9656 2.95654E+01-4.16472E+01 8.40146E-01
 -1      9657 5.37726E+01 2.16148E+01 3.76820E+00
 -1      9658 7.23498E+03 7.38242E+02 1.35921E+00
 -1      9659 7.23500E+03 7.38231E+02 1.05324E-01
 -1      9660 5.59113E+01 4.18322E+01 2.80397E+00
 -1      9661 5.86216E+01 4.41122E+01 1.96835E+00
 -1      9662 4.89612E+01 3.74069E+01 1.61771E+00
 -1      9663 6.22767E+03 7.26717E+02-1.97584E-01
 -1      9664 5.89884E+03 7.18228E+02 1.66294E+00
 -1      9665 5.89886E+03 7.18220E+02-3.00817E-01
 -1      9666 5.25312E+03 6.98279E+02-5.24104E-01
 -1      9667-7.17525E-01-3.66777E+00 3.27468E-02
 -1      9668-1.98535E-01 1.76694E+00-2.19522E-01
 -1      9669-1.33229E-01 1.76725E+00-1.03245E-01
 -1      9670 8.28112E+00-1.38918E+01-1.17548E+00
 -1      9671 1.53264E+04 1.32833E+03 1.05449E+00
 -1      9672 1.51650E+04 1.30425E+03 1.04747E+00
 -1      9673-3.48561E+00-2.14926E+01 5.61868E-01
 -1      9674-2.85919E+00-1.89647E+01 3.99058E-02
 -1      9675-3.44902E+00-2.14456E+01-4.63461E-01
 -1      9676 1.54504E+01-2.70680E+01 1.31165E-01
 -1      9677 1.37174E+04 6.72356E+02 9.55084E-01
 -1      9678 1.35585E+04 8.15612E+02 9.59596E-01
 -1      9679 1.35176E+04 6.71944E+02 9.47369E-01
 -1      9680 1.43593E+01-2.54751E+01 3.57488E-01
 -1      9681-2.63699E-01-8.55974E+00 1.29521E-02
 -1      9682 1.05733E+01 2.29104E+01-6.15754E-01
 -1      9683 1.14235E+01 2.23046E+01 4.20800E-03
 -1      9684 1.35585E+04 8.15603E+02 9.58212E-01
 -1      9685 1.37175E+04 6.72342E+02 9.55284E-01
 -1      9686 1.35177E+04 6.71935E+02 9.48799E-01
 -1      9687 1.45493E+01 2.39989E+01 5.52644E-01
 -1      9688 2.55833E+01 2.83130E+01 5.19589E-01
 -1      9689 2.40186E+01 2.72584E+01-1.06682E-01
 -1      9690 1.36958E+04-2.51927E+02 8.94469E-01
 -1      9691 1.36958E+04-2.51942E+02 8.93836E-01
 -1      9692 1.10750E+04-3.30756E+02 8.35349E-01
 -1      9693 1.38181E+04-7.48855E+02 8.66141E-01
 -1      9694 1.38181E+04-7.48840E+02 8.65934E-01
 -1      9695 2.47678E+01-3.59994E+01-4.30997E-01
 -1      9696 1.52853E+04 1.13576E+03 1.04032E+00
 -1      9697 1.54467E+04 1.15985E+03 1.04777E+00
 -1      9698 1.52867E+04 1.20275E+03 1.04485E+00
 -1      9699 1.52948E+04 1.27139E+03 1.04987E+00
 -1      9700 1.54562E+04 1.29549E+03 1.05732E+00
 -1      9701 1.54548E+04 1.22850E+03 1.05271E+00
 -1      9702-1.07645E+00-1.24080E+00 1.92929E-01
 -1      9703-2.02371E+00-2.41472E+00 3.66976E-01
 -1      9704-1.02510E+00-1.27470E+00 8.54255E-02
 -1      9705 1.84708E+02-1.58807E+02 5.20298E+00
 -1      9706 1.98379E+02-1.32682E+02 3.82653E+00
 -1      9707 1.84679E+02-1.58875E+02-4.59892E+00
 -1      9708 1.98376E+02-1.32686E+02-3.23461E+00
 -1      9709 1.22368E+01-1.31367E+01-2.74220E+00
 -1      9710 3.42335E+01 2.87023E+01 1.05167E+00
 -1      9711-9.14746E-01-1.86253E+00-2.22588E-01
 -1      9712-7.34741E-01-2.22900E+00 9.24536E-02
 -1      9713 1.42021E+01-2.57195E+01 1.73456E-01
 -1      9714 1.47375E+02-1.36327E+02 5.05072E+00
 -1      9715 2.10181E+01-2.19344E+00 5.04289E-01
 -1      9716 8.80199E+00 5.68300E+00 1.64251E+00
 -1      9717 9.91167E+00 6.58990E+00 7.23062E-01
 -1      9718 1.57545E+04-1.19425E+03 9.05137E-01
 -1      9719 1.62361E+04 3.29513E+02 1.02141E+00
 -1      9720 1.58155E+04-1.05234E+03 9.16514E-01
 -1      9721 1.59400E+04-1.00919E+03 9.23803E-01
 -1      9722 1.58273E+04-9.33191E+02 9.24555E-01
 -1      9723 1.57564E+04-9.97493E+02 9.17889E-01
 -1      9724 1.58690E+04-1.07349E+03 9.17082E-01
 -1      9725 1.95782E+01-5.98378E-01 4.07280E-01
 -1      9726 1.45098E+04-1.33169E+03 8.52942E-01
 -1      9727 1.45069E+04-1.19181E+03 8.60783E-01
 -1      9728 1.45112E+04-1.26472E+03 8.56795E-01
 -1      9729 1.46712E+04-1.30761E+03 8.59604E-01
 -1      9730 1.46683E+04-1.16773E+03 8.67847E-01
 -1      9731 1.46669E+04-1.23471E+03 8.63697E-01
 -1      9732 9.86142E+00 6.95620E+00 1.06200E+00
 -1      9733 3.11170E+01 2.91024E+01 5.83427E-01
 -1      9734 3.25536E+01 2.91979E+01 6.27456E-01
 -1      9735 3.25960E+01 2.83368E+01 2.37735E-01
 -1      9736 3.40782E+01 2.86123E+01 2.70565E-01
 -1      9737-3.55807E-01 3.40898E+00-6.77373E-01
 -1      9738 2.33220E+01 2.73022E+00 6.92060E-01
 -1      9739 5.77233E+01 1.54618E+01-2.55697E+00
 -1      9740 1.35046E+01-2.56558E+01 9.14970E-02
 -1      9741 1.37413E+01-2.56062E+01 1.11500E-03
 -1      9742 1.05872E+01 2.29116E+01 5.56498E-01
 -1      9743 9.15024E+00 2.18731E+01 5.67502E-01
 -1      9744 1.41925E+04-1.18987E+03 8.49653E-01
 -1      9745 1.13232E+04-3.95459E+01 8.11783E-01
 -1      9746 1.34016E+01-2.51714E+01-2.63109E-01
 -1      9747 1.46056E+01-2.50922E+01-1.71545E-01
 -1      9748 1.55208E+01-2.31756E+01-1.72460E-01
 -1      9749 1.34048E+04 7.51119E+02 9.49980E-01
 -1      9750 1.34050E+04 7.51140E+02 9.48387E-01
 -1      9751 1.20826E+01 2.38127E+01 5.43878E-01
 -1      9752 3.43907E+01-5.61961E+00 1.16989E-01
 -1      9753 3.11999E+01-1.87392E+00-4.01184E-01
 -1      9754 1.33195E+04 7.45030E+02 9.50889E-01
 -1      9755 1.33197E+04 7.45061E+02 9.40499E-01
 -1      9756 9.86607E-02 7.82651E+00 5.94112E-01
 -1      9757 3.89509E-01 8.24919E+00-1.49588E-01
 -1      9758 8.84613E+03-7.39125E+02 1.00666E+00
 -1      9759 8.84611E+03-7.39117E+02 3.72674E-01
 -1      9760 1.56519E-01-4.32542E+00 2.58999E-01
 -1      9761-3.58263E-02-4.28630E+00 9.38513E-02
 -1      9762 8.46537E+03-7.36986E+02 1.05576E+00
 -1      9763 8.46535E+03-7.36978E+02 2.97118E-01
 -1      9764 1.58960E+04-9.71864E+02 9.24590E-01
 -1      9765 1.60205E+04-9.28715E+02 9.31914E-01
 -1      9766 2.16820E+01 2.77764E+01-5.77127E-01
 -1      9767 2.39188E+01 2.80208E+01-5.76366E-01
 -1      9768-4.87465E+00-8.81189E+00 6.12441E-01
 -1      9769 1.61286E+04 2.92548E+02 1.01483E+00
 -1      9770 1.62361E+04 3.29518E+02 1.02143E+00
 -1      9771 1.62790E+04 2.55243E+02 1.01816E+00
 -1      9772 1.62361E+04 4.15300E+02 1.02711E+00
 -1      9773 1.37777E+04-9.26436E+02 8.53230E-01
 -1      9774 1.37777E+04-9.26446E+02 8.52801E-01
 -1      9775 1.16290E+01-1.47304E+01-9.18666E-01
 -1      9776 1.52262E+04 1.29190E+03 1.04880E+00
 -1      9777 1.54906E+04-1.24686E+03 8.92415E-01
 -1      9778 1.54919E+04-1.31384E+03 8.87966E-01
 -1      9779-1.10248E+00-1.24924E+00 7.93670E-02
 -1      9780-1.86037E+00-2.17887E+00-9.06752E-02
 -1      9781 1.44701E+04 1.28524E+03 1.02122E+00
 -1      9782 1.44714E+04 1.21827E+03 1.01741E+00
 -1      9783 2.19926E+01-4.03658E+01 1.04993E-01
 -1      9784-2.24444E-01 1.78867E+00-9.24331E-02
 -1      9785-3.26357E-01 3.08123E+00 8.38043E-02
 -1      9786 1.61286E+04-3.24635E+02 9.75063E-01
 -1      9787 1.62540E+04-2.79804E+02 9.82357E-01
 -1      9788 1.62968E+04-2.05531E+02 9.88759E-01
 -1      9789 1.62540E+04-3.65581E+02 9.76791E-01
 -1      9790 1.44722E+04 1.28611E+03 1.02232E+00
 -1      9791 1.44735E+04 1.21913E+03 1.01749E+00
 -1      9792-3.96929E+00-5.73874E+00 8.62630E-01
 -1      9793-3.38130E+00-4.18035E+00 8.49956E-01
 -1      9794 3.23366E+01 2.87716E+01-2.43340E-01
 -1      9795 3.38022E+01 2.89617E+01-2.54263E-01
 -1      9796 1.38245E+04 9.13215E+02 9.74301E-01
 -1      9797 1.38923E+04 7.59842E+02 9.66777E-01
 -1      9798 1.38923E+04 7.59847E+02 9.66904E-01
 -1      9799 3.67676E+01 2.96373E+01-8.83676E-01
 -1      9800 3.51832E+01 2.91420E+01-2.83108E-01
 -1      9801 1.38252E+04-9.45441E+02 8.53747E-01
 -1      9802 1.38924E+04-7.91739E+02 8.65797E-01
 -1      9803 1.38924E+04-7.91734E+02 8.65750E-01
 -1      9804 1.57786E+04 1.10752E+03 1.05622E+00
 -1      9805 1.57458E+04 1.16765E+03 1.05897E+00
 -1      9806 1.57251E+04 1.08637E+03 1.05295E+00
 -1      9807 1.57236E+04 1.02558E+03 1.04890E+00
 -1      9808 1.57563E+04 9.65448E+02 1.04608E+00
 -1      9809 1.62539E+04-2.79799E+02 9.82435E-01
 -1      9810 1.41916E+04 1.15736E+03 1.00274E+00
 -1      9811 1.51838E+00 3.88867E+00-8.29333E-02
 -1      9812 1.47066E+04 1.26011E+03 1.02855E+00
 -1      9813 1.38180E+04 7.16975E+02 9.61737E-01
 -1      9814 1.38245E+04 9.13229E+02 9.75054E-01
 -1      9815 1.37749E+04 8.93502E+02 9.72174E-01
 -1      9816 1.44627E+04-1.31416E+03 8.51336E-01
 -1      9817 1.44640E+04-1.24718E+03 8.56311E-01
 -1      9818 1.47059E+04 1.26002E+03 1.02823E+00
 -1      9819 1.38253E+04-9.45455E+02 8.53156E-01
 -1      9820 1.41919E+04 1.15764E+03 1.00437E+00
 -1      9821-9.25601E-01-1.87265E+00 2.15647E-01
 -1      9822 1.59389E+04-8.97594E+02 9.30923E-01
 -1      9823 1.58702E+04-8.58922E+02 9.30878E-01
 -1      9824 1.53708E+04 1.22789E+03 1.04976E+00
 -1      9825 1.58584E+04-9.78070E+02 9.22854E-01
 -1      9826 3.68031E+01 2.96663E+01 8.72703E-01
 -1      9827 3.55242E+01 2.88906E+01 3.12598E-01
 -1      9828 1.52484E+04-1.29187E+03 8.81012E-01
 -1      9829 7.15216E+01 5.33982E+01-2.34529E+00
 -1      9830 7.15191E+01 5.34407E+01 2.64090E+00
 -1      9831 1.57341E+04 1.17474E+03 1.05912E+00
 -1      9832 1.47046E+04-1.29174E+03 8.61970E-01
 -1      9833 2.65088E+01 2.42135E+00 7.97881E-01
 -1      9834 3.10837E+01 2.91003E+01-6.32401E-01
 -1      9835 2.62395E+01-4.13979E+01 7.13202E-01
 -1      9836 3.07077E+01-4.15541E+01-1.84810E-01
 -1      9837 1.52263E+04-1.32391E+03 8.78099E-01
 -1      9838 1.41040E+04-1.12188E+03 8.52606E-01
 -1      9839 1.41248E+04-1.04061E+03 8.57817E-01
 -1      9840 1.41337E+04-8.59116E+02 8.69975E-01
 -1      9841 1.41336E+04 8.27206E+02 9.79965E-01
 -1      9842 1.41247E+04 1.00866E+03 9.91489E-01
 -1      9843 1.09024E+00 1.21107E+01-7.05981E-01
 -1      9844-4.42350E+00-7.14989E+00 6.54289E-01
 -1      9845 1.52047E+04-1.32886E+03 8.77013E-01
 -1      9846 1.53647E+04-1.28597E+03 8.85446E-01
 -1      9847 3.23786E+01-4.26874E+01-8.16609E-03
 -1      9848 1.57912E+04-1.16916E+03 9.08035E-01
 -1      9849 2.96611E+01-4.15730E+01 4.97940E-02
 -1      9850 2.55531E+01 2.83127E+01-5.80500E-01
 -1      9851 1.62542E+04 2.46474E+02 1.01667E+00
 -1      9852 1.62971E+04 1.72198E+02 1.01337E+00
 -1      9853 1.52263E+04-1.32388E+03 8.78111E-01
 -1      9854 1.52261E+04 1.29193E+03 1.04880E+00
 -1      9855 8.88502E+00 5.69616E+00 1.31714E+00
 -1      9856 1.47275E+04-1.32390E+03 8.60551E-01
 -1      9857 3.42236E-01 8.54445E+00-7.48652E-01
 -1      9858 1.47273E+04 1.29193E+03 1.03121E+00
 -1      9859 1.50293E-01 1.79735E+00-2.58631E-01
 -1      9860 1.47273E+04 1.29190E+03 1.03121E+00
 -1      9861 1.59327E+04-1.01194E+03 9.23232E-01
 -1      9862 1.57563E+04-9.97468E+02 9.18202E-01
 -1      9863 1.58792E+04-9.90789E+02 9.22834E-01
 -1      9864 1.60037E+04-9.47635E+02 9.29904E-01
 -1      9865 1.58273E+04-9.33166E+02 9.24916E-01
 -1      9866 2.74862E+01-4.08019E+01 8.72097E-01
 -1      9867 2.72469E+01-4.14979E+01 7.42489E-01
 -1      9868 1.60132E+04-8.54709E+02 9.36359E-01
 -1      9869 1.59445E+04-8.16036E+02 9.36258E-01
 -1      9870 3.04892E+01-4.17990E+01 2.02901E-02
 -1      9871 5.78181E+01 1.55026E+01 2.82658E+00
 -1      9872 3.12439E+01 5.86515E+00 9.00410E-01
 -1      9873 1.36529E+04 1.45919E+02 9.18396E-01
 -1      9874 1.36529E+04 1.45900E+02 9.18893E-01
 -1      9875 1.62100E+01-3.83088E+01 9.29694E-03
 -1      9876 1.93147E+01-3.90907E+01-3.19206E-02
 -1      9877 1.37373E+04 5.61719E+02 9.48758E-01
 -1      9878 1.37373E+04 5.61704E+02 9.48622E-01
 -1      9879 1.59201E+04 9.13659E+02 1.04857E+00
 -1      9880 1.58458E+04 9.56550E+02 1.04874E+00
 -1      9881 1.58029E+04 1.03083E+03 1.05209E+00
 -1      9882 1.58199E+04 8.27138E+02 1.03938E+00
 -1      9883 1.53691E+04 1.22850E+03 1.04965E+00
 -1      9884 4.91555E-01 1.03898E+01-7.55031E-01
 -1      9885 1.54548E+04 1.22850E+03 1.05271E+00
 -1      9886 1.53549E+04 1.25601E+03 1.05099E+00
 -1      9887 1.52691E+04 1.25602E+03 1.04794E+00
 -1      9888 1.52855E+04-1.16775E+03 8.90377E-01
 -1      9889 1.51847E+04-1.33287E+03 8.76050E-01
 -1      9890 1.52589E+04-1.28999E+03 8.81479E-01
 -1      9891 1.53447E+04-1.28999E+03 8.84478E-01
 -1      9892 1.47274E+04-1.32388E+03 8.60552E-01
 -1      9893 1.58458E+04 9.56555E+02 1.04876E+00
 -1      9894 1.62275E+04 4.43534E+02 1.02875E+00
 -1      9895 1.62275E+04 3.57748E+02 1.02320E+00
 -1      9896 1.62275E+04 4.43529E+02 1.02873E+00
 -1      9897 1.48224E+04-1.34074E+03 8.62769E-01
 -1      9898 1.47481E+04-1.29785E+03 8.62850E-01
 -1      9899 1.48224E+04-1.34074E+03 8.62749E-01
 -1      9900 1.58029E+04 1.03082E+03 1.05207E+00
 -1      9901 1.46681E+04 1.13577E+03 1.01894E+00
 -1      9902 1.46878E+04 1.25671E+03 1.02749E+00
 -1      9903 1.47621E+04 1.29960E+03 1.03294E+00
 -1      9904 1.46020E+04 1.25670E+03 1.02450E+00
 -1      9905 1.52392E+04 1.26136E+03 1.04734E+00
 -1      9906 1.45969E+04-1.26472E+03 8.59695E-01
 -1      9907 1.45112E+04-1.26472E+03 8.56795E-01
 -1      9908 1.52790E+04-1.28597E+03 8.82396E-01
 -1      9909 1.51646E+04 1.30432E+03 1.04741E+00
 -1      9910 1.52388E+04 1.26143E+03 1.04719E+00
 -1      9911 1.51646E+04 1.30432E+03 1.04743E+00
 -1      9912 1.36529E+04-1.77665E+02 8.97455E-01
 -1      9913 1.36529E+04-1.77646E+02 8.97487E-01
 -1      9914 1.62472E+04-4.01844E+02 9.74245E-01
 -1      9915 1.62472E+04-3.16066E+02 9.79889E-01
 -1      9916 1.62901E+04-2.41794E+02 9.86200E-01
 -1      9917 1.61285E+04-3.24626E+02 9.75603E-01
 -1      9918 1.46878E+04 1.25670E+03 1.02756E+00
 -1      9919 2.36813E+02-1.77361E+02-4.08743E+00
 -1      9920 2.14648E+02-1.59235E+02 2.94382E-01
 -1      9921 1.40076E+04 8.91518E+02 9.79852E-01
 -1      9922 1.40818E+04 9.34401E+02 9.85179E-01
 -1      9923 1.40819E+04 9.34387E+02 9.85082E-01
 -1      9924 1.40076E+04 8.91499E+02 9.79555E-01
 -1      9925-3.51333E-01 2.49852E+00 5.53544E-01
 -1      9926-3.37646E-01 2.49608E+00-5.41709E-01
 -1      9927 1.40077E+04-9.23443E+02 8.61357E-01
 -1      9928 1.40820E+04-9.66335E+02 8.61210E-01
 -1      9929 2.86821E+01-4.14349E+01 8.05326E-01
 -1      9930 1.52853E+04 1.13575E+03 1.04069E+00
 -1      9931 1.51948E+04 1.29891E+03 1.04816E+00
 -1      9932 1.45572E+04 1.21827E+03 1.02052E+00
 -1      9933 1.62370E+04-4.44095E+02 9.71053E-01
 -1      9934 1.62370E+04-5.29877E+02 9.65496E-01
 -1      9935 1.62370E+04-4.44100E+02 9.71029E-01
 -1      9936 1.52589E+04-1.28998E+03 8.81441E-01
 -1      9937 6.25645E+01 4.63147E+01-1.66038E+00
 -1      9938 6.25715E+01 4.63626E+01 1.88482E+00
 -1      9939-2.77458E-01-4.65734E+00 1.83976E-01
 -1      9940 1.62100E+04-5.23907E+02 9.64920E-01
 -1      9941 1.62100E+04-4.38126E+02 9.70581E-01
 -1      9942 1.54661E+04-1.25643E+03 8.90938E-01
 -1      9943 1.53804E+04-1.25643E+03 8.87937E-01
 -1      9944 1.57236E+04-1.05761E+03 9.12865E-01
 -1      9945 1.57337E+04-1.11298E+03 9.09676E-01
 -1      9946 1.57873E+04-1.13413E+03 9.10212E-01
 -1      9947 1.62491E+04 3.60420E+02 1.02404E+00
 -1      9948 1.61285E+04 2.92558E+02 1.01534E+00
 -1      9949 1.62920E+04 2.00364E+02 1.01511E+00
 -1      9950 1.62491E+04 2.74634E+02 1.01841E+00
 -1      9951 1.45593E+04 1.21913E+03 1.02043E+00
 -1      9952 4.85344E+01 3.51097E+01 4.69133E+00
 -1      9953 1.54048E+04-1.24686E+03 8.89440E-01
 -1      9954 1.52691E+04 1.25601E+03 1.04801E+00
 -1      9955-1.83796E+00-2.18494E+00-2.61488E-01
 -1      9956 1.44736E+04 1.21913E+03 1.01751E+00
 -1      9957 1.37097E+04-9.47153E+02 8.49648E-01
 -1      9958 1.37098E+04-9.47163E+02 8.48879E-01
 -1      9959 1.68528E+02 1.12979E+02 4.96030E+00
 -1      9960 1.41676E+04 1.08292E+03 9.97755E-01
 -1      9961 1.42534E+04 1.14918E+03 1.00514E+00
 -1      9962 1.42105E+04 1.07492E+03 9.98834E-01
 -1      9963 2.36829E+02-1.77345E+02 4.66541E+00
 -1      9964 1.40819E+04-9.66321E+02 8.61098E-01
 -1      9965 1.40076E+04-9.23424E+02 8.61315E-01
 -1      9966 1.54565E+04 1.22789E+03 1.05275E+00
 -1      9967 1.44714E+04 1.21827E+03 1.01739E+00
 -1      9968 1.62370E+04-3.58318E+02 9.76584E-01
 -1      9969 9.63286E+00 6.69743E+00-1.14061E+00
 -1      9970 1.41676E+04 1.08292E+03 9.97933E-01
 -1      9971 1.42534E+04 1.14918E+03 1.00524E+00
 -1      9972 1.45498E+04-1.24718E+03 8.59423E-01
 -1      9973 1.62472E+04-3.16062E+02 9.79935E-01
 -1      9974 1.36944E+04 3.15916E+02 9.31065E-01
 -1      9975 1.38250E+04 2.92728E+02 9.36157E-01
 -1      9976 1.37373E+04 4.75952E+02 9.43222E-01
 -1      9977 1.36945E+04 3.15897E+02 9.31282E-01
 -1      9978 1.38251E+04 2.92709E+02 9.32314E-01
 -1      9979 1.37373E+04 4.75933E+02 9.42978E-01
 -1      9980 2.00274E+01 2.73675E+01-5.79503E-01
 -1      9981 2.90023E+01 8.06446E-01 5.54800E-01
 -1      9982 2.05136E+02-1.70112E+02 5.13537E+00
 -1      9983 2.14264E+02-1.59200E+02 4.52653E+00
 -1      9984 1.37373E+04-5.93538E+02 8.73337E-01
 -1      9985 1.37374E+04-5.93553E+02 8.73315E-01
 -1      9986 1.63397E+04-1.31263E+02 9.95127E-01
 -1      9987 1.62969E+04-2.05536E+02 9.88726E-01
 -1      9988 1.41676E+04 1.08293E+03 9.98018E-01
 -1      9989 1.41247E+04 1.00866E+03 9.91557E-01
 -1      9990 1.41247E+04 1.00865E+03 9.91422E-01
 -1      9991 1.41676E+04 1.08291E+03 9.97664E-01
 -1      9992 1.41248E+04-1.04061E+03 8.57777E-01
 -1      9993 1.41677E+04-1.11489E+03 8.54312E-01
 -1      9994 1.41677E+04-1.11489E+03 8.54396E-01
 -1      9995 1.59573E+04 8.43028E+02 1.04529E+00
 -1      9996 1.60316E+04 8.00132E+02 1.04508E+00
 -1      9997 1.63330E+04-1.67526E+02 9.92487E-01
 -1      9998 1.62901E+04-2.41799E+02 9.86179E-01
 -1      9999 1.93282E+02 1.25477E+02-4.37912E+00
 -1     10000 1.51949E+04 1.29890E+03 1.04815E+00
 -1     10001 1.62117E+04 4.01834E+02 1.02533E+00
 -1     10002 1.62117E+04 4.87616E+02 1.03097E+00
 -1     10003 2.05110E+02-1.70147E+02-4.55366E+00
 -1     10004 1.54661E+04-1.25643E+03 8.90935E-01
 -1     10005 1.47809E+04 1.30300E+03 1.03385E+00
 -1     10006 1.35916E+04 8.78621E+02 9.62974E-01
 -1     10007 1.35916E+04 8.78631E+02 9.65415E-01
 -1     10008 1.59334E+04-9.03913E+02 9.30341E-01
 -1     10009 1.93267E+02 1.25507E+02 5.09365E+00
 -1     10010 1.49767E+04 1.35607E+03 1.04420E+00
 -1     10011 1.49025E+04 1.31318E+03 1.03880E+00
 -1     10012 1.49767E+04 1.35607E+03 1.04411E+00
 -1     10013 1.41677E+04-1.11488E+03 8.54665E-01
 -1     10014 1.42730E+04-1.13184E+03 8.56907E-01
 -1     10015 1.41248E+04-1.04060E+03 8.57896E-01
 -1     10016 1.42301E+04-1.05756E+03 8.59866E-01
 -1     10017 1.58251E+04 1.01194E+03 1.05160E+00
 -1     10018 1.38181E+04 7.16960E+02 9.61530E-01
 -1     10019 1.41247E+04 1.00867E+03 9.91607E-01
 -1     10020 1.41247E+04 1.00865E+03 9.91360E-01
 -1     10021 1.41249E+04-1.04062E+03 8.57743E-01
 -1     10022 1.47802E+04 1.30291E+03 1.03377E+00
 -1     10023 1.58449E+04 9.93725E+02 1.05117E+00
 -1     10024 1.58984E+04 1.01488E+03 1.05439E+00
 -1     10025 1.57563E+04 9.65473E+02 1.04626E+00
 -1     10026 1.57235E+04 1.02560E+03 1.04899E+00
 -1     10027 1.58657E+04 1.07501E+03 1.05717E+00
 -1     10028 1.44640E+04-1.24717E+03 8.56311E-01
 -1     10029 1.57600E+04 1.10510E+03 1.05542E+00
 -1     10030 1.60470E+04-8.11920E+02 9.40384E-01
 -1     10031 1.59728E+04-8.54806E+02 9.35006E-01
 -1     10032 1.60470E+04-8.11915E+02 9.40408E-01
 -1     10033 1.58155E+04-1.05233E+03 9.16533E-01
 -1     10034 1.62100E+04-6.09688E+02 9.59329E-01
 -1     10035 1.59232E+04 9.90123E+02 1.05370E+00
 -1     10036 1.58696E+04 9.68973E+02 1.05037E+00
 -1     10037 1.41248E+04-1.04060E+03 8.57850E-01
 -1     10038 1.41677E+04-1.11488E+03 8.54570E-01
 -1     10039 1.42668E+04-1.23248E+03 8.50911E-01
 -1     10040 1.43392E+04 1.14918E+03 1.00821E+00
 -1     10041 1.43857E+04 1.21827E+03 1.01426E+00
 -1     10042 1.62491E+04 2.74639E+02 1.01848E+00
 -1     10043 2.14247E+02-1.59215E+02-3.93558E+00
 -1     10044 1.50903E+04 1.34721E+03 1.04766E+00
 -1     10045 1.43878E+04 1.21913E+03 1.01459E+00
 -1     10046 1.58240E+04-1.10904E+03 9.13115E-01
 -1     10047 1.57704E+04-1.08789E+03 9.12669E-01
 -1     10048 1.59221E+04-9.16524E+02 9.29219E-01
 -1     10049 1.59963E+04-8.73634E+02 9.34604E-01
 -1     10050 1.61285E+04 2.92567E+02 1.01586E+00
 -1     10051 1.62704E+04 2.83477E+02 1.01980E+00
 -1     10052 1.62117E+04 4.87621E+02 1.03100E+00
 -1     10053 1.38251E+04-3.24480E+02 8.95312E-01
 -1     10054 1.37373E+04-5.07743E+02 8.79106E-01
 -1     10055 1.36944E+04-3.47671E+02 8.88056E-01
 -1     10056 1.36945E+04-3.47690E+02 8.87663E-01
 -1     10057 1.38251E+04-3.24499E+02 8.92646E-01
 -1     10058 1.37374E+04-5.07762E+02 8.78748E-01
 -1     10059-2.43322E+00-2.84269E+00 6.67272E-01
 -1     10060-1.26851E+00-1.53516E+00 4.35096E-01
 -1     10061 3.39128E+01 2.90178E+01-9.75585E-01
 -1     10062 1.34524E+04-8.40753E+02 8.46301E-01
 -1     10063 1.57726E+04-1.12660E+03 9.10179E-01
 -1     10064 1.37373E+04 3.90184E+02 9.37870E-01
 -1     10065 1.37374E+04 3.90159E+02 9.37162E-01
 -1     10066 1.43501E+04-1.18816E+03 8.56129E-01
 -1     10067 1.43782E+04-1.24718E+03 8.53143E-01
 -1     10068 1.42644E+04-1.18816E+03 8.53056E-01
 -1     10069 1.34526E+04-8.40762E+02 8.47964E-01
 -1     10070 1.50907E+04 1.34714E+03 1.04758E+00
 -1     10071 1.51723E+04 1.37384E+03 1.05190E+00
 -1     10072 1.50584E+04 1.29113E+03 1.04303E+00
 -1     10073 1.51326E+04 1.24823E+03 1.04302E+00
 -1     10074 1.61286E+04-3.24645E+02 9.74518E-01
 -1     10075 1.62799E+04-2.84051E+02 9.82980E-01
 -1     10076 1.59942E+04 9.25813E+02 1.05203E+00
 -1     10077 1.58273E+04 9.01138E+02 1.04436E+00
 -1     10078 1.58029E+04 1.03083E+03 1.05210E+00
 -1     10079 1.51326E+04 1.24826E+03 1.04228E+00
 -1     10080 1.51719E+04 1.37392E+03 1.05259E+00
 -1     10081 1.50583E+04 1.29115E+03 1.04263E+00
 -1     10082 1.62155E+04-5.09864E+02 9.66100E-01
 -1     10083 1.46904E+04-1.31370E+03 8.59914E-01
 -1     10084 1.46161E+04-1.27081E+03 8.60057E-01
 -1     10085 1.42301E+04-1.05759E+03 8.60948E-01
 -1     10086 1.41974E+04-9.97457E+02 8.63850E-01
 -1     10087 1.42132E+04-1.10859E+03 8.56500E-01
 -1     10088 1.41597E+04-1.12975E+03 8.52738E-01
 -1     10089 6.53911E+01 4.87824E+01 2.17529E+00
 -1     10090 6.53839E+01 4.87480E+01-1.92950E+00
 -1     10091 1.51815E+04-1.40435E+03 8.71025E-01
 -1     10092 1.62970E+04 1.72203E+02 1.01339E+00
 -1     10093 1.41973E+04 9.65490E+02 9.91751E-01
 -1     10094 1.41972E+04 9.65516E+02 9.90706E-01
 -1     10095 1.41973E+04-9.97432E+02 8.62546E-01
 -1     10096 1.48208E+04 1.24826E+03 1.03109E+00
 -1     10097 1.47729E+04 1.37251E+03 1.03860E+00
 -1     10098 1.48545E+04 1.34580E+03 1.03928E+00
 -1     10099 1.48951E+04 1.29115E+03 1.03681E+00
 -1     10100 1.51105E+04-1.41288E+03 8.68534E-01
 -1     10101 1.48551E+04 1.34589E+03 1.03916E+00
 -1     10102 1.48951E+04 1.29113E+03 1.03734E+00
 -1     10103 1.47736E+04 1.37259E+03 1.03758E+00
 -1     10104 1.48209E+04 1.24823E+03 1.03223E+00
 -1     10105 1.50584E+04 1.38277E+03 1.04853E+00
 -1     10106 1.58200E+04-8.59175E+02 9.29314E-01
 -1     10107 1.58141E+04-1.05357E+03 9.16415E-01
 -1     10108 1.58569E+04-9.79308E+02 9.22759E-01
 -1     10109 1.59312E+04-9.36418E+02 9.28179E-01
 -1     10110 1.55512E+04 1.18644E+03 1.05339E+00
 -1     10111 1.59125E+04 8.94699E+02 1.04702E+00
 -1     10112 1.62370E+04-3.58324E+02 9.76542E-01
 -1     10113 1.52120E+04-1.39844E+03 8.72980E-01
 -1     10114 1.51327E+04-1.28021E+03 8.77397E-01
 -1     10115 1.47716E+04-1.40423E+03 8.56410E-01
 -1     10116 1.51206E+04 1.34180E+03 1.04834E+00
 -1     10117 1.62100E+04-5.23902E+02 9.64951E-01
 -1     10118 1.60077E+04-8.61027E+02 9.35764E-01
 -1     10119 1.55406E+04 1.22850E+03 1.05578E+00
 -1     10120 1.57111E+04-1.12684E+03 9.08001E-01
 -1     10121 1.56682E+04-1.20110E+03 9.01640E-01
 -1     10122 1.55123E+04 1.20544E+03 1.05324E+00
 -1     10123 1.63482E+04-4.75525E+01 1.00091E+00
 -1     10124 1.63053E+04-1.21826E+02 9.94432E-01
 -1     10125 1.61872E+04 5.42780E+02 1.03380E+00
 -1     10126 1.61872E+04 5.42775E+02 1.03377E+00
 -1     10127 1.47789E+04-1.33463E+03 8.61689E-01
 -1     10128 1.43304E+04-1.22548E+03 8.53157E-01
 -1     10129 1.63007E+04-1.78541E+02 9.90558E-01
 -1     10130 1.63399E+04 9.79279E+01 1.01010E+00
 -1     10131 1.63053E+04 2.67169E+01 1.00410E+00
 -1     10132 1.60077E+04-8.61022E+02 9.35784E-01
 -1     10133 1.51846E+04-1.33287E+03 8.76051E-01
 -1     10134 1.60820E+04-8.18136E+02 9.41221E-01
 -1     10135 1.51741E+04-1.33476E+03 8.75567E-01
 -1     10136 1.49767E+04 1.35608E+03 1.04427E+00
 -1     10137 1.50583E+04 1.38279E+03 1.04908E+00
 -1     10138 1.58569E+04-9.79303E+02 9.22785E-01
 -1     10139 1.59694E+04 9.50571E+02 1.05266E+00
 -1     10140 1.58272E+04 9.01163E+02 1.04460E+00
 -1     10141 1.36530E+04 1.46607E+02 9.19023E-01
 -1     10142 1.36530E+04 1.46632E+02 9.18360E-01
 -1     10143 1.37373E+04-4.21947E+02 8.84890E-01
 -1     10144 1.37374E+04-4.21972E+02 8.84162E-01
 -1     10145 1.42300E+04 1.02563E+03 9.95843E-01
 -1     10146 1.41592E+04 1.09752E+03 9.98983E-01
 -1     10147 1.42127E+04 1.07637E+03 9.99032E-01
 -1     10148 1.38923E+04 7.59861E+02 9.67350E-01
 -1     10149 1.60781E+04 7.33922E+02 1.04247E+00
 -1     10150 1.60316E+04 8.00137E+02 1.04511E+00
 -1     10151 1.60389E+04 8.74152E+02 1.05013E+00
 -1     10152 1.59444E+04 7.83994E+02 1.04115E+00
 -1     10153 1.60855E+04 8.07937E+02 1.04743E+00
 -1     10154 1.63397E+04-1.31258E+02 9.95083E-01
 -1     10155 1.41262E+04 9.01217E+02 9.84255E-01
 -1     10156 1.40712E+04 1.02982E+03 9.91530E-01
 -1     10157 1.40002E+04 9.65520E+02 9.84771E-01
 -1     10158 1.41263E+04 9.01192E+02 9.84817E-01
 -1     10159 1.40003E+04 9.65495E+02 9.83784E-01
 -1     10160 1.40712E+04 1.02979E+03 9.90431E-01
 -1     10161 1.40713E+04-1.06177E+03 8.54005E-01
 -1     10162 1.41264E+04-9.33145E+02 8.65397E-01
 -1     10163 1.40004E+04-9.97461E+02 8.55797E-01
 -1     10164 1.48150E+04-1.41033E+03 8.58435E-01
 -1     10165 1.48210E+04-1.28021E+03 8.66195E-01
 -1     10166 1.40092E+04-8.15970E+02 8.68895E-01
 -1     10167 1.40835E+04-8.58863E+02 8.68727E-01
 -1     10168 1.40091E+04 7.84071E+02 9.72764E-01
 -1     10169 1.40834E+04 8.26953E+02 9.78039E-01
 -1     10170 1.38924E+04-7.91753E+02 8.65952E-01
 -1     10171 1.48951E+04 1.38276E+03 1.04271E+00
 -1     10172 1.55423E+04 1.22789E+03 1.05574E+00
 -1     10173 1.37074E+04 9.11900E+02 9.71324E-01
 -1     10174 1.37074E+04 9.11890E+02 9.69594E-01
 -1     10175 1.57134E+04 1.09345E+03 1.05304E+00
 -1     10176 1.56705E+04 1.16773E+03 1.05638E+00
 -1     10177 1.57600E+04 1.10511E+03 1.05543E+00
 -1     10178 1.42215E+04-1.11388E+03 8.56443E-01
 -1     10179 1.58878E+04 9.19447E+02 1.04785E+00
 -1     10180 1.58701E+04 8.26885E+02 1.04130E+00
 -1     10181 1.46161E+04-1.27082E+03 8.60116E-01
 -1     10182 1.59621E+04 8.76556E+02 1.04765E+00
 -1     10183 1.63006E+04-1.78516E+02 9.90749E-01
 -1     10184 1.54188E+04-1.24088E+03 8.90260E-01
 -1     10185 1.55046E+04-1.24088E+03 8.93300E-01
 -1     10186 1.51328E+04-1.28024E+03 8.77958E-01
 -1     10187 1.48210E+04-1.28024E+03 8.67203E-01
 -1     10188 1.44162E+04-1.22548E+03 8.56011E-01
 -1     10189 1.44162E+04-1.22548E+03 8.55965E-01
 -1     10190 1.60445E+04 7.83299E+02 1.04444E+00
 -1     10191 1.55847E+04 1.16773E+03 1.05332E+00
 -1     10192 1.55860E+04 1.23471E+03 1.05786E+00
 -1     10193 1.46683E+04-1.16774E+03 8.68654E-01
 -1     10194 1.45303E+04-1.27081E+03 8.57077E-01
 -1     10195 1.58140E+04-1.05357E+03 9.16428E-01
 -1     10196 1.62275E+04 3.57753E+02 1.02323E+00
 -1     10197 1.59702E+04 8.26190E+02 1.04459E+00
 -1     10198 1.60445E+04 7.83294E+02 1.04441E+00
 -1     10199 1.42643E+04-1.18816E+03 8.53171E-01
 -1     10200 1.34544E+04 7.99608E+02 9.54610E-01
 -1     10201-1.27075E+00-1.52937E+00-4.45818E-01
 -1     10202-1.57614E+00-1.72077E+00-5.21382E-01
 -1     10203 1.48364E+04 1.34249E+03 1.03840E+00
 -1     10204 1.34542E+04 7.99577E+02 9.53652E-01
 -1     10205 1.61644E+04-6.17366E+02 9.57132E-01
 -1     10206 1.61644E+04-7.03141E+02 9.51627E-01
 -1     10207 1.44023E+04 1.18648E+03 1.01275E+00
 -1     10208-1.56784E+00-1.73087E+00 5.12182E-01
 -1     10209 1.63482E+04-4.75581E+01 1.00090E+00
 -1     10210 1.63007E+04 1.46431E+02 1.01177E+00
 -1     10211 1.40003E+04-9.97436E+02 8.56674E-01
 -1     10212 1.40713E+04-1.06175E+03 8.55082E-01
 -1     10213 1.41264E+04-9.33119E+02 8.64377E-01
 -1     10214 1.60874E+04-8.11818E+02 9.41808E-01
 -1     10215 1.57712E+04-1.12784E+03 9.10060E-01
 -1     10216 1.55903E+04-1.24088E+03 8.96335E-01
 -1     10217 1.56682E+04-1.20110E+03 9.01650E-01
 -1     10218 1.49768E+04 1.35606E+03 1.04409E+00
 -1     10219 1.50795E+04-1.34460E+03 8.71555E-01
 -1     10220 1.48951E+04 1.38279E+03 1.04339E+00
 -1     10221 1.55519E+04-1.25643E+03 8.93940E-01
 -1     10222 1.59444E+04-8.16010E+02 9.36762E-01
 -1     10223 1.58200E+04-8.59165E+02 9.29559E-01
 -1     10224 1.59445E+04 7.83969E+02 1.04075E+00
 -1     10225 1.58199E+04 8.27128E+02 1.03921E+00
 -1     10226 1.41336E+04 8.27197E+02 9.80214E-01
 -1     10227 1.40091E+04 7.84046E+02 9.72768E-01
 -1     10228 1.41337E+04-8.59107E+02 8.69365E-01
 -1     10229 1.40092E+04-8.15944E+02 8.67897E-01
 -1     10230 1.44023E+04 1.18645E+03 1.01299E+00
 -1     10231 1.36530E+04-1.78350E+02 8.97421E-01
 -1     10232 1.36530E+04-1.78376E+02 8.97421E-01
 -1     10233 1.48532E+04-1.37752E+03 8.61418E-01
 -1     10234 1.50544E+04-1.41475E+03 8.65867E-01
 -1     10235 1.50471E+04-1.34515E+03 8.70483E-01
 -1     10236 1.51032E+04-1.34329E+03 8.72471E-01
 -1     10237 1.61542E+04-6.34471E+02 9.55846E-01
 -1     10238 1.63006E+04 1.46456E+02 1.01195E+00
 -1     10239 1.42561E+04-1.18286E+03 8.52934E-01
 -1     10240 1.62155E+04-5.09889E+02 9.65947E-01
 -1     10241 1.56822E+04 1.16065E+03 1.05629E+00
 -1     10242 1.48966E+04-1.38363E+03 8.62689E-01
 -1     10243 1.42552E+04 1.15036E+03 1.00511E+00
 -1     10244 1.42123E+04 1.07610E+03 9.98936E-01
 -1     10245 1.61644E+04-7.03136E+02 9.51616E-01
 -1     10246 1.62100E+04-6.09683E+02 9.59304E-01
 -1     10247 1.62920E+04 2.00368E+02 1.01512E+00
 -1     10248-7.28547E-01-8.19157E-01-4.63360E-02
 -1     10249-7.09559E-01-8.18249E-01-1.29789E-01
 -1     10250 1.42556E+04 1.15063E+03 1.00558E+00
 -1     10251 1.55825E+04-1.20110E+03 8.98638E-01
 -1     10252 1.57276E+04-1.16216E+03 9.06288E-01
 -1     10253 1.63059E+04 6.96251E+01 1.00703E+00
 -1     10254 1.63488E+04-4.64961E+00 1.00369E+00
 -1     10255-1.31616E-01 1.16251E+00 1.35331E-01
 -1     10256-1.52281E-01 1.17754E+00 4.52404E-02
 -1     10257 1.48870E+04-1.34499E+03 8.64806E-01
 -1     10258 1.61542E+04-7.20251E+02 9.50119E-01
 -1     10259 1.61213E+04-7.69029E+02 9.45790E-01
 -1     10260 1.61213E+04-7.69034E+02 9.45794E-01
 -1     10261 1.49767E+04 1.35608E+03 1.04428E+00
 -1     10262 1.43165E+04 1.18647E+03 1.01006E+00
 -1     10263 1.48985E+04-1.34515E+03 8.65269E-01
 -1     10264 1.48912E+04-1.41475E+03 8.60050E-01
 -1     10265 1.49728E+04-1.38805E+03 8.64913E-01
 -1     10266 1.50998E+04-1.37765E+03 8.70127E-01
 -1     10267 1.43165E+04 1.18645E+03 1.00963E+00
 -1     10268 1.63349E+04 1.26093E+02 1.01173E+00
 -1     10269 1.61872E+04 6.28563E+02 1.03936E+00
 -1     10270 1.55964E+04 1.16065E+03 1.05330E+00
 -1     10271 1.38851E+04-8.65772E+02 8.60668E-01
 -1     10272 1.38850E+04 8.33837E+02 9.71352E-01
 -1     10273 1.38849E+04 8.33862E+02 9.71891E-01
 -1     10274 1.37749E+04 8.93492E+02 9.71155E-01
 -1     10275 1.55980E+04 1.20544E+03 1.05628E+00
 -1     10276 1.55980E+04 1.20544E+03 1.05626E+00
 -1     10277 1.56908E+04-1.18724E+03 9.03336E-01
 -1     10278 8.63877E+03 1.15747E+02 6.87885E-01
 -1     10279 1.62155E+04 4.77795E+02 1.03044E+00
 -1     10280 1.51104E+04-1.37577E+03 8.70625E-01
 -1     10281 1.55046E+04-1.24087E+03 8.93302E-01
 -1     10282 1.63022E+04 1.32451E+02 1.01108E+00
 -1     10283 1.61541E+04-7.20246E+02 9.50131E-01
 -1     10284 1.38850E+04-8.65747E+02 8.60867E-01
 -1     10285 1.56807E+04 1.09985E+03 1.05228E+00
 -1     10286 1.43782E+04-1.24718E+03 8.53042E-01
 -1     10287 1.61448E+04 7.03059E+02 1.04274E+00
 -1     10288 1.61448E+04 7.03053E+02 1.04272E+00
 -1     10289 1.61448E+04 6.17271E+02 1.03702E+00
 -1     10290 1.56370E+04-1.21844E+03 8.99452E-01
 -1     10291 1.55512E+04-1.21843E+03 8.96415E-01
 -1     10292 1.51206E+04 1.34180E+03 1.04831E+00
 -1     10293 1.61059E+04 7.57242E+02 1.04490E+00
 -1     10294 1.50053E+04-1.38749E+03 8.66230E-01
 -1     10295 1.50289E+04-1.38618E+03 8.67173E-01
 -1     10296 1.63487E+04-3.02296E+01 1.00198E+00
 -1     10297 1.63058E+04-1.04499E+02 9.95752E-01
 -1     10298 1.62117E+04 5.73403E+02 1.03664E+00
 -1     10299 1.61644E+04-7.03147E+02 9.51636E-01
 -1     10300 1.59868E+04 8.51804E+02 1.04685E+00
 -1     10301 1.60592E+04-7.94744E+02 9.42017E-01
 -1     10302 1.61524E+04 6.05244E+02 1.03672E+00
 -1     10303 1.61524E+04 6.91027E+02 1.04221E+00
 -1     10304 1.63488E+04-4.64442E+00 1.00370E+00
 -1     10305 1.63059E+04-7.89183E+01 9.97331E-01
 -1     10306 1.49728E+04-1.38804E+03 8.64921E-01
 -1     10307 1.62155E+04 4.77820E+02 1.03059E+00
 -1     10308 1.55763E+04-1.24686E+03 8.95409E-01
 -1     10309 1.42561E+04-1.18287E+03 8.52912E-01
 -1     10310 1.37374E+04 5.61700E+02 9.48721E-01
 -1     10311 1.37373E+04 5.61725E+02 9.48657E-01
 -1     10312 1.62117E+04 5.73397E+02 1.03665E+00
 -1     10313 1.61524E+04 6.91032E+02 1.04222E+00
 -1     10314 1.56822E+04 1.16065E+03 1.05627E+00
 -1     10315 1.55059E+04-1.30784E+03 8.89072E-01
 -1     10316 1.49613E+04-1.38788E+03 8.64619E-01
 -1     10317 1.61188E+04 7.40404E+02 1.04426E+00
 -1     10318 1.56909E+04-1.18725E+03 9.03321E-01
 -1     10319 1.55763E+04-1.24686E+03 8.95386E-01
 -1     10320 1.49613E+04-1.38788E+03 8.64597E-01
 -1     10321 1.43304E+04-1.22547E+03 8.53209E-01
 -1     10322 1.42552E+04 1.15036E+03 1.00507E+00
 -1     10323 8.63875E+03 1.15757E+02 7.92014E-01
 -1     10324 1.50355E+04-1.34499E+03 8.70021E-01
 -1     10325 1.50795E+04-1.34460E+03 8.71573E-01
 -1     10326 1.60799E+04-7.63137E+02 9.44801E-01
 -1     10327 1.61188E+04 7.40409E+02 1.04426E+00
 -1     10328 1.63451E+04 5.81766E+01 1.00764E+00
 -1     10329 1.42556E+04 1.15064E+03 1.00563E+00
 -1     10330 1.37381E+04 4.77934E+02 9.43043E-01
 -1     10331 1.37381E+04 4.77959E+02 9.43477E-01
 -1     10332 1.37381E+04-5.09769E+02 8.78657E-01
 -1     10333 1.37381E+04-5.09744E+02 8.78990E-01
 -1     10334 1.44149E+04-1.29245E+03 8.52085E-01
 -1     10335 1.48966E+04-1.38362E+03 8.62732E-01
 -1     10336 1.60593E+04-7.94769E+02 9.41841E-01
 -1     10337 1.42300E+04 1.02561E+03 9.96797E-01
 -1     10338 1.37373E+04-5.93533E+02 8.73276E-01
 -1     10339 1.37374E+04-5.93558E+02 8.73379E-01
 -1     10340 1.61872E+04 6.28558E+02 1.03936E+00
 -1     10341 1.56705E+04 1.16773E+03 1.05640E+00
 -1     10342 1.50289E+04-1.38618E+03 8.67200E-01
 -1     10343 1.57276E+04-1.16215E+03 9.06302E-01
 -1     10344 1.60778E+04 8.19958E+02 1.04808E+00
 -1     10345 1.60705E+04 7.45949E+02 1.04285E+00
 -1     10346 1.57236E+04-1.05759E+03 9.13073E-01
 -1     10347 1.36100E+04 7.16535E+01 9.11385E-01
 -1     10348 1.36100E+04-1.03364E+02 9.00309E-01
 -1     10349 1.36100E+04 7.16286E+01 9.13171E-01
 -1     10350 1.36100E+04-1.03389E+02 9.01253E-01
 -1     10351 1.38181E+04 7.16956E+02 9.61429E-01
 -1     10352 1.38180E+04 7.16981E+02 9.61855E-01
 -1     10353 1.63487E+04-3.02249E+01 1.00198E+00
 -1     10354 1.38181E+04-7.48835E+02 8.65923E-01
 -1     10355 1.38181E+04-7.48860E+02 8.66149E-01
 -1     10356 1.10394E+04-4.88588E+02 8.39694E-01
 -1     10357 1.63451E+04 5.81812E+01 1.00763E+00
 -1     10358 1.60593E+04 7.62700E+02 1.04354E+00
 -1     10359 1.10394E+04-4.88579E+02 7.29426E-01
 -1     10360 1.10750E+04-3.30748E+02 7.57279E-01
 -1     10361 1.38944E+04-7.94674E+02 8.65558E-01
 -1     10362 1.38944E+04-7.94699E+02 8.65910E-01
 -1     10363 1.38943E+04 7.62807E+02 9.67530E-01
 -1     10364 1.38943E+04 7.62782E+02 9.67116E-01
 -1     10365 1.41040E+04 1.08991E+03 9.95281E-01
 -1     10366 1.19318E+01-2.28193E+01-8.03669E-01
 -1     10367 1.29475E+01 1.01317E+01-6.28357E-01
 -1     10368 1.23040E+01 8.62441E+00-6.82372E-01
 -1     10369 2.18667E+01-3.35771E+01 8.99905E-01
 -1     10370 2.79249E+02-1.29778E+02 3.05442E-01
 -1     10371 1.31056E+01-2.28201E+01-4.77328E-01
 -1     10372 1.79992E+01-2.59780E+01 1.45609E+00
 -1     10373 1.11355E+04-1.48150E+02 8.10661E-01
 -1     10374 1.40664E+01-3.86604E+01 1.36218E-02
 -1     10375 3.10449E+01 2.80264E+01 2.15078E-01
 -1     10376 4.59430E+01-5.71552E+01 3.57005E+00
 -1     10377 4.60395E+01-5.70717E+01-2.68579E+00
 -1     10378 1.40197E+01 3.13702E+00-4.00673E-02
 -1     10379-3.52150E+00-5.90129E+00 2.88742E-01
 -1     10380-1.84923E+00-2.59990E+00 2.73741E-01
 -1     10381 1.36743E+04 8.48870E+02 9.64474E-01
 -1     10382 1.36743E+04 8.48880E+02 9.65886E-01
 -1     10383 1.61336E+04-7.51879E+02 9.47367E-01
 -1     10384 1.11945E+04-1.96720E+02 7.83665E-01
 -1     10385 2.88449E+01-6.24743E+00 3.76045E-01
 -1     10386 3.14072E+01-1.84932E+00 5.21336E-01
 -3
    1PSTEP                         2           1           1          
  100CL  101 1.000000000       10386                     0    1           1
 -4  STRESS      6    1
 -5  SXX         1    4    1    1
 -5  SYY         1    4    2    2
 -5  SZZ         1    4    3    3
 -5  SXY         1    4    1    2
 -5  SYZ         1    4    2    3
 -5  SZX         1    4    3    1
 -1         1-1.20341E+04-2.53805E+06 1.18964E+03 6.34567E+04 5.04965E+03 2.98491E+03
 -1         2-1.06364E+04-2.53886E+06 2.46369E+03 6.34489E+04-5.34595E+03-3.81431E+03
 -1         3 1.61169E+01 5.74213E+02-5.99409E+00-3.50075E+01 1.27352E+01 1.46908E+01
 -1         4 7.96039E+00 5.75921E+02-1.36873E+01-3.14899E+01-1.57975E+01-1.42493E+01
 -1         5-3.03726E+05-3.61674E+05-2.00024E+04 3.08590E+05-1.01209E+05 8.10929E+04
 -1         6-3.04504E+05-3.61323E+05-2.06365E+04 3.07592E+05 1.02198E+05-8.16799E+04
 -1         7 1.57487E+02 1.77265E+02 3.32641E+01 1.38841E+02-1.89363E+01 3.27802E+00
 -1         8 1.44569E+02 1.78444E+02 3.33106E+01 1.34926E+02 1.97491E+01-5.86800E+00
 -1         9 3.07495E+05 3.70242E+05 2.78774E+04 2.99660E+05 1.23248E+05 1.04048E+05
 -1        10 1.50331E+02 1.89186E+02 3.98271E+01-1.48058E+02-1.41564E+01-1.25114E+01
 -1        11-5.33048E+03-1.71238E+03 1.03549E+02-1.90763E+03 6.54615E+02-1.47023E+02
 -1        12-7.10207E+03 2.57177E+06 5.06905E+02 4.71949E+04-1.10225E+04-2.35045E+03
 -1        13 2.98994E+05 3.71280E+05 1.94805E+04 2.98076E+05-1.06847E+05-8.41924E+04
 -1        14 1.50754E+02 1.88663E+02 3.85629E+01-1.49320E+02 1.67129E+01 1.10319E+01
 -1        15-5.50237E+03-1.63433E+03 9.97790E+01-1.86376E+03-6.75254E+02 1.56958E+02
 -1        16-7.33696E+03 2.57283E+06 1.25889E+03 4.68155E+04 1.13567E+04 2.79521E+03
 -1        17 1.48489E+05 1.59115E+05 8.16420E+04-1.26588E+05 1.71180E+04-3.84553E+04
 -1        18 1.50836E+05 1.58994E+05 7.88559E+04-1.25879E+05-1.80381E+04 3.80907E+04
 -1        19-2.50329E+05-3.72609E+04-7.32617E+04-4.71967E+04-6.21291E+03 3.91018E+04
 -1        20-2.49512E+05-3.55547E+04-7.54832E+04-4.81000E+04 6.59381E+03-3.87149E+04
 -1        21-8.89857E+00 2.80103E+02 1.47108E+01 1.45855E+01-4.96171E+00-5.08392E+00
 -1        22-9.84017E+00 2.73743E+02 9.56425E+00 1.04148E+01 6.07607E+00 7.26997E+00
 -1        23-1.01653E+05 6.15005E+05 1.51498E+05 1.91547E+05 1.11458E+05 5.57049E+04
 -1        24-8.42876E+04 6.43283E+05 1.68204E+05 1.91830E+05-1.13923E+05-4.99534E+04
 -1        25 3.69937E+05-6.45832E+05-8.24893E+04-1.71781E+05-1.72229E+05 4.66863E+04
 -1        26 3.02359E+05-6.80061E+05-8.78898E+04-1.48663E+05 1.45216E+05-1.46764E+04
 -1        27 2.06220E+01 1.78436E+01-4.29566E+00-1.96693E+01 5.01402E+00-1.66922E+00
 -1        28 1.30096E+02 5.10445E+01 1.60230E+01-5.09412E+01-1.97518E+00-5.05951E+00
 -1        29 2.97311E+01-5.68733E+00 1.38338E+00-1.89575E+01 6.08207E+00-4.38676E+00
 -1        30 3.33406E+00-4.35238E+01 5.89065E+00 8.64664E+00 3.94442E+00-5.85361E+00
 -1        31-4.02764E+01-1.64640E+02-2.16340E+01-3.06493E+01 1.04920E+01 6.54328E+00
 -1        32-9.61496E+00-1.27606E+02 1.94100E+01-4.88396E+01 5.74113E+00-6.24993E+00
 -1        33-1.61464E+02-2.95943E+02-4.58173E+01-1.43041E+02 3.15785E+00 1.25358E+01
 -1        34-9.53966E+01-9.88545E+01 2.07568E+01-9.82475E+01 3.97595E+00-1.24552E+01
 -1        35-3.20839E+00-1.44216E+02-2.82925E+01-9.91644E+01-2.23125E+01-2.69797E+01
 -1        36 2.53738E+02-3.44675E+00 6.86332E-02 3.38481E+01-1.70179E+01-3.29015E+01
 -1        37 7.15956E+02 1.63899E+02 1.02353E+02-8.73885E+01 1.74196E+01-2.22368E+01
 -1        38 5.92206E+02 3.33747E+01 9.62676E+00-1.24872E+02-2.26112E+01 2.97223E+01
 -1        39 2.17886E+02-1.46079E+02-1.03280E+01 9.88352E+01-3.32746E+01 2.52316E+01
 -1        40-1.09905E+02-1.07474E+02 1.78161E+01 1.10545E+02 1.97318E-01 1.54387E+01
 -1        41-1.71796E+02-3.09594E+02-4.09491E+01 1.51940E+02-1.48111E+01-9.01987E+00
 -1        42-1.27504E+01-1.41316E+02 2.02070E+01 5.53493E+01 7.36813E+00 6.30762E+00
 -1        43-5.12629E+01-2.37416E+02-2.56747E+01 2.78768E+01 1.04735E+01-3.87850E+00
 -1        44 9.17430E-01-5.82101E+01 5.39881E+00-1.32931E+01 4.37814E+00 5.48802E+00
 -1        45 1.82570E+01-3.49933E+01-6.75145E-01 9.76557E+00 8.96206E+00 3.53082E+00
 -1        46 1.29343E+01 1.31343E+01-2.83451E+00 1.35602E+01 3.93488E+00 1.93642E+00
 -1        47 1.17508E+02 3.77174E+01 1.30024E+01 4.09049E+01-7.37968E-01 7.02883E+00
 -1        48 1.00794E+02-1.40635E+00-6.70938E+00 2.50641E+01 5.51109E+00 1.11536E+00
 -1        49 1.81991E+02 3.88763E+01 2.11574E+01-1.48207E+00-7.08595E+00-2.24071E-01
 -1        50 1.04305E+02-2.87475E-01-6.59510E+00-2.91620E+01 5.42744E+00 2.26194E-01
 -1        51-4.50300E+01-2.17089E+02-3.12357E+01 3.08050E+01-9.61016E+00 3.93724E+00
 -1        52-1.31842E+01-1.41480E+02 2.01396E+01 5.47058E+01-7.19445E+00-6.15120E+00
 -1        53 1.08738E+00-5.83735E+01 5.88606E+00-1.23841E+01-5.74162E+00-5.85177E+00
 -1        54 2.11700E+01-3.23064E+01 4.64421E-01 1.04277E+01-7.24380E+00-3.81520E+00
 -1        55 1.46747E+01 1.22393E+01-3.72940E+00 1.39522E+01-5.11506E+00-2.39781E+00
 -1        56 1.13493E+02 3.50615E+01 1.60714E+01 3.46046E+01 1.29932E+00-3.97761E+00
 -1        57 1.06118E+02-4.56500E-01-7.02656E+00 2.72836E+01-6.43813E+00-7.10344E-01
 -1        58 2.08610E+02 3.60539E+01 2.42320E+01-2.90656E+00 4.83477E+00-8.70195E-01
 -1        59 1.05493E+02-7.26933E-01-7.28386E+00-2.73348E+01-4.91605E+00 5.87480E-01
 -1        60 1.23730E+02 4.23021E+01 1.21381E+01-4.61079E+01 1.20587E+00 4.27122E+00
 -1        61 1.79271E+01 1.78565E+01-3.59322E+00-1.82639E+01-4.34117E+00 1.62321E+00
 -1        62 2.63362E+01-1.23035E+01 2.33020E+00-1.95452E+01-7.53598E+00 4.24323E+00
 -1        63 3.51952E+00-4.36023E+01 6.87324E+00 1.04161E+01-3.27831E+00 5.82576E+00
 -1        64-3.54006E+01-1.85866E+02-2.35453E+01-3.23301E+01-1.16500E+01-5.02442E+00
 -1        65-1.01173E+01-1.27692E+02 1.87583E+01-5.05236E+01-7.16959E+00 5.41428E+00
 -1        66-1.64914E+02-2.70181E+02-4.39219E+01-1.30419E+02 3.03218E+00-1.30097E+01
 -1        67-9.50347E+01-9.37298E+01 1.81869E+01-9.67465E+01-5.15761E+00 9.73417E+00
 -1        68-2.01167E+00-1.44426E+02-2.84793E+01-9.92032E+01 2.23090E+01 2.71109E+01
 -1        69 2.55922E+02-3.43520E+00-1.28925E-01 3.38724E+01 1.68485E+01 3.35784E+01
 -1        70 7.10449E+02 1.66115E+02 1.04487E+02-8.95757E+01-1.59584E+01 1.61183E+01
 -1        71 5.98621E+02 3.19214E+01 1.02735E+01-1.25190E+02 2.31357E+01-2.94642E+01
 -1        72 2.16486E+02-1.49294E+02-1.13882E+01 1.02206E+02 3.37245E+01-2.65263E+01
 -1        73-1.10057E+02-1.11935E+02 2.21506E+01 1.12702E+02-7.84188E-01-1.82036E+01
 -1        74-1.73781E+02-3.10347E+02-4.16017E+01 1.53320E+02 1.57211E+01 8.89121E+00
 -1        75-1.58107E+04-2.56146E+06-7.95930E+03 6.15641E+04 1.01242E+03 4.16119E+02
 -1        76-1.01757E+04-2.54062E+06 2.02362E+01 6.36184E+04 7.68800E+03 1.72521E+03
 -1        77-9.83872E+03-2.54182E+06 1.03359E+03 6.33274E+04-7.32605E+03-1.95664E+03
 -1        78 2.63538E+03-2.34054E+06 1.55438E+03 3.38277E+03-7.98600E+02-1.20956E+03
 -1        79 6.62851E+01-2.23944E+06-5.65721E+02 1.07340E+03-3.15807E+02 5.17311E+02
 -1        80 1.70426E+02-2.14349E+06 1.05256E+02 1.79992E+03-9.00208E+02-2.75652E+02
 -1        81 3.47189E+01-2.04703E+06-1.54527E+01 2.05307E+03-8.19537E+02-1.88270E+02
 -1        82 1.28013E+02-1.94916E+06 3.06819E+01 4.21949E+03-7.47356E+02-1.80165E+01
 -1        83 8.17700E+01-1.85349E+06 2.20200E+02 1.78634E+03-7.97294E+02-4.15467E+01
 -1        84 7.58637E+01-1.76273E+06-1.59337E+02 1.46819E+03-9.32901E+02 2.26803E+02
 -1        85-2.39286E+02-1.67303E+06-3.42212E+02 2.10365E+03-1.06562E+03 4.73329E+02
 -1        86 4.41212E+01-1.58644E+06-5.31730E+00 2.28286E+03-8.22786E+02 2.83383E+02
 -1        87-1.90087E+02-1.50140E+06-5.06708E+01 1.53178E+03-8.69549E+02 3.34246E+02
 -1        88 3.35531E+02-1.41907E+06 2.11270E+02 1.70196E+03-7.11103E+02-2.30954E+02
 -1        89 1.01095E+02-1.33899E+06-5.96760E+01 1.93240E+03-7.48837E+02 1.07792E+02
 -1        90-1.26029E+02-1.26132E+06 6.26682E+01 1.46034E+03-7.51191E+02 1.42419E+02
 -1        91 3.21891E+02-1.18606E+06 1.98424E+02 1.54595E+03-5.01795E+02-1.24361E+02
 -1        92-1.27118E+02-1.11279E+06-3.13482E+02 1.78319E+03-6.94488E+02 3.41051E+02
 -1        93 1.99652E+02-1.04209E+06 3.69419E+02 1.40614E+03-9.06876E+02-3.43562E+02
 -1        94 1.36103E+02-9.73872E+05-7.90086E+01 1.43682E+03-4.32859E+02-7.19721E+01
 -1        95 7.98107E+01-9.07587E+05-5.62425E+01 1.70264E+03-6.19803E+02 1.57408E+02
 -1        96-1.24905E+02-8.43745E+05-7.47260E+01 1.17194E+03-6.73869E+02 2.96036E+02
 -1        97 2.73187E+02-7.82284E+05 2.17923E+02 1.30561E+03-5.27525E+02-2.49310E+02
 -1        98 5.85628E+01-7.23137E+05-8.41312E+01 1.51399E+03-5.43017E+02 1.29186E+02
 -1        99-1.32306E+02-6.66150E+05 2.28465E+01 9.76173E+02-5.38368E+02 1.17719E+02
 -1       100 2.45924E+02-6.11782E+05 1.55904E+02 1.18840E+03-3.98984E+02-1.24330E+02
 -1       101 1.28332E+01-5.59526E+05-1.36944E+02 1.30964E+03-4.82555E+02 2.27329E+02
 -1       102-8.28947E+01-5.09509E+05-3.56467E+01 9.94564E+02-5.83023E+02 8.62559E+01
 -1       103 2.19839E+02-4.62125E+05 1.36976E+02 9.47312E+02-2.91012E+02-1.33111E+02
 -1       104-1.96876E+01-4.16962E+05-1.81276E+02 1.12469E+03-4.59353E+02 2.56099E+02
 -1       105-1.46054E+02-3.73878E+05-6.48119E+01 7.52776E+02-4.21826E+02 1.15032E+02
 -1       106 2.12436E+02-3.33321E+05 1.58475E+02 8.51847E+02-2.78790E+02-1.70332E+02
 -1       107 9.00508E+01-2.95005E+05-6.93203E+01 9.54308E+02-3.33596E+02 1.40193E+02
 -1       108-1.86561E+01-2.59133E+05-3.75732E+00 6.74853E+02-3.96030E+02 1.04369E+02
 -1       109-8.21681E+01-2.25315E+05-9.81301E+01 7.57330E+02-4.76868E+02 1.23303E+02
 -1       110 1.92941E+02-1.94415E+05 2.46575E+01 1.52605E+03 1.69008E+00-2.68162E+01
 -1       111 1.67793E+02-1.65142E+05 1.78473E+02 5.46567E+02-3.38269E+02-1.68873E+02
 -1       112-6.42218E+01-1.38254E+05-1.19586E+02 6.00056E+02-2.81917E+02 1.08729E+02
 -1       113 6.02673E+01-1.14104E+05-8.12662E+00 6.53504E+02-2.65298E+02 6.15572E+01
 -1       114-4.26197E+01-9.20685E+04-1.08059E+01 4.13478E+02-2.21421E+02 9.00605E+01
 -1       115 6.08307E+01-7.24093E+04 9.17425E+00 4.22545E+02-1.72533E+02-1.81992E+01
 -1       116 1.48232E+02-5.49616E+04 5.10687E+01 3.69498E+02-1.22655E+02-9.37188E+01
 -1       117 4.97144E+01-3.98417E+04 5.37465E+01 2.41635E+02-1.36873E+02-6.40294E+01
 -1       118 1.89076E+01-2.71224E+04-3.18820E+01 2.57279E+02-8.87037E+01-1.90202E+01
 -1       119 1.52165E+02-1.68584E+04 4.78514E+01 1.92723E+02-3.92354E+01-4.85566E+01
 -1       120 2.07711E+00-8.83795E+03-2.35829E+01 9.94672E+01-6.92850E+01-3.51015E-01
 -1       121 4.30585E+01-3.47938E+03 1.64549E+01 1.00079E+02-1.03312E+01-2.21272E+01
 -1       122 8.09578E+01-5.11447E+02 1.26998E+01-6.33182E+01 1.88870E+00-3.57824E+00
 -1       123-7.96685E+03-2.43315E+06-1.61971E+03 2.85832E+04-3.78462E+03-1.36899E+03
 -1       124-1.06800E+03-2.28756E+06 1.64680E+02 2.24905E+03-5.49849E+02-5.28141E+02
 -1       125 7.96332E+01-2.19155E+06-7.11999E+01 1.60672E+03-8.78325E+02 4.45353E+01
 -1       126 4.51551E+02-2.09473E+06 2.28911E+02 2.53752E+03-9.35900E+02-3.24887E+02
 -1       127-6.35351E+01-1.99677E+06 2.18194E+02 2.81468E+03-1.27344E+03-4.32640E+02
 -1       128 8.72378E+01-1.90228E+06-1.90236E+02 2.77280E+03-1.25400E+03 3.46935E+02
 -1       129 2.76167E+01-1.80827E+06-6.72300E+01 1.84404E+03-9.37413E+02 1.68439E+02
 -1       130-1.63562E+02-1.71771E+06-1.67753E+02 2.13596E+03-1.11473E+03 4.21305E+02
 -1       131 1.39971E+02-1.62959E+06 6.17973E+01 2.82468E+03-1.07175E+03 5.07874E+02
 -1       132 1.72208E+02-1.54365E+06 9.07511E+01 2.46321E+03-9.84725E+02 2.67408E+02
 -1       133 5.35708E+01-1.46004E+06 1.30510E+02 1.47621E+03-1.00806E+03-7.22194E+01
 -1       134 6.96247E+02-1.37855E+06 3.07373E+02 2.22737E+03-8.51885E+02 1.56371E+02
 -1       135 7.80209E+01-1.30014E+06 9.57847E+01 2.18908E+03-9.25863E+02 1.27826E+02
 -1       136-5.64239E+01-1.22353E+06 1.10646E+02 1.37163E+03-8.41650E+02-1.02837E+02
 -1       137 6.17664E+02-1.14887E+06 1.21368E+02 1.96500E+03-6.54675E+02 2.25602E+02
 -1       138 9.48918E+01-1.07730E+06 2.89027E+01 2.38457E+03-7.82754E+02-3.76168E+01
 -1       139 2.46282E+01-1.00774E+06 1.43643E+02 1.37703E+03-8.42931E+02-3.58003E+02
 -1       140 3.92604E+02-9.40248E+05 1.68764E+02 1.85802E+03-7.00971E+02 2.27446E+02
 -1       141 2.13425E+02-8.75405E+05 5.60588E+01 1.83571E+03-7.81047E+02 1.63110E+02
 -1       142 6.15985E+00-8.12843E+05 9.37334E+01 1.33186E+03-6.88740E+02-6.34958E+01
 -1       143 4.27152E+02-7.52345E+05 2.32707E+02 1.67757E+03-6.16237E+02 1.20776E+02
 -1       144 2.32098E+02-6.94448E+05 1.26448E+02 1.65043E+03-6.76918E+02 1.12024E+02
 -1       145-1.79020E+02-6.38920E+05 4.99008E+01 9.83413E+02-6.16837E+02-8.68417E+01
 -1       146 5.05832E+02-5.85180E+05 1.55810E+02 1.45328E+03-4.90812E+02 1.37671E+02
 -1       147-6.76510E+01-5.34426E+05-5.95959E+01 1.58958E+03-5.56061E+02 1.34620E+02
 -1       148 3.40126E+01-4.85682E+05 5.03369E+01 8.95276E+02-5.89042E+02-1.24990E+02
 -1       149 5.13724E+02-4.39111E+05 1.35849E+02 1.19606E+03-4.13202E+02 1.77754E+02
 -1       150-1.46108E+02-3.95337E+05-9.30467E+01 1.36208E+03-4.86649E+02 1.65229E+02
 -1       151-6.11085E+01-3.53540E+05 9.95135E+00 7.27145E+02-4.71065E+02-1.18973E+02
 -1       152 4.57837E+02-3.13780E+05 1.57757E+02 1.02694E+03-3.54551E+02 9.15093E+01
 -1       153 7.88712E+01-2.76874E+05 4.08082E+01 1.12118E+03-3.98752E+02 1.02943E+02
 -1       154-2.20601E+01-2.42065E+05-1.56275E+00 7.47234E+02-4.53751E+02 1.31991E+02
 -1       155 2.78071E+02-2.09174E+05 1.90672E+02 1.25972E+03-4.51793E+02-1.83672E+02
 -1       156 1.08067E+01-1.79969E+05-6.83215E+01 1.20405E+03-2.85876E+02 2.07622E+01
 -1       157-5.71399E+01-1.51504E+05-8.51551E+00 6.04619E+02-3.52688E+02-3.87912E+01
 -1       158 1.48576E+02-1.26027E+05 4.82816E+01 8.10878E+02-2.98876E+02 1.16906E+02
 -1       159 1.18907E+02-1.02924E+05 5.49762E+01 6.90158E+02-2.91005E+02 3.75724E+01
 -1       160-4.20816E+01-8.20093E+04 3.15551E+01 4.21666E+02-2.20965E+02-3.18755E+01
 -1       161 2.55564E+02-6.34177E+04 9.36653E+01 4.80638E+02-1.54099E+02-7.90443E+01
 -1       162 1.12765E+02-4.71965E+04 3.79103E+01 4.21122E+02-1.57276E+02-9.03526E+01
 -1       163-1.43607E+01-3.32324E+04 3.36594E+01 2.32978E+02-1.84764E+02-1.08510E+02
 -1       164 1.82632E+02-2.17672E+04 5.79869E+01 2.38147E+02-9.78588E+01-4.79017E+01
 -1       165 1.60234E+02-1.25797E+04 3.69539E+01 2.20865E+02-7.93697E+01-4.20236E+00
 -1       166-4.28728E+01-5.99388E+03 1.04614E+01 1.02948E+02-5.83806E+01-6.77777E+01
 -1       167 1.93936E+02-1.76624E+03 5.63025E+01 1.63492E+00-3.58345E+00 1.67120E+01
 -1       168 7.13111E+01 1.91391E+02 3.12037E+01-2.81687E+01 1.29676E+01-5.11787E+00
 -1       169 9.30684E+01 5.57216E+02 3.92634E+01-4.32020E+00-2.53105E-01-1.74868E+00
 -1       170 3.30390E-01 5.82148E+02 2.18512E+01-2.36464E+01-2.04226E+01 2.92133E+00
 -1       171 5.52934E+00 5.85985E+02 1.74878E+01-1.80067E+01 2.49626E+01-4.40991E+00
 -1       172 1.86378E+03-2.33899E+06 1.26834E+03 3.03211E+03 9.74883E+02 4.87131E+02
 -1       173 1.44726E+02-2.23910E+06-3.09286E+02 1.08663E+03 4.48471E+02-2.42373E+02
 -1       174 9.95753E+01-2.14356E+06-1.46371E+01 1.79744E+03 9.13594E+02 1.18229E+02
 -1       175 1.00276E+02-2.04693E+06-4.26184E+01 2.24390E+03 9.07236E+02 9.31677E+01
 -1       176 2.72645E+02-1.94911E+06 9.96675E+01 4.18737E+03 6.45946E+02 1.94050E+01
 -1       177-1.52882E+02-1.85349E+06-5.28571E+01 1.79057E+03 7.91879E+02-1.83162E+02
 -1       178-1.93017E+02-1.76247E+06-1.22695E+02 1.48345E+03 9.52881E+02-1.81498E+02
 -1       179 4.86779E+02-1.67368E+06 4.07914E+02 2.01018E+03 6.00765E+02 2.27261E+02
 -1       180-1.44891E+02-1.58596E+06-2.76638E+02 2.25284E+03 8.69776E+02-4.42314E+02
 -1       181-2.27938E+02-1.50152E+06-6.32043E+01 1.64409E+03 9.22342E+02-2.65410E+02
 -1       182 3.74716E+02-1.41918E+06 3.23263E+02 1.63875E+03 5.93920E+02 2.95079E+02
 -1       183-5.33276E+01-1.33893E+06-2.55053E+02 2.04669E+03 7.04117E+02-3.48472E+02
 -1       184-2.55264E+02-1.26132E+06-1.27559E+02 1.50230E+03 8.28374E+02-3.43256E+02
 -1       185 3.63591E+02-1.18608E+06 2.72455E+02 1.56819E+03 6.11460E+02 2.86042E+02
 -1       186 4.15573E+00-1.11291E+06-2.11914E+02 1.87575E+03 7.65911E+02-1.45001E+02
 -1       187 1.74133E+02-1.04228E+06 2.20410E+02 1.37470E+03 9.35846E+02 1.78494E+02
 -1       188 3.36067E+02-9.73539E+05 2.98164E+02 1.50702E+03 4.54870E+02 3.47476E+02
 -1       189-2.31316E+01-9.07437E+05-1.85303E+02 1.65851E+03 5.78406E+02-2.82285E+02
 -1       190-1.93865E+02-8.43707E+05-2.03571E+01 1.24342E+03 6.67845E+02-1.28907E+02
 -1       191 3.27644E+02-7.82317E+05 2.09712E+02 1.32134E+03 4.35204E+02 1.52142E+02
 -1       192 5.70318E+01-7.23057E+05-1.45474E+02 1.49068E+03 5.27863E+02-2.50288E+02
 -1       193-1.69138E+02-6.66243E+05-8.48218E+01 1.09850E+03 6.12441E+02-2.27531E+02
 -1       194 2.50845E+02-6.11760E+05 1.94411E+02 1.14556E+03 4.53449E+02 2.17695E+02
 -1       195-2.51638E+01-5.59569E+05-1.46934E+02 1.26488E+03 4.85001E+02-1.42856E+02
 -1       196 1.79612E+02-5.09922E+05 2.19582E+02 9.31095E+02 6.35378E+02 1.12667E+02
 -1       197 1.75628E+02-4.62015E+05 1.14795E+02 9.54160E+02 3.46423E+02 1.62796E+02
 -1       198 7.59116E+01-4.16726E+05-6.40373E+01 1.11864E+03 4.30294E+02-4.89992E+01
 -1       199 2.37240E+02-3.74067E+05 2.39288E+02 7.19428E+02 5.04987E+02 1.71862E+02
 -1       200 9.28194E+01-3.33272E+05 6.47562E+01 8.80465E+02 3.54717E+02 1.21687E+02
 -1       201 2.48669E+01-2.95077E+05-5.51469E+01 9.66206E+02 3.54041E+02-9.61631E+01
 -1       202-7.66343E+01-2.59075E+05-1.30161E+01 6.23722E+02 3.53455E+02-1.41983E+02
 -1       203 7.84718E+01-2.25591E+05 2.50755E+00 6.59351E+02 2.75153E+02 1.77281E+01
 -1       204 2.04484E+02-1.94336E+05 5.42789E+00 1.51677E+03-2.16991E+01 2.30982E+01
 -1       205 9.88464E+01-1.65046E+05 8.54977E+01 5.48364E+02 3.33761E+02 1.10617E+02
 -1       206 1.46015E+02-1.38436E+05 1.05917E+02 5.92657E+02 1.83319E+02 1.15308E+02
 -1       207 7.95106E+01-1.14072E+05-3.76450E+01 6.28568E+02 2.30848E+02-9.40577E+01
 -1       208 2.05151E+00-9.20595E+04-7.50999E+00 4.34020E+02 2.40330E+02-7.16369E+01
 -1       209-1.20337E+01-7.22505E+04-5.24489E+01 4.85254E+02 2.91929E+02-5.49673E+01
 -1       210 1.32696E+02-5.49667E+04 5.86609E+01 4.06921E+02 1.63522E+02 6.80773E+01
 -1       211 5.78433E+01-3.99028E+04 3.51172E+01 2.39127E+02 1.49234E+02 4.07360E+01
 -1       212 3.49404E+01-2.71014E+04 8.65548E+00 2.37390E+02 8.49273E+01 5.13344E+01
 -1       213 1.18400E+02-1.68182E+04 3.38954E+01 2.09090E+02 7.47737E+01 3.27850E+01
 -1       214 6.51974E+01-8.94170E+03 3.19218E+01 5.61430E+01 3.06154E+01 1.19603E+01
 -1       215 4.81374E+01-3.47378E+03 1.94868E+01 9.66356E+01 1.82010E+01 2.60988E+01
 -1       216 6.78500E+01-4.73289E+02 1.94701E+01-6.51116E+01-1.69894E+00 1.43416E+01
 -1       217-7.96568E+03-2.43042E+06-1.25957E+03 2.75134E+04 4.70784E+03 6.17382E+02
 -1       218-9.02255E+02-2.28724E+06 1.45547E+01 2.26277E+03 6.73343E+02 2.63325E+02
 -1       219-2.66731E+00-2.19150E+06-5.43376E+01 1.45948E+03 9.93623E+02 7.17310E+00
 -1       220 2.16402E+02-2.09479E+06 2.05973E+01 2.43073E+03 1.03609E+03 2.06134E+02
 -1       221 5.08916E+02-1.99645E+06 3.89110E+02 2.91689E+03 1.22008E+03 4.62763E+02
 -1       222-1.74374E+02-1.90218E+06-3.55934E+02 2.79208E+03 1.09194E+03-4.15226E+02
 -1       223-2.28581E+02-1.80825E+06-5.92662E+01 2.04892E+03 9.82135E+02-2.99343E+02
 -1       224-1.91001E+02-1.71789E+06 1.46925E+02 1.79028E+03 1.01013E+03 1.28430E+02
 -1       225 1.05179E+03-1.62906E+06 4.94509E+02 2.53187E+03 7.65746E+02-3.53560E+02
 -1       226-3.22784E+02-1.54372E+06-6.81026E+01 2.62093E+03 1.00397E+03-3.04258E+02
 -1       227-2.10226E+02-1.46032E+06 7.67095E+01 1.46280E+03 1.00910E+03 3.16006E+01
 -1       228 6.34496E+02-1.37863E+06 2.28945E+02 2.20039E+03 7.04271E+02-1.87470E+02
 -1       229-3.77709E+01-1.29994E+06-2.25187E+01 2.40420E+03 9.01677E+02-2.96555E+02
 -1       230 6.17736E+00-1.22353E+06 1.26957E+02 1.54163E+03 8.43080E+02 4.26536E+01
 -1       231 5.42181E+02-1.14905E+06 2.88550E+02 2.10910E+03 7.47154E+02-1.51235E+02
 -1       232 2.33412E+02-1.07734E+06 6.62407E+01 2.21629E+03 1.03671E+03 3.72091E+01
 -1       233 5.60704E+01-1.00779E+06 5.25527E+01 1.56448E+03 8.37493E+02 4.95724E+02
 -1       234 7.03564E+02-9.39966E+05 2.99951E+02 1.81724E+03 6.08689E+02-1.25463E+02
 -1       235-3.52468E+01-8.75484E+05 6.23311E+01 1.99458E+03 7.13292E+02-2.21101E+02
 -1       236-9.65823E+01-8.12915E+05 8.97809E+01 1.12206E+03 7.41260E+02 6.95621E+01
 -1       237 6.03966E+02-7.52157E+05 1.95011E+02 1.63803E+03 5.39281E+02-1.49279E+02
 -1       238-9.83072E+00-6.94495E+05 7.85075E+00 1.79603E+03 6.46296E+02-2.02248E+02
 -1       239-9.44230E+00-6.38855E+05 8.62899E+01 1.14208E+03 6.21419E+02 4.73889E+01
 -1       240 3.91600E+02-5.85284E+05 1.96851E+02 1.44376E+03 5.26441E+02-1.00454E+02
 -1       241 1.83384E+02-5.34474E+05 1.16113E+02 1.54350E+03 6.55161E+02 4.24235E+01
 -1       242 1.83022E+02-4.85637E+05 2.02778E+02 9.96811E+02 5.90911E+02 2.37319E+02
 -1       243 3.91719E+02-4.39031E+05 1.93232E+02 1.26609E+03 4.56043E+02-9.25641E+01
 -1       244 3.26358E+02-3.95095E+05 1.75752E+02 1.30072E+03 5.44667E+02 1.60077E+02
 -1       245 6.13410E+01-3.53449E+05 1.01255E+02 8.85652E+02 5.27833E+02 2.13684E+02
 -1       246 2.98162E+02-3.13861E+05 1.50765E+02 1.09140E+03 4.00652E+02-9.34990E+01
 -1       247 1.32376E+02-2.76893E+05 8.55527E+01 1.04133E+03 4.42691E+02-9.14316E+01
 -1       248-2.48447E+01-2.42118E+05 5.32722E+01 6.19854E+02 3.67825E+02 9.02042E+00
 -1       249 4.75322E+02-2.09058E+05 2.51729E+02 1.13352E+03 3.38806E+02 1.30964E+02
 -1       250-1.00770E+01-1.79880E+05-1.12148E+02 1.20906E+03 3.12882E+02-9.18909E+00
 -1       251 2.85808E+01-1.51552E+05 5.09295E+01 5.69429E+02 3.46637E+02 1.99079E+02
 -1       252 4.03918E+02-1.25889E+05 1.69531E+02 6.99521E+02 2.28843E+02-1.07957E+02
 -1       253 1.39448E+02-1.02869E+05 6.12372E+01 7.09056E+02 2.53329E+02-6.07865E+01
 -1       254-2.52083E+00-8.19286E+04 2.23996E+01 5.18806E+02 2.35717E+02-7.85852E+01
 -1       255 1.27152E+02-6.34783E+04 5.49845E+01 5.51985E+02 2.67011E+02 8.29981E+01
 -1       256 1.13294E+02-4.72076E+04 2.71556E+01 4.26560E+02 2.03938E+02 8.08402E+01
 -1       257 4.52033E+01-3.32699E+04 3.84159E+01 2.48015E+02 1.78895E+02 1.08557E+02
 -1       258 1.86949E+02-2.17328E+04 7.12071E+01 2.28245E+02 1.16178E+02 5.67846E+01
 -1       259 1.63726E+02-1.26263E+04 6.16997E+01 1.81041E+02 8.87299E+01 4.27990E+01
 -1       260 5.95868E+01-5.94121E+03 6.49517E+01 8.56390E+01 6.94400E+01 3.87646E+01
 -1       261 1.91367E+02-1.75508E+03 6.42230E+01 2.00999E+01 5.30666E+00-1.64450E+01
 -1       262 2.52813E+01 1.81456E+02 9.30976E+00-3.79320E+01-1.22036E+01 1.24073E+01
 -1       263-3.10341E+05-1.06267E+06-1.17116E+04 5.79685E+05-5.15515E+04 2.26485E+04
 -1       264-2.37043E+05-1.53171E+06 9.82082E+03 5.99582E+05-5.91515E+03 5.45264E+03
 -1       265-1.38658E+05-2.12670E+06 2.49688E+03 5.21083E+05-6.04724E+03 4.18256E+03
 -1       266-5.08794E+04-2.57907E+06-1.06463E+03 3.17846E+05-1.88411E+03-1.13539E+03
 -1       267-2.79857E+05-8.30896E+05-2.11959E+04 4.80946E+05-6.58845E+04 3.20880E+04
 -1       268-2.62536E+05-1.27437E+06 4.32780E+03 6.03452E+05-2.74395E+04 1.90961E+04
 -1       269-2.01332E+05-1.84796E+06-5.75253E+03 5.80190E+05-1.54095E+04 1.84776E+03
 -1       270-8.50375E+04-2.39287E+06-1.70644E+03 4.37495E+05-1.01513E+04-3.49533E+03
 -1       271-2.68213E+04-2.63362E+06-5.03646E+03 1.81682E+05 6.41328E+03 3.96291E+02
 -1       272-3.43892E+05-5.50061E+05-8.73873E+03 4.04724E+05 1.54145E+01 9.86237E+01
 -1       273-3.39659E+05-5.06211E+05-1.51324E+04 3.81055E+05 5.53283E+04-4.48229E+04
 -1       274-3.39903E+05-5.05980E+05-1.48848E+04 3.81222E+05-5.49496E+04 4.48188E+04
 -1       275-3.14602E+05-1.06286E+06-1.00152E+04 5.84188E+05 5.22722E+04-2.30244E+04
 -1       276-2.28971E+05-1.52289E+06 1.33881E+04 5.99954E+05 7.30390E+03-8.71240E+03
 -1       277-1.33209E+05-2.12565E+06 8.07829E+03 5.23471E+05-1.78482E+02-5.95740E+03
 -1       278-5.42551E+04-2.58336E+06-2.65353E+03 3.09083E+05 9.46477E+03 5.21979E+02
 -1       279-2.85446E+05-8.35112E+05-2.18402E+04 4.81820E+05 6.79184E+04-3.33883E+04
 -1       280-2.57544E+05-1.26478E+06 1.06946E+04 6.00335E+05 3.13351E+04-1.91333E+04
 -1       281-1.90126E+05-1.83332E+06 1.53905E+03 5.85997E+05 1.06749E+04-8.21713E+03
 -1       282-8.66889E+04-2.40551E+06-1.74808E+03 4.33162E+05 4.15683E+03-5.90552E+03
 -1       283-2.41054E+04-2.62678E+06-4.53677E+03 1.76263E+05-1.44803E+02 1.97567E+03
 -1       284-1.33589E+00 4.69061E+02-2.67118E+00 2.23868E+01-3.58543E+01-6.33899E+00
 -1       285 3.06055E+01 2.42971E+02-5.28055E+00 9.03269E+01-6.52240E+00-3.91251E+00
 -1       286 2.38011E+01 5.79017E+02 1.24753E+01-1.15724E+01-2.84749E+01-5.70859E+00
 -1       287 1.59699E+01 3.16588E+02-4.68565E+00 7.14155E+01-2.78760E+01-7.64161E+00
 -1       288 2.89541E+01 2.79435E+02 5.18641E+00 1.04568E+02-5.54500E+00 4.48468E+00
 -1       289-1.82414E+00 4.72163E+02-2.10628E+00 2.28914E+01 3.47141E+01 6.11112E+00
 -1       290 3.04874E+01 2.41349E+02-5.85605E+00 8.98451E+01 6.25526E+00 3.79606E+00
 -1       291 2.32534E+01 5.76120E+02 1.18178E+01-6.51402E+00 2.65851E+01 7.85501E+00
 -1       292 1.57640E+01 3.17019E+02-4.76368E+00 7.13234E+01 2.74964E+01 7.63865E+00
 -1       293 2.94469E+01 2.76924E+02 4.09604E+00 1.04490E+02 4.27959E+00-5.20998E+00
 -1       294 1.33642E+02 2.20894E+02 5.19798E+01 1.46737E+02 2.05369E-01 2.27351E-02
 -1       295 1.73094E+02 2.28898E+02 5.68403E+01 1.60659E+02 1.42680E+01 6.83671E-01
 -1       296 1.70833E+02 2.25860E+02 5.55830E+01 1.63252E+02-1.54474E+01-1.26402E-01
 -1       297-2.09409E+05-8.25560E+05-7.49789E+04 3.11677E+05-1.84058E+05 8.74588E+04
 -1       298-1.86664E+05-9.04471E+05-1.44892E+05 1.27092E+05-2.37016E+05 8.16865E+04
 -1       299-1.46083E+05-6.72946E+05-1.61393E+05-4.85756E+04-1.72977E+05 9.99732E+03
 -1       300-6.85288E+04-2.43135E+05-6.03553E+04-1.56341E+05-6.57873E+04-3.76458E+04
 -1       301 3.78493E+04 2.22036E+05 5.29770E+04-1.38292E+05 5.79769E+04-4.47848E+04
 -1       302 1.26446E+05 6.57292E+05 1.66108E+05-5.48600E+04 1.61015E+05 8.17692E+03
 -1       303 1.75752E+05 8.69820E+05 1.86513E+05 1.34531E+05 2.37064E+05 6.64019E+04
 -1       304 2.53338E+05 8.65300E+05 1.25475E+05 3.33945E+05 2.28164E+05 1.34512E+05
 -1       305-3.18170E+05-5.84806E+05-8.27077E+04 3.32275E+05-1.76704E+05 1.24821E+05
 -1       306-2.28267E+05-9.47078E+05-1.39360E+05 2.29839E+05-2.13393E+05 8.22518E+04
 -1       307-1.83681E+05-7.84489E+05-1.80326E+05 4.80346E+04-2.16503E+05 5.23187E+04
 -1       308-1.36907E+05-4.62932E+05-1.28062E+05-1.05860E+05-1.37402E+05-1.00058E+03
 -1       309-2.03445E+04-1.28753E+04-2.40397E+03-1.54494E+05-2.90819E+03-3.69926E+04
 -1       310 1.08028E+05 4.63726E+05 1.27117E+05-9.67239E+04 1.01345E+05-1.14998E+04
 -1       311 1.82780E+05 8.24919E+05 2.17002E+05 6.19778E+04 2.03221E+05 3.38704E+04
 -1       312 3.01619E+05 9.62826E+05 2.89876E+05 2.45694E+05 3.20863E+05 1.55125E+05
 -1       313 3.22275E+05 6.67492E+05 9.36671E+04 3.44898E+05 1.87177E+05 1.29398E+05
 -1       314 7.73523E+01 8.36225E+01 4.19541E+01 2.03335E+01-2.10126E+01 2.74907E+01
 -1       315-4.04632E+01-1.26674E+02 2.62252E+00-1.33562E+02 1.89943E+01 2.84646E+01
 -1       316-4.92896E+02-4.04890E+01-3.39210E+01-9.70816E+01 1.11839E+01 2.58242E+00
 -1       317-7.97309E+02-1.25735E+01-6.65322E+01 5.74100E+01 2.68205E+01 2.30719E+01
 -1       318-2.23158E+02-3.66204E+02-7.67605E+01 1.21840E+02 8.74019E+01-2.56270E+01
 -1       319 1.53840E+02 1.40250E+02 1.28244E+02 1.07087E+02-6.82148E+01-9.75800E+01
 -1       320 8.16619E+01 1.58579E+02 3.54393E+01 7.85423E+01-2.52079E+01 6.86023E+00
 -1       321 6.70924E+01-3.52105E+00 5.24414E+01-8.11389E+01 5.41508E-01 7.17178E+01
 -1       322-2.22990E+02-1.17925E+02-1.96226E+00-9.46873E+01 3.18718E+01 1.50161E+00
 -1       323-7.10077E+02 3.13153E+01-4.25789E+01-1.04600E+01-3.30168E+00 4.24163E+01
 -1       324-5.43877E+02-3.06885E+02-8.94203E+01 2.30921E+01 6.72310E+01 1.84812E+01
 -1       325 5.13692E+01-1.22474E+02 5.56891E+01 2.06146E+02 4.08439E+01-1.42974E+02
 -1       326 1.12724E+02 2.10419E+02 8.15892E+01-4.96882E+01-4.40880E+01-3.01491E+01
 -1       327 3.38548E+01 1.82390E+02-3.64750E+01-8.07238E+01-4.49252E+01 1.52659E+01
 -1       328 3.85920E+02 1.48436E+03 5.93264E+00 4.37138E+02-2.37029E+02 2.48216E+01
 -1       329 6.54443E+00 2.69786E+02-1.62593E+01-1.13453E+02-1.61610E+00-3.92527E+00
 -1       330 3.08224E+01 7.82104E+02-2.99588E+01-9.93316E+01-1.62537E+02 4.19154E+01
 -1       331-6.40437E+02 1.56684E+03 4.08963E+02-5.17802E+02 1.42871E+02-2.76120E+02
 -1       332-1.03152E+04-2.78909E+03 4.69217E+00 3.79950E+02-2.18498E+02-1.50138E+01
 -1       333-1.00900E+04 1.72341E+03-1.58086E+00 2.65765E+02-1.21923E+02-2.76629E+01
 -1       334-1.00812E+04 8.37780E+03 2.92956E+00 2.63590E+02-4.94673E+01-6.72502E+00
 -1       335-1.00487E+04 1.70012E+04-2.15600E+01 1.33305E+02-7.16592E+01-1.86541E+00
 -1       336-1.00054E+04 2.76357E+04 3.80652E+01 2.75829E+02-1.69946E+02-6.28211E+01
 -1       337-1.00092E+04 4.07022E+04-2.48247E+01 2.79114E+02-1.53879E+02-3.53002E+01
 -1       338-1.00733E+04 5.61346E+04 2.02937E+01 4.68699E+02-1.97165E+02-8.25008E+01
 -1       339-9.99233E+03 7.36530E+04 5.52672E+01 5.31328E+02-2.18323E+02-5.23398E+01
 -1       340-1.01223E+04 9.40844E+04-1.36801E+02 3.90261E+02-2.27473E+02 1.04339E+02
 -1       341-1.00304E+04 1.16501E+05 6.61456E+01 6.16578E+02-2.50109E+02-4.55306E+01
 -1       342-1.01514E+04 1.41378E+05-1.05338E+02 5.85268E+02-2.08734E+02 1.12195E+02
 -1       343-9.95078E+03 1.68570E+05 3.59791E+01 5.73392E+02-3.29600E+02-1.17742E+02
 -1       344-1.00859E+04 1.98074E+05 4.96002E+01 8.29556E+02-2.88988E+02-1.06422E+02
 -1       345-1.01489E+04 2.30167E+05-7.02147E+01 7.56611E+02-1.60005E+02 1.33687E+02
 -1       346-1.01364E+04 2.64586E+05-1.79354E+02 7.00190E+02-4.53907E+02 1.59601E+02
 -1       347-9.93602E+03 3.01152E+05 9.42565E+01 1.01074E+03-4.28512E+02-1.87619E+02
 -1       348-1.00809E+04 3.40123E+05-3.28297E+00 1.02126E+03-4.85233E+02-1.34074E+02
 -1       349-9.96242E+03 3.81694E+05-2.39801E+01 8.86709E+02-4.47840E+02-1.57467E+02
 -1       350-1.00127E+04 4.25522E+05 5.58837E+01 1.14179E+03-4.21419E+02-1.45543E+02
 -1       351-1.01386E+04 4.71866E+05-3.63619E+01 1.03439E+03-3.38161E+02 1.12071E+02
 -1       352-1.01959E+04 5.20306E+05-2.69131E+02 9.74597E+02-6.61261E+02 2.15810E+02
 -1       353-9.90334E+03 5.70910E+05 2.00538E+02 1.27272E+03-5.12867E+02-2.22777E+02
 -1       354-1.02677E+04 6.24586E+05-2.12977E+02 1.14011E+03-3.68421E+02 1.38339E+02
 -1       355-9.91044E+03 6.80053E+05 2.99860E+01 8.27901E+02-6.04140E+02-1.65132E+02
 -1       356-9.96208E+03 7.38007E+05 4.82373E+01 1.25562E+03-5.18956E+02-9.07808E+01
 -1       357-1.02459E+04 7.98479E+05-1.38415E+02 1.26476E+03-5.34877E+02 1.67410E+02
 -1       358-9.83896E+03 8.61082E+05 1.08181E+02 9.59000E+02-6.81075E+02-1.60239E+02
 -1       359-9.82281E+03 9.26300E+05 2.27725E+02 1.42783E+03-4.60921E+02-2.71080E+02
 -1       360-1.02951E+04 9.93967E+05-1.96077E+02 1.42167E+03-5.80787E+02 2.60337E+02
 -1       361-9.88917E+03 1.06381E+06 1.92587E+02 1.03410E+03-7.60101E+02-3.20647E+02
 -1       362-9.92964E+03 1.13555E+06 2.56686E+01 1.59610E+03-5.57952E+02-3.31120E+01
 -1       363-1.03444E+04 1.21043E+06-2.99256E+02 1.50965E+03-5.95059E+02 3.53633E+02
 -1       364-9.85413E+03 1.28722E+06 5.06230E+01 1.28337E+03-9.55147E+02-1.16552E+02
 -1       365-9.69755E+03 1.36642E+06 2.41083E+02 1.76869E+03-6.03397E+02-2.93594E+02
 -1       366-1.04234E+04 1.44848E+06-3.43007E+02 1.58087E+03-6.02889E+02 3.79103E+02
 -1       367-9.97259E+03 1.53249E+06 2.51376E+02 1.27324E+03-8.96159E+02-2.69905E+02
 -1       368-9.98752E+03 1.61765E+06-1.20775E+02 1.63140E+03-6.14731E+02-6.44210E+01
 -1       369-1.03128E+04 1.70731E+06-1.28319E+02 3.73152E+03-6.21265E+02 6.01750E+01
 -1       370-1.02236E+04 1.79929E+06-3.55424E+01 2.43354E+03-8.70684E+02 2.51426E+02
 -1       371-1.03140E+04 1.89196E+06-2.40627E+02 2.50897E+03-1.11571E+03 2.63403E+02
 -1       372-9.93516E+03 1.98634E+06 2.12866E+02 2.55828E+03-1.07410E+03-1.95028E+02
 -1       373-1.00548E+04 2.08334E+06 2.40077E+01 2.26662E+03-8.54963E+02-2.88061E+02
 -1       374-1.08873E+04 2.18720E+06 3.14285E+02 3.19363E+03-3.46883E+02-6.97416E+01
 -1       375-1.60502E+04 2.30948E+06-9.18663E+02-9.36205E+02 2.61796E+02 9.20557E+02
 -1       376-9.19066E+03-3.71474E+03-1.75163E+02-3.51688E+02 3.34993E+01 1.85320E+02
 -1       377-1.01546E+04-6.64350E+02-5.26400E+01 3.13714E+02-1.52975E+02 7.01127E-01
 -1       378-1.01266E+04 4.86070E+03-3.39539E+01 3.03542E+02-7.79939E+01-4.58598E+01
 -1       379-1.00682E+04 1.23694E+04-3.68786E+01 1.31847E+02-1.27763E+02 2.85724E+01
 -1       380-1.00752E+04 2.21531E+04-5.65681E+01 2.83275E+02-1.36409E+02 4.54990E+01
 -1       381-1.00493E+04 3.39319E+04-4.08598E+01 2.86080E+02-1.46255E+02-4.58999E+01
 -1       382-1.00979E+04 4.82569E+04-4.91681E+01 5.23189E+02-1.92953E+02-4.69096E+01
 -1       383-1.02416E+04 6.46641E+04-8.62600E+01 5.98459E+02-2.12059E+02-7.31337E+01
 -1       384-9.96253E+03 8.36827E+04 2.00074E+01 5.11920E+02-2.24279E+02 2.89697E+01
 -1       385-1.01069E+04 1.05155E+05-4.25159E+01 7.18305E+02-2.66092E+02 9.53237E+01
 -1       386-1.02993E+04 1.28633E+05-1.24789E+02 7.11725E+02-2.42411E+02-5.27959E+01
 -1       387-1.00009E+04 1.54792E+05-7.35922E+01 5.98793E+02-3.17615E+02 5.53370E+01
 -1       388-1.00967E+04 1.83136E+05-3.66557E+01 9.53112E+02-3.37643E+02-7.17445E+01
 -1       389-1.04457E+04 2.13710E+05-1.73234E+02 8.97943E+02-2.78856E+02-8.04444E+01
 -1       390-9.95567E+03 2.47230E+05-8.00900E+01 7.43366E+02-4.09530E+02 2.26593E+02
 -1       391-1.01072E+04 2.82719E+05-5.08911E+01 1.22722E+03-4.17206E+02 5.61362E+01
 -1       392-1.03523E+04 3.20355E+05-1.75110E+02 1.32352E+03-4.66069E+02-1.70212E+02
 -1       393-9.98535E+03 3.60679E+05-6.07546E+01 9.74598E+02-4.84906E+02-2.27717E+02
 -1       394-1.01516E+04 4.03487E+05-1.08545E+02 1.27724E+03-5.33493E+02-1.29227E+02
 -1       395-1.04251E+04 4.48236E+05-2.68665E+02 1.31750E+03-4.49911E+02-1.78120E+02
 -1       396-1.00434E+04 4.95830E+05-1.55509E+02 1.00564E+03-6.42257E+02 2.72948E+02
 -1       397-1.00899E+04 5.45453E+05-4.24645E+01 1.64318E+03-5.90395E+02 4.89447E+01
 -1       398-1.06322E+04 5.97272E+05-2.53187E+02 1.50400E+03-4.51169E+02-1.98130E+02
 -1       399-9.80844E+03 6.52201E+05-7.56825E+01 9.71155E+02-6.11776E+02 8.53828E+01
 -1       400-1.00465E+04 7.08988E+05-4.17356E+01 1.31114E+03-6.99103E+02-1.15285E+02
 -1       401-1.03283E+04 7.67969E+05-1.33333E+02 1.61687E+03-6.58290E+02-6.56918E+01
 -1       402-9.95386E+03 8.29630E+05-3.04557E+01 1.05878E+03-7.54202E+02 1.04792E+02
 -1       403-1.00043E+04 8.93602E+05 2.39560E+01 1.61520E+03-6.74439E+02-2.16121E+02
 -1       404-1.02796E+04 9.59964E+05-3.48122E+01 1.81323E+03-6.21846E+02-9.89432E+01
 -1       405-9.78199E+03 1.02882E+06 3.95972E+01 1.37242E+03-7.78842E+02 3.62382E+01
 -1       406-1.00336E+04 1.09961E+06 6.03262E+01 1.52368E+03-8.07989E+02-1.27421E+02
 -1       407-1.03599E+04 1.17295E+06-1.93960E+02 1.98431E+03-7.33360E+02 1.00787E+02
 -1       408-9.54726E+03 1.24894E+06 3.22097E+01 1.41896E+03-9.57572E+02 1.66523E+02
 -1       409-9.85442E+03 1.32696E+06 6.91897E+01 1.91628E+03-8.77691E+02-1.95527E+02
 -1       410-1.03292E+04 1.40746E+06-1.12532E+02 2.17224E+03-7.63989E+02-4.14522E+01
 -1       411-9.79680E+03 1.49047E+06 6.92667E+01 1.70087E+03-9.43076E+02 1.56514E+02
 -1       412-9.88756E+03 1.57531E+06 2.19979E+02 1.52019E+03-8.34872E+02-1.76209E+02
 -1       413-9.64177E+03 1.66384E+06 4.26435E+02 2.13173E+03-1.05988E+03-2.95928E+02
 -1       414-1.05526E+04 1.75258E+06-2.86745E+02 3.19364E+03-1.00106E+03 4.94079E+02
 -1       415-1.02521E+04 1.84515E+06 1.31397E+02 2.83697E+03-1.01461E+03 5.61741E+02
 -1       416-1.01390E+04 1.93905E+06 1.42396E+01 3.08321E+03-1.26519E+03 1.09016E+02
 -1       417-1.01486E+04 2.03505E+06-2.50770E+02 2.84724E+03-9.29880E+02-4.91333E+02
 -1       418-1.01118E+04 2.13509E+06 1.32094E+02 3.18999E+03-7.66713E+02-5.36288E+02
 -1       419-1.31332E+04 2.24003E+06-1.54695E+03-8.89370E+02-1.01662E+03 1.29415E+02
 -1       420-1.32836E+04 2.39991E+06-3.41250E+03 1.68000E+04-4.17777E+03 1.50808E+03
 -1       421 6.01882E+04 2.67723E+06 7.43858E+03 2.92855E+05 1.38860E+03-4.89472E+03
 -1       422 1.16851E+05 2.44417E+06-2.49293E+02 5.21821E+05 1.37128E+04 3.44364E+03
 -1       423 2.11572E+05 1.94251E+06-4.62795E+03 6.26283E+05 6.47462E+03 4.85689E+03
 -1       424 2.99715E+05 1.38362E+06-2.63527E+03 6.49254E+05 2.10066E+04 9.71143E+03
 -1       425 3.66782E+05 9.84427E+05 3.39848E+03 5.97409E+05 5.29685E+04 2.68911E+04
 -1       426 1.98939E+04 2.69876E+06 8.14996E+03 1.66034E+05-8.18100E+03-9.09196E+03
 -1       427 9.39063E+04 2.60482E+06 1.36805E+04 4.09208E+05 1.23325E+04-8.50159E+03
 -1       428 1.67586E+05 2.21520E+06 2.27323E+03 5.81339E+05 7.91314E+03 1.18154E+04
 -1       429 2.65863E+05 1.66178E+06 1.55782E+03 6.50513E+05 1.71583E+04 4.62298E+03
 -1       430 3.25571E+05 1.16931E+06-3.36006E+03 6.29020E+05 3.99908E+04 2.40447E+04
 -1       431 2.44298E+05 8.13405E+05-3.15528E+03 4.93897E+05 6.03372E+04 2.67774E+04
 -1       432-2.13504E+05-8.18371E+05-7.49287E+04 3.05730E+05 1.86160E+05-9.19370E+04
 -1       433-1.80868E+05-9.32982E+05-1.38263E+05 1.36042E+05 2.34061E+05-8.56071E+04
 -1       434-1.74726E+05-6.94035E+05-1.77616E+05-5.57008E+04 2.01103E+05-1.06252E+04
 -1       435-8.38466E+04-2.44341E+05-6.21154E+04-1.35602E+05 7.94249E+04 5.44641E+04
 -1       436 3.13079E+04 2.23801E+05 4.37900E+04-1.54507E+05-5.88132E+04 4.76977E+04
 -1       437 1.45447E+05 6.66706E+05 1.65310E+05-4.90009E+04-1.95435E+05-1.40146E+04
 -1       438 1.93890E+05 8.99450E+05 1.91111E+05 1.35248E+05-2.58973E+05-8.84727E+04
 -1       439 2.56071E+05 8.60856E+05 1.20539E+05 3.41836E+05-2.19652E+05-1.28605E+05
 -1       440-3.15059E+05-5.84414E+05-8.25607E+04 3.31508E+05 1.76866E+05-1.24646E+05
 -1       441-2.28760E+05-9.51170E+05-1.26938E+05 2.39244E+05 2.17074E+05-9.11036E+04
 -1       442-1.90241E+05-7.90810E+05-1.81465E+05 3.37761E+04 2.28868E+05-5.92375E+04
 -1       443-1.45176E+05-4.71069E+05-1.22866E+05-1.14133E+05 1.45379E+05 1.98880E+04
 -1       444-1.77385E+04-1.21558E+04-4.76314E+03-1.58049E+05 2.15210E+04 5.58434E+04
 -1       445 1.13744E+05 4.80472E+05 1.29254E+05-9.38894E+04-1.26023E+05 1.59841E+04
 -1       446 1.92641E+05 8.28370E+05 2.03692E+05 5.34800E+04-2.31732E+05-5.32851E+04
 -1       447 2.71902E+05 9.45775E+05 2.73374E+05 2.44131E+05-3.12956E+05-1.57824E+05
 -1       448 3.40318E+05 6.32630E+05 1.12169E+05 3.34274E+05-1.98962E+05-1.38667E+05
 -1       449 8.16220E+01 8.43103E+01 4.47324E+01 1.81221E+01 2.36350E+01-2.89289E+01
 -1       450-4.19391E+01-1.23959E+02 3.55017E+00-1.33328E+02-1.86651E+01-3.00707E+01
 -1       451-4.99078E+02-5.01179E+01-4.88251E+01-9.25058E+01-1.00967E+01 7.94210E-01
 -1       452-8.31159E+02-5.50254E+00-5.39397E+01 2.76837E+01-2.78464E+01-2.49174E+01
 -1       453-2.21908E+02-3.67338E+02-6.90290E+01 1.18992E+02-9.12913E+01 2.55432E+01
 -1       454 1.46324E+02 1.30431E+02 1.15891E+02 9.97567E+01 6.23442E+01 8.88086E+01
 -1       455 8.37413E+01 1.58205E+02 3.67178E+01 7.79207E+01 2.55524E+01-7.95905E+00
 -1       456 6.74503E+01-4.17273E+00 5.30852E+01-8.14905E+01-9.36285E-01-7.16103E+01
 -1       457-2.27080E+02-1.21603E+02-3.90569E+00-1.00851E+02-2.92455E+01-2.15690E+00
 -1       458-6.99880E+02 4.39714E+01-4.28446E+01-7.36842E+00 1.75628E+01-4.07897E+01
 -1       459-5.59602E+02-3.13715E+02-9.34541E+01 7.51273E+00-7.59762E+01-1.18065E+01
 -1       460 5.13948E+01-1.20334E+02 6.21061E+01 2.05959E+02-4.03082E+01 1.41404E+02
 -1       461 1.10782E+02 2.08939E+02 7.84705E+01-5.21545E+01 4.20341E+01 2.75549E+01
 -1       462 3.61703E+01 1.95877E+02-3.38024E+01-8.27102E+01 4.27783E+01-1.41122E+01
 -1       463 3.88217E+02 1.46138E+03 7.73602E-01 4.34649E+02 2.42480E+02-2.44868E+01
 -1       464 4.26375E+00 2.69822E+02-1.77145E+01-1.13358E+02 1.86567E+00 5.08953E+00
 -1       465 3.52480E+01 7.85769E+02-2.86883E+01-1.01592E+02 1.60567E+02-4.25855E+01
 -1       466-7.21487E+02 1.57509E+03 3.98433E+02-4.70484E+02-1.43190E+02 2.66406E+02
 -1       467-1.03177E+04-2.86693E+03 3.85743E+00 4.14235E+02 2.30308E+02 2.42420E+01
 -1       468-1.01043E+04 1.70389E+03-1.70359E+01 2.52053E+02 1.01993E+02 1.12074E+01
 -1       469-1.00788E+04 8.39230E+03 6.72156E+00 2.70284E+02 4.85992E+01 1.15877E+01
 -1       470-1.00782E+04 1.69813E+04-4.12424E+01 1.39699E+02 5.56969E+01-3.20392E+01
 -1       471-1.00246E+04 2.76446E+04 1.09703E+00 3.00377E+02 1.77184E+02 4.31206E+01
 -1       472-1.00111E+04 4.06950E+04 9.78685E+00 2.79182E+02 1.73492E+02 7.92018E+01
 -1       473-1.00965E+04 5.60972E+04-7.31233E+00 4.37752E+02 1.56813E+02 3.35475E+01
 -1       474-1.01058E+04 7.39335E+04-5.50355E+01 4.57992E+02 1.37021E+02-6.58268E+01
 -1       475-1.00995E+04 9.39919E+04-7.89630E+01 4.13350E+02 2.66652E+02-6.38405E+01
 -1       476-1.00680E+04 1.16451E+05 7.54061E+01 6.15369E+02 2.36231E+02 8.04395E+01
 -1       477-1.01529E+04 1.41335E+05-7.52021E+01 6.14224E+02 1.95279E+02-6.09280E+01
 -1       478-9.92069E+03 1.68587E+05 8.83317E+00 5.30121E+02 2.93310E+02 9.34665E+01
 -1       479-1.00767E+04 1.98249E+05 2.63617E+01 8.19577E+02 3.07575E+02 8.25232E+01
 -1       480-1.01109E+04 2.30144E+05-3.19486E+01 7.33869E+02 2.51346E+02-7.46860E+01
 -1       481-1.01160E+04 2.64550E+05-1.33680E+02 7.14022E+02 4.64768E+02-8.90268E+01
 -1       482-1.00280E+04 3.01241E+05 7.24688E+01 1.00760E+03 4.49040E+02 1.11101E+02
 -1       483-9.98369E+03 3.40204E+05 1.04269E+02 9.55409E+02 5.16356E+02 2.14157E+02
 -1       484-1.00567E+04 3.81697E+05-7.09505E+01 9.62712E+02 4.62386E+02 1.30080E+02
 -1       485-1.00619E+04 4.25463E+05 3.87176E+01 1.24341E+03 4.62843E+02 1.96952E+02
 -1       486-9.89846E+03 4.71195E+05 1.00808E+02 1.10157E+03 5.64674E+02 1.18869E+02
 -1       487-1.02224E+04 5.20495E+05-2.48208E+02 9.00301E+02 6.10774E+02-1.72453E+02
 -1       488-1.00183E+04 5.71221E+05 1.01088E+02 1.36487E+03 5.88857E+02 1.17702E+02
 -1       489-9.93313E+03 6.24184E+05 1.66454E+02 1.18920E+03 6.63816E+02 2.28599E+02
 -1       490-9.99996E+03 6.80141E+05 5.15084E+01 1.00025E+03 7.13321E+02 1.61912E+02
 -1       491-9.86664E+03 7.37909E+05 1.58170E+02 1.23262E+03 4.18895E+02 2.28864E+02
 -1       492-1.02692E+04 7.98545E+05-2.04485E+02 1.30505E+03 4.58856E+02-2.33893E+02
 -1       493-9.91071E+03 8.61277E+05 1.18427E+01 8.88420E+02 6.70369E+02 1.23609E+02
 -1       494-1.00401E+04 9.25962E+05-1.36517E+01 1.46087E+03 6.10173E+02-4.07538E+01
 -1       495-1.02930E+04 9.93844E+05-2.05731E+02 1.34170E+03 5.23573E+02-2.06894E+02
 -1       496-9.82476E+03 1.06350E+06 1.99523E+01 1.11623E+03 8.06193E+02 6.18118E+01
 -1       497-9.82345E+03 1.13568E+06 1.87346E+02 1.56730E+03 5.62305E+02 2.61280E+02
 -1       498-1.02761E+04 1.21057E+06-1.50474E+02 1.51338E+03 6.09330E+02-1.73164E+02
 -1       499-9.89642E+03 1.28761E+06 1.73927E+02 1.10450E+03 7.99016E+02 2.59518E+02
 -1       500-9.97324E+03 1.36638E+06-1.62596E+01 1.76088E+03 6.52132E+02 3.85480E+01
 -1       501-1.03592E+04 1.44849E+06-1.64733E+02 1.49649E+03 5.67881E+02-1.55736E+02
 -1       502-9.92402E+03 1.53212E+06 1.93947E+01 1.38925E+03 9.47980E+02-2.31365E+01
 -1       503-1.00115E+04 1.61786E+06-2.31612E+01 1.58548E+03 6.70052E+02 1.61589E+02
 -1       504-1.04665E+04 1.70710E+06-2.05112E+02 3.64842E+03 5.38916E+02-5.05296E+01
 -1       505-1.00571E+04 1.79952E+06 1.82175E+02 2.34109E+03 7.42932E+02-8.62670E+01
 -1       506-1.02479E+04 1.89215E+06-2.67445E+02 2.33878E+03 9.09456E+02-3.70109E+02
 -1       507-9.78757E+03 1.98662E+06 2.98707E+02 2.44489E+03 9.73714E+02 5.12519E+02
 -1       508-1.02960E+04 2.08304E+06-1.50048E+02 2.32756E+03 8.53580E+02 1.11369E+02
 -1       509-1.14169E+04 2.18785E+06 1.21170E+02 3.21549E+03 3.52438E+02 1.25823E+02
 -1       510-1.59629E+04 2.30847E+06-1.19263E+03-4.96403E+02 7.38735E+01-7.98964E+02
 -1       511-9.34858E+03-3.82633E+03-2.72395E+02-3.51164E+02-7.46528E+01-1.71698E+02
 -1       512-1.01666E+04-6.83293E+02-4.69917E+01 3.15361E+02 1.59057E+02-4.03677E+00
 -1       513-1.00756E+04 4.87057E+03-1.37910E+01 3.03427E+02 6.63496E+01 4.77664E+01
 -1       514-1.01147E+04 1.23761E+04-5.90298E+01 1.30476E+02 1.09167E+02-2.55059E+01
 -1       515-1.01393E+04 2.21494E+04-9.11856E+01 3.10978E+02 1.20329E+02-7.40885E+01
 -1       516-1.00636E+04 3.39041E+04-5.95746E+01 3.29119E+02 1.55692E+02 5.82205E+01
 -1       517-1.01735E+04 4.81766E+04-6.75150E+01 4.69125E+02 1.89378E+02 3.34601E+01
 -1       518-1.02698E+04 6.46778E+04-1.46262E+02 5.16299E+02 1.62862E+02 7.86389E+01
 -1       519-1.01042E+04 8.37323E+04-5.78452E+01 4.72342E+02 2.62221E+02-1.38145E+02
 -1       520-1.01423E+04 1.05047E+05-3.86768E+01 7.42961E+02 2.75872E+02-4.50791E+01
 -1       521-1.03511E+04 1.28527E+05-1.08441E+02 7.07957E+02 2.19362E+02 7.32966E+01
 -1       522-9.93963E+03 1.54801E+05-4.62432E+01 5.13136E+02 3.16533E+02-5.18422E+01
 -1       523-1.01617E+04 1.83250E+05-9.43294E+01 9.08865E+02 3.64881E+02 7.58820E+01
 -1       524-1.02860E+04 2.13832E+05-1.24219E+02 9.04558E+02 3.33006E+02 1.20382E+02
 -1       525-1.01312E+04 2.47066E+05-5.02049E+01 7.60486E+02 4.34506E+02-2.36560E+02
 -1       526-1.01337E+04 2.82731E+05-5.65656E+01 1.16275E+03 5.25685E+02-3.20827E+01
 -1       527-1.02279E+04 3.20492E+05-1.22535E+02 1.27623E+03 4.75136E+02 2.17491E+02
 -1       528-1.02829E+04 3.60632E+05-1.71410E+02 1.02961E+03 5.35663E+02 2.50267E+02
 -1       529-1.00807E+04 4.03462E+05-3.65179E+01 1.40582E+03 5.09825E+02 1.48420E+02
 -1       530-1.02880E+04 4.48207E+05-1.23501E+02 1.46233E+03 5.48526E+02 1.96183E+02
 -1       531-9.94446E+03 4.95772E+05 7.56983E+01 1.11048E+03 6.49549E+02-8.98816E+01
 -1       532-1.01194E+04 5.45642E+05-5.06697E+01 1.56699E+03 7.02570E+02-5.28746E+01
 -1       533-1.02196E+04 5.97626E+05-6.43091E+01 1.69210E+03 6.62598E+02 2.20414E+02
 -1       534-9.97704E+03 6.51970E+05 5.72420E+01 1.18092E+03 7.68690E+02 2.36745E+02
 -1       535-9.93264E+03 7.08998E+05 8.70349E+01 1.38960E+03 6.43496E+02 2.11276E+02
 -1       536-1.04271E+04 7.67932E+05-1.35192E+02 1.58868E+03 5.28698E+02 4.86212E+01
 -1       537-9.59169E+03 8.30012E+05 3.02214E+01 1.10464E+03 7.05790E+02-1.17792E+02
 -1       538-1.00199E+04 8.93610E+05-1.11336E+01 1.46334E+03 7.83363E+02-9.32190E+00
 -1       539-1.04004E+04 9.59698E+05-1.58660E+02 1.79028E+03 7.00120E+02-3.06553E+01
 -1       540-9.73359E+03 1.02866E+06-7.71617E+00 1.11324E+03 8.58954E+02-1.87896E+02
 -1       541-9.89017E+03 1.09965E+06-1.40178E+01 1.79985E+03 7.78046E+02 2.12198E+02
 -1       542-1.03483E+04 1.17295E+06-6.69076E+01 1.96035E+03 7.27915E+02 1.01166E+02
 -1       543-9.73238E+03 1.24907E+06 8.99900E+01 1.38782E+03 8.96146E+02-6.43179E+01
 -1       544-1.00883E+04 1.32703E+06 3.43203E+01 1.66022E+03 8.59786E+02 1.42762E+02
 -1       545-1.03465E+04 1.40744E+06-9.01260E+01 2.14961E+03 8.18302E+02-9.82094E+00
 -1       546-9.81965E+03 1.49024E+06 1.61650E+01 1.34373E+03 1.03339E+03-2.03411E+02
 -1       547-9.71346E+03 1.57556E+06 1.31485E+02 1.91358E+03 8.54185E+02 2.38024E+02
 -1       548-1.00211E+04 1.66348E+06 2.97123E+02 1.94908E+03 1.05130E+03 2.38480E+02
 -1       549-1.05326E+04 1.75241E+06-2.99042E+02 2.99409E+03 1.05370E+03-4.31560E+02
 -1       550-1.01848E+04 1.84537E+06-6.07011E+01 2.50889E+03 9.27776E+02-3.65066E+02
 -1       551-1.00152E+04 1.93935E+06-1.49773E+01 3.27929E+03 8.58429E+02 1.13370E+02
 -1       552-1.03460E+04 2.03485E+06-1.41888E+02 2.64814E+03 9.58940E+02 3.06914E+02
 -1       553-9.94817E+03 2.13544E+06 2.88144E+02 3.23069E+03 7.92806E+02 5.55428E+02
 -1       554-1.45419E+04 2.23956E+06-2.09898E+03-7.96075E+02 1.17293E+03-2.32672E+02
 -1       555-1.25895E+04 2.39979E+06-4.01452E+03 1.62310E+04 5.35528E+03-1.01780E+03
 -1       556 6.16553E+04 2.67558E+06 6.93468E+03 2.93323E+05-3.89176E+02 4.39353E+03
 -1       557 1.15877E+05 2.44799E+06-3.00256E+03 5.22744E+05-1.29965E+04-5.66671E+03
 -1       558 2.07963E+05 1.94156E+06-9.28688E+03 6.29349E+05-2.74096E+02-8.10481E+03
 -1       559 2.96143E+05 1.37931E+06-5.67281E+03 6.48944E+05-2.18985E+04-1.33381E+04
 -1       560 3.66844E+05 9.92800E+05 1.65148E+03 6.00957E+05-5.47177E+04-3.20406E+04
 -1       561 2.00795E+04 2.69867E+06 8.23490E+03 1.66036E+05 8.49369E+03 8.99733E+03
 -1       562 9.53863E+04 2.60802E+06 1.25455E+04 4.11232E+05-1.16520E+04 6.76484E+03
 -1       563 1.66851E+05 2.21535E+06-1.86069E+03 5.84139E+05-7.38738E+03-1.29057E+04
 -1       564 2.58900E+05 1.65307E+06-4.55687E+03 6.55005E+05-1.33652E+04-1.11472E+04
 -1       565 3.23584E+05 1.17263E+06-5.31015E+03 6.28325E+05-4.09351E+04-2.61945E+04
 -1       566 2.61400E+05 8.06039E+05 2.09458E+03 4.85670E+05-5.39133E+04-2.00606E+04
 -1       567 1.30075E+05 1.63054E+05 8.79405E+04-1.29301E+05 1.73551E+03-5.66324E+03
 -1       568 1.29430E+05 1.57667E+05 8.69630E+04-1.26154E+05-3.02724E+03 7.48192E+03
 -1       569 1.30430E+05 1.61074E+05 8.74514E+04-1.26986E+05 4.94419E+03-1.61286E+04
 -1       570 1.34247E+05 1.65868E+05 9.00344E+04-1.30814E+05-4.78579E+02 1.54268E+03
 -1       571 1.33889E+05 1.58038E+05 8.75783E+04-1.22366E+05-5.94480E+03 1.93325E+04
 -1       572 8.88768E+04 1.11511E+05-2.31305E+04-1.08841E+05-3.81956E+02-6.62917E+03
 -1       573 5.75075E+04 1.48982E+05-2.21171E+03-9.23482E+04 1.29241E+03-2.11338E+03
 -1       574 3.06664E+04 1.71022E+05-3.39300E+02-7.32092E+04 9.88112E+02-7.46626E+02
 -1       575 1.00118E+04 1.79567E+05-2.89987E+02-4.41275E+04 9.08297E+02-4.82978E+02
 -1       576 6.69037E+02 1.72487E+05-3.22630E+02-1.20178E+04 1.01720E+03-2.49860E+02
 -1       577 1.58731E+03 1.55037E+05-3.63007E+02 1.76858E+04 1.24118E+03-5.34261E+01
 -1       578 1.09008E+04 1.33921E+05-3.92866E+02 3.92516E+04 1.51362E+03 2.40995E+02
 -1       579 2.89629E+04 1.19152E+05 2.60327E+01 5.93464E+04 1.25576E+03 6.92154E+02
 -1       580 6.08791E+04 1.07668E+05-4.24697E+01 8.40781E+04 1.60815E+03 1.40623E+03
 -1       581 1.18182E+05 1.04833E+05-3.55390E+03 1.13394E+05 2.58997E+03-2.31523E+03
 -1       582 1.73799E+05 9.43024E+04-4.74722E+03 1.60503E+05-2.35598E+01-2.02911E+04
 -1       583 2.07601E+05 7.66207E+03-1.71546E+04 1.43713E+05 3.17710E+04-2.72087E+04
 -1       584 7.28750E+04-8.75459E+04-5.32431E+04 8.29635E+04 7.06528E+04-3.75380E+04
 -1       585-4.19945E+04-1.44852E+05-6.72252E+04 3.46532E+04 9.46906E+04-2.98818E+04
 -1       586-3.48307E+04-7.36241E+04-7.54393E+04 2.55952E+04 7.03424E+04-1.93986E+04
 -1       587 2.75533E+03 2.07649E+04-9.80200E+03 3.42695E+04 1.39720E+03-1.54661E+04
 -1       588 3.73275E+04 1.00713E+05 5.49130E+04 6.32361E+04-7.39291E+04-4.38599E+04
 -1       589-8.15282E+04 9.93668E+04 1.03260E+05 1.13910E+05-9.61383E+04-5.79736E+04
 -1       590-1.93015E+05 2.27912E+04 6.29958E+04 1.42904E+05-6.25784E+04-4.39166E+04
 -1       591-2.15878E+05-1.28169E+05 1.33453E+03 2.03429E+05-4.18307E+03-1.31483E+04
 -1       592-1.24337E+05-9.89814E+04 1.08962E+04 1.23468E+05-8.95978E+02-8.02711E+03
 -1       593-6.50444E+04-1.00320E+05 1.99576E+02 8.19267E+04-1.00714E+03 7.76234E+02
 -1       594-2.75022E+04-8.45283E+04 3.40839E+00 4.90487E+04-1.09966E+03 5.21130E+02
 -1       595-9.77071E+03-6.59805E+04 9.06888E+01 2.63755E+04-2.79874E+02 3.18183E+02
 -1       596-1.95144E+03-5.24608E+04 1.63080E+02 1.08581E+04 2.31891E+01-3.66823E+01
 -1       597-9.21012E+01-4.87268E+04 2.95416E+02 2.17818E+03-4.66842E+02-5.45356E+01
 -1       598-4.18959E+02-5.83397E+04 1.81567E+02-6.92807E+03-1.01373E+03-1.66078E+02
 -1       599-7.12350E+03-7.72614E+04 1.24328E+02-2.40451E+04-1.59160E+03-4.82462E+02
 -1       600-2.53949E+04-9.40269E+04 1.79394E+02-4.90647E+04-1.52631E+03-9.22681E+02
 -1       601-5.84615E+04-9.83285E+04 7.45290E+01-7.62404E+04-1.20272E+03-9.88703E+02
 -1       602-1.01138E+05-8.28546E+04 2.11586E+02-9.25002E+04-2.36888E+02-6.76661E+02
 -1       603-1.40167E+05-5.91101E+04 5.27691E+02-9.16730E+04-3.81094E+02-1.28139E+03
 -1       604-1.67418E+05-3.30068E+04 1.29042E+03-7.54267E+04-3.00584E+02-1.94050E+03
 -1       605-1.86024E+05-3.06727E+03 2.36320E+04-4.63541E+04 4.01621E+03-7.06427E+03
 -1       606 1.19101E+05 1.26636E+05 1.34862E+04-1.19787E+05-8.06427E+03 1.61689E+04
 -1       607 6.97420E+04 1.33106E+05-2.67799E+03-9.65203E+04 2.02893E+03-3.94327E+03
 -1       608 4.39396E+04 1.61090E+05-8.67465E+02-8.31435E+04 1.40240E+03-1.59621E+03
 -1       609 2.04587E+04 1.76579E+05 8.31742E+01-5.84245E+04 8.97641E+02-4.66415E+02
 -1       610 3.84015E+03 1.77660E+05-4.66136E+02-2.84704E+04 1.15541E+03-3.94242E+02
 -1       611 6.19031E+02 1.63964E+05-4.62931E+02 3.52887E+03 1.33603E+03-1.12550E+01
 -1       612 5.85243E+03 1.44594E+05-3.25267E+02 2.85962E+04 1.49196E+03 1.74531E+02
 -1       613 1.96788E+04 1.26405E+05-4.33701E+02 4.98400E+04 1.55951E+03 5.02682E+02
 -1       614 4.36143E+04 1.13996E+05-4.13653E+02 7.11156E+04 2.42054E+03 1.18964E+03
 -1       615 8.53558E+04 1.02418E+05-2.81948E+03 9.64167E+04-6.37138E+02-1.51183E+03
 -1       616 1.55841E+05 1.02623E+05 1.93024E+03 1.37926E+05-3.89436E+03-1.40632E+04
 -1       617 1.90350E+05 4.10923E+04-1.03005E+04 1.55436E+05 9.03425E+03-2.55176E+04
 -1       618 1.67785E+05-5.04786E+04-3.60234E+04 1.19934E+05 7.50799E+04-2.72755E+04
 -1       619 8.75344E+03-1.27120E+05-6.17498E+04 7.05978E+04 7.74609E+04-2.38844E+04
 -1       620-4.38795E+04-9.01635E+04-9.29614E+04 3.15395E+04 1.05793E+05-2.78454E+04
 -1       621-2.28731E+04-1.39558E+04-2.89329E+04 2.92823E+04 3.07193E+04-1.77339E+04
 -1       622 1.91060E+04 9.16779E+04 2.32292E+04 4.44470E+04-3.81814E+04-3.72648E+04
 -1       623-1.85899E+04 1.28512E+05 1.05839E+05 7.39920E+04-1.04583E+05-5.70219E+04
 -1       624-1.22217E+05 8.49703E+04 9.51676E+04 1.36890E+05-8.64733E+04-5.08305E+04
 -1       625-2.13823E+05-5.45498E+04 2.15749E+04 1.61875E+05-3.87670E+03-2.70263E+04
 -1       626-1.67741E+05-1.15188E+05 9.31508E+03 1.65371E+05-1.06299E+04-4.15599E+02
 -1       627-9.30090E+04-1.04617E+05 4.14570E+03 1.02660E+05 3.12505E+03-3.31408E+03
 -1       628-4.64962E+04-9.39455E+04 3.21400E+01 6.54149E+04-1.28865E+03 5.96675E+02
 -1       629-1.81965E+04-7.57937E+04-1.56834E+02 3.72473E+04-4.26262E+02 2.79896E+02
 -1       630-5.12350E+03-5.83407E+04 2.73451E+02 1.79389E+04-1.29476E+02-1.84300E+01
 -1       631-7.80197E+02-5.01957E+04 2.61954E+02 6.36355E+03-2.00443E+02-6.80837E+01
 -1       632 2.95286E+02-5.28520E+04 4.36317E+02-1.81535E+03-8.32039E+02-4.86410E+01
 -1       633-2.95997E+03-6.72965E+04 4.13554E+02-1.48770E+04-1.45994E+03-2.90812E+02
 -1       634-1.52196E+04-8.61953E+04 2.14416E+02-3.62628E+04-1.88186E+03-8.85685E+02
 -1       635-4.04489E+04-9.74948E+04 1.96363E+02-6.34505E+04-1.46939E+03-9.61267E+02
 -1       636-7.97592E+04-9.31631E+04-3.33813E+02-8.44865E+04-8.09611E+02-1.15809E+03
 -1       637-1.22726E+05-7.30662E+04-3.89177E+02-9.26299E+04-1.58655E+02-1.02994E+03
 -1       638-1.55573E+05-4.71133E+04 1.41883E+02-8.36613E+04-2.06939E+02-1.27194E+03
 -1       639-1.71944E+05-2.14079E+04 2.37092E+03-6.28604E+04 1.37239E+03-3.70257E+03
 -1       640-2.18723E+05-1.25234E+04-1.45364E+04-4.41822E+04-1.41208E+03 1.65080E+04
 -1       641-2.40870E+05-3.02853E+04-8.13482E+04-5.91044E+04 1.65965E+03-5.44141E+03
 -1       642-2.35209E+05-2.91196E+04-8.00061E+04-5.58168E+04-1.54120E+03 7.35246E+03
 -1       643-2.38153E+05-3.10068E+04-8.07480E+04-5.72716E+04 4.61063E+03-1.51228E+04
 -1       644-2.45437E+05-3.20086E+04-8.32338E+04-5.89423E+04-3.83336E+02 1.27454E+03
 -1       645-2.35359E+05-3.41620E+04-8.08565E+04-5.26884E+04-5.54200E+03 1.82249E+04
 -1       646 8.77271E+04 1.10485E+05-2.45470E+04-1.07970E+05-4.26089E+02 6.70935E+03
 -1       647 5.65407E+04 1.49276E+05-2.28175E+03-9.26293E+04-1.93989E+03 2.45069E+03
 -1       648 3.07355E+04 1.71257E+05-3.01572E+02-7.31665E+04-1.16334E+03 7.84993E+02
 -1       649 1.00072E+04 1.79537E+05-3.47214E+02-4.36900E+04-1.07856E+03 6.18250E+02
 -1       650 6.79060E+02 1.72664E+05-1.18862E+02-1.19216E+04-9.67049E+02 1.25379E+02
 -1       651 3.18321E+03 1.55258E+05-6.02147E+02 1.88882E+04-1.04821E+03 1.27242E+00
 -1       652 1.09865E+04 1.34123E+05-3.88851E+02 3.93931E+04-1.67598E+03-3.15327E+02
 -1       653 2.90028E+04 1.19328E+05-9.74898E+01 5.96119E+04-1.44348E+03-6.43850E+02
 -1       654 6.24602E+04 1.05615E+05 2.03416E+02 8.56291E+04-1.48058E+03-1.23934E+03
 -1       655 1.17558E+05 1.03958E+05-4.93253E+03 1.13646E+05-2.22116E+03 2.78439E+03
 -1       656 1.77290E+05 9.74700E+04-4.94698E+03 1.61189E+05-2.57270E+03 1.64176E+04
 -1       657 2.00962E+05 5.47657E+02-1.64810E+04 1.41740E+05-3.54363E+04 2.92035E+04
 -1       658 7.45720E+04-9.31079E+04-5.05299E+04 8.38591E+04-7.36746E+04 3.76278E+04
 -1       659-4.10841E+04-1.49440E+05-7.09985E+04 3.56342E+04-9.69871E+04 3.07050E+04
 -1       660-3.99848E+04-7.70012E+04-7.78176E+04 2.88767E+04-7.49147E+04 2.16947E+04
 -1       661 6.76916E+03 2.19724E+04-1.02099E+04 3.45165E+04-1.83396E+01 1.64960E+04
 -1       662 3.16808E+04 1.00949E+05 5.69826E+04 6.41403E+04 7.41644E+04 4.40279E+04
 -1       663-8.21610E+04 9.56629E+04 9.99722E+04 1.14001E+05 9.45018E+04 5.65861E+04
 -1       664-1.90021E+05 2.42660E+04 6.29364E+04 1.42300E+05 6.12208E+04 4.34675E+04
 -1       665-2.16934E+05-1.29350E+05 1.22602E+03 2.04229E+05 4.15967E+03 1.30669E+04
 -1       666-1.24506E+05-9.94668E+04 1.08035E+04 1.23509E+05 7.98519E+02 8.01809E+03
 -1       667-6.51992E+04-1.00441E+05 1.75112E+02 8.19957E+04 1.05118E+03-8.00908E+02
 -1       668-2.91202E+04-8.43252E+04 5.00817E+00 5.05177E+04 9.15506E+02-5.94357E+02
 -1       669-9.63285E+03-6.61602E+04 1.02900E+02 2.56381E+04 2.45092E+02-1.44810E+02
 -1       670-2.04232E+03-5.23331E+04 1.67059E+02 1.08167E+04-7.36514E+00 3.51576E+01
 -1       671 4.40684E+01-4.88196E+04 2.41733E+02 2.80242E+03 4.92372E+02 6.30432E+00
 -1       672-4.19583E+02-5.73038E+04 2.37412E+02-6.73266E+03 1.10211E+03 1.34926E+02
 -1       673-6.94820E+03-7.64092E+04 1.96180E+02-2.37118E+04 1.73767E+03 5.84826E+02
 -1       674-2.49018E+04-9.28801E+04 2.42301E+02-4.82400E+04 1.69610E+03 1.06351E+03
 -1       675-5.77715E+04-9.74791E+04-3.56254E+00-7.54334E+04 1.39328E+03 1.06577E+03
 -1       676-1.00179E+05-8.21291E+04 1.67677E+02-9.16564E+04 3.25197E+02 7.20480E+02
 -1       677-1.39056E+05-5.87646E+04 4.32717E+02-9.09955E+04 4.33419E+02 1.22503E+03
 -1       678-1.66843E+05-3.29715E+04 1.83575E+03-7.48613E+04 7.12505E+01 2.28236E+03
 -1       679-1.85055E+05-1.64216E+03 2.55705E+04-4.65602E+04-4.33194E+03 5.39767E+03
 -1       680 1.19350E+05 1.26875E+05 1.71076E+04-1.19223E+05 8.23899E+03-1.78226E+04
 -1       681 6.87930E+04 1.33321E+05-4.16548E+03-9.69258E+04-7.08006E+02 4.73715E+03
 -1       682 4.38444E+04 1.61016E+05-6.52099E+02-8.31985E+04-1.91648E+03 1.44334E+03
 -1       683 2.05292E+04 1.76802E+05 1.35352E+02-5.82888E+04-1.08091E+03 5.04780E+02
 -1       684 4.45215E+03 1.77827E+05-2.67272E+02-2.81486E+04-1.21106E+03 4.48567E+02
 -1       685 7.57821E+02 1.62938E+05-5.28266E+02 3.66591E+03-1.29799E+03 2.99912E+02
 -1       686 6.35198E+03 1.45861E+05-1.19756E+02 2.94543E+04-1.47697E+03-1.91796E+02
 -1       687 1.97488E+04 1.26568E+05-4.77575E+02 4.99497E+04-1.68804E+03-5.03387E+02
 -1       688 4.37206E+04 1.11624E+05-5.89971E+02 7.12805E+04-1.97965E+03-1.27916E+03
 -1       689 8.77959E+04 1.03672E+05-1.41442E+03 9.80655E+04 2.10726E+02 1.04754E+03
 -1       690 1.51495E+05 9.77538E+04-4.53877E+03 1.37329E+05 3.19637E+03 9.41589E+03
 -1       691 1.90516E+05 4.73614E+04-6.82382E+02 1.56826E+05-1.41195E+04 2.84761E+04
 -1       692 1.65693E+05-5.82898E+04-3.26537E+04 1.21228E+05-7.51226E+04 2.96647E+04
 -1       693 1.48658E+04-1.31094E+05-6.20370E+04 6.98592E+04-7.94053E+04 2.13531E+04
 -1       694-4.76630E+04-9.31564E+04-9.67359E+04 3.46452E+04-1.11481E+05 3.17472E+04
 -1       695-2.05740E+04-1.32268E+04-2.97011E+04 3.08027E+04-3.06629E+04 1.84706E+04
 -1       696 1.73619E+04 9.30822E+04 2.62645E+04 4.64097E+04 3.86088E+04 3.84082E+04
 -1       697-2.28480E+04 1.23047E+05 1.03655E+05 7.40515E+04 1.02936E+05 5.43657E+04
 -1       698-1.21472E+05 8.72478E+04 9.38652E+04 1.35156E+05 8.25694E+04 4.97424E+04
 -1       699-2.11628E+05-5.17586E+04 2.23378E+04 1.60480E+05 3.54486E+03 2.81942E+04
 -1       700-1.68329E+05-1.16217E+05 9.10367E+03 1.65565E+05 1.04101E+04 3.75962E+02
 -1       701-9.29141E+04-1.04712E+05 4.18115E+03 1.02730E+05-3.08564E+03 3.31840E+03
 -1       702-4.77381E+04-9.42754E+04-3.40440E+02 6.62600E+04 1.10784E+03-8.55924E+02
 -1       703-1.72482E+04-7.39762E+04 5.69615E+02 3.70008E+04 4.25160E+02 7.22147E+01
 -1       704-5.23532E+03-5.89380E+04 1.36635E+02 1.79019E+04 1.10664E+02-4.51474E+01
 -1       705-9.54579E+02-5.02816E+04 1.48466E+02 6.73937E+03 2.61970E+02-3.16459E+01
 -1       706 1.74861E+02-5.23144E+04 3.99185E+02-1.45808E+03 1.01506E+03 3.25434E+02
 -1       707-2.95037E+03-6.66288E+04 4.69758E+02-1.46040E+04 1.56188E+03 2.74918E+02
 -1       708-1.49336E+04-8.50627E+04 3.07498E+02-3.57292E+04 2.05436E+03 9.33313E+02
 -1       709-3.98200E+04-9.66082E+04 1.67470E+02-6.26496E+04 1.64133E+03 1.08407E+03
 -1       710-7.88586E+04-9.23110E+04-3.60740E+02-8.36230E+04 9.49488E+02 1.21668E+03
 -1       711-1.21524E+05-7.23699E+04-3.73544E+02-9.17811E+04 2.05053E+02 1.01439E+03
 -1       712-1.54425E+05-4.66826E+04 1.61927E+02-8.31111E+04 2.33897E+02 1.35233E+03
 -1       713-1.72131E+05-2.14670E+04 3.96225E+03-6.23268E+04-2.26573E+03 3.81705E+03
 -1       714-2.16953E+05-1.20051E+04-1.39043E+04-4.38119E+04 2.18547E+03-1.80986E+04
 -1       715 4.00481E+05 4.88845E+05 1.52235E+04 4.02054E+05-1.58148E+03-2.17796E+03
 -1       716 4.04906E+05 4.96458E+05 4.23880E+04 4.01160E+05 4.63861E+04 4.68967E+04
 -1       717 3.43633E+05 4.42665E+05 6.25631E+02 3.65024E+05-4.25511E+04-3.41039E+04
 -1       718 1.97941E+01 8.16148E+01 4.28725E-01 4.00682E+01-5.19725E+00 2.45934E-01
 -1       719 1.59324E+01 2.79056E+01-6.67210E-01 2.54645E+01-3.51113E+00-3.07604E+00
 -1       720-3.71254E+00-1.39267E+01 7.48469E-01-9.34731E+00-2.72112E+00-2.87426E+00
 -1       721-5.31916E+01-4.47849E+01-2.88662E-01-5.30971E+01-2.77863E+00-1.77711E+00
 -1       722-1.15870E+02-9.43502E+00-1.55924E+00-2.77799E+01 9.69249E-02-4.84097E+00
 -1       723-1.35580E+02-9.50928E+00-2.00941E+00-4.91054E+01 1.28336E+00-1.99347E-01
 -1       724-1.55981E+02-1.23832E+01-4.08716E+00 4.85325E+01-9.72507E-02-1.77568E+00
 -1       725-1.24279E+02-8.96023E+00-2.54222E+00 2.99455E+01-3.73331E-01 4.88022E+00
 -1       726-5.45374E+01-6.17189E+01-2.19240E+00 6.30359E+01-1.41727E+00-6.85414E-01
 -1       727-1.47973E+01-2.22446E+01 2.74759E-01 1.86940E+01-1.47412E+00 2.02342E+00
 -1       728 1.04987E+01 5.30268E-01 2.20610E-01-1.50351E+01-4.84433E+00 1.86408E+00
 -1       729 1.85146E+01 5.93878E+01-5.69031E-01-3.36828E+01-3.58559E+00-5.64385E-02
 -1       730-5.08759E+00 2.26120E+02 6.78931E+00-1.21301E+01-4.20382E+00 5.78005E+00
 -1       731 1.67980E+01 1.85957E+02-2.45788E+00 4.17873E+01-5.46970E+00-3.35541E+00
 -1       732 7.13034E+01 3.40567E+02 9.07024E+00 1.65255E+02-3.47897E+00 5.75789E+00
 -1       733 1.40589E+02 1.21686E+02-5.99554E-01 1.35239E+02 8.86894E+00 2.63171E+00
 -1       734 1.16717E+02 3.29688E+01 1.05273E+01 7.33007E+01 8.33197E+00 1.62854E+01
 -1       735-8.27196E+01-6.76443E+01-1.34843E+00-1.15526E+02 1.42016E+01 2.59967E+01
 -1       736-4.28427E+02-5.20656E+01-9.10819E+00-2.07759E+02 5.50332E+00 2.70426E+01
 -1       737-7.00639E+02-8.87484E+00-3.02704E+01 1.91237E+02-1.80143E+00 4.82209E+00
 -1       738-3.06707E+02-9.27877E+01-2.24952E+01 1.76919E+02 3.46900E+01-2.20077E+01
 -1       739 1.18795E+02-4.39505E+01 1.75203E+01-2.15194E+01 1.17642E+01-3.35232E+01
 -1       740 1.63307E+02 1.40084E+02-2.83195E+00-1.49453E+02 1.16619E+01 4.34301E-02
 -1       741 3.40538E+01 3.81034E+02 3.31471E+01-1.64777E+02-1.38959E+00-9.99677E+00
 -1       742 2.16103E+01 2.05567E+02-6.30513E-01-5.01044E+01-5.81765E+00 2.75258E+00
 -1       743-1.44507E+01 1.51028E+02-7.78477E+00 3.37313E+01-1.01201E+01-1.64261E+00
 -1       744 1.25529E+01 6.16401E+01 1.19651E+00 2.89542E+01-3.21208E+00-2.13107E+00
 -1       745 6.95982E+00 3.54036E+00-4.54498E-01 5.68989E+00-5.00300E+00-3.51746E+00
 -1       746-1.78858E+01-2.51358E+01 8.89025E-01-2.72115E+01-3.61323E+00-1.90639E+00
 -1       747-1.03585E+02-3.83433E+01-7.59882E+00-4.72560E+01 4.07102E+00-4.47903E+00
 -1       748-1.06145E+02-1.29902E+01 1.62499E+00-3.27254E+01-4.37035E+00-1.21060E+00
 -1       749-1.77316E+02-5.30732E+00-6.90286E+00-1.72841E+00 3.10041E+00-2.78880E+00
 -1       750-1.09519E+02-1.09129E+01 1.94355E+00 3.32532E+01-4.02484E+00 3.75320E-01
 -1       751-1.11429E+02-4.44182E+01-6.49625E+00 5.53200E+01 2.75819E+00 4.57380E+00
 -1       752-2.93382E+01-3.65446E+01-7.83618E-01 3.59770E+01-4.70420E+00 3.16131E+00
 -1       753-4.32630E+00-1.61780E+01 2.40606E-01 5.98700E+00-3.34470E+00 3.21466E+00
 -1       754 1.07031E+01 3.76137E+01-1.77973E-01-2.23181E+01-2.54031E+00 1.88031E+00
 -1       755 3.08232E+00 1.23864E+02-5.28278E+00-2.90035E+01-6.19532E+00 3.15365E+00
 -1       756 4.46029E-01 2.04208E+02-5.11745E+00 2.50953E+01 1.52988E+00 1.49572E+00
 -1       757 2.03803E+01 2.46940E+02-2.64177E-01 7.67872E+01-9.88974E+00-4.09933E+00
 -1       758 1.03509E+02 2.30681E+02-3.46008E+00 1.76391E+02 1.00432E+01 1.10012E+01
 -1       759 1.18898E+02 7.22467E+01-6.22353E+00 9.90436E+01 9.94816E+00 4.60929E+00
 -1       760 2.75124E+01-3.47569E+01-3.79445E+00-3.49209E+01 2.51571E+01 2.01520E+01
 -1       761-2.65622E+02-8.14943E+01-1.59309E+01-1.49245E+02 2.66623E+01 2.91361E+01
 -1       762-6.80432E+02-3.98514E-01-3.70083E+01-3.06820E+01-8.23362E+00 2.65781E+01
 -1       763-4.91982E+02-7.21476E+01-1.34202E+01 1.75167E+02 2.52500E+01-1.41184E+01
 -1       764-1.08841E+02-1.03737E+02-2.42300E+01 1.22329E+02 4.87192E+01-2.77966E+01
 -1       765 1.27327E+02 4.70304E+01-6.58444E+00-8.99379E+01 1.76737E+01-1.32821E+01
 -1       766 1.23637E+02 2.55863E+02-6.70587E+00-1.84536E+02 7.68846E+00-7.02068E+00
 -1       767 2.84882E+01 2.71567E+02 8.93373E+00-9.07108E+01-1.65288E+01-1.33467E+00
 -1       768-8.71347E+00 2.30653E+02-1.20472E+00-3.02051E+01 1.48309E+00-8.53627E-01
 -1       769-1.02321E+01 2.43266E+02 3.21921E+01 3.96312E+00-5.21306E+00 7.56947E-01
 -1       770-1.45542E+01 2.48374E+02 2.94618E+01-3.81684E+00 4.53762E+00-1.25977E+00
 -1       771-4.30028E+00 2.64136E+02 2.57284E+01 7.44003E+00-5.80905E+00-1.77371E-01
 -1       772-4.39526E+00 2.52509E+02 3.39576E+01 5.81653E+00 6.34843E-01 1.18417E+00
 -1       773 5.40210E-01 2.60603E+02 2.53802E+01 4.46523E+00 6.44216E+00-1.06236E+00
 -1       774 1.70308E+01 8.31290E+01-1.43769E+00 4.04007E+01 5.49714E+00-1.04367E+00
 -1       775 1.57238E+01 3.03579E+01 8.87304E-01 2.59177E+01 4.59504E+00 2.66719E+00
 -1       776-2.23977E+00-1.53461E+01-1.21612E+00-9.76194E+00 3.34427E+00 3.15668E+00
 -1       777-3.77146E+01-5.40815E+01-5.93412E-01-5.57849E+01-9.15138E-01 9.32723E-02
 -1       778-1.14260E+02-8.31691E+00-2.86105E+00-2.77011E+01 1.65153E+00 4.72512E+00
 -1       779-1.47291E+02-1.28314E+01-2.46838E+00-4.71249E+01 1.75566E+00-2.47018E+00
 -1       780-1.45173E+02-1.06045E+01-2.41997E+00 4.49136E+01-7.70004E-01 7.36248E-01
 -1       781-1.24796E+02-9.35926E+00-9.13317E-01 3.06901E+01-4.31805E-01-3.75289E+00
 -1       782-6.16019E+01-6.29425E+01-8.51551E+00 6.97987E+01 1.28686E+00 7.88995E-01
 -1       783-1.39955E+01-2.15189E+01 7.91597E-01 1.79891E+01 2.43858E+00-2.81335E+00
 -1       784 9.40138E+00 3.26099E-02-1.07655E+00-1.18962E+01 2.77551E+00-2.29911E+00
 -1       785 1.48039E+01 6.24223E+01-1.37663E+00-3.53664E+01 5.00280E+00 1.62516E-01
 -1       786-3.48821E+00 2.22954E+02 6.19395E+00-9.75923E+00 5.65208E+00-3.45953E+00
 -1       787 1.64852E+01 1.86886E+02-7.67155E-01 4.16836E+01 6.43894E+00 3.05414E+00
 -1       788 6.85668E+01 3.49905E+02 1.54805E+01 1.64143E+02 5.09309E+00-6.71016E+00
 -1       789 1.48976E+02 1.28654E+02-1.27870E+00 1.36676E+02-7.96613E+00 2.22452E+00
 -1       790 1.14761E+02 3.23119E+01 9.62950E+00 7.31147E+01-8.57305E+00-1.58525E+01
 -1       791-8.21579E+01-6.77275E+01-1.28650E+00-1.15663E+02-1.42636E+01-2.65457E+01
 -1       792-4.25775E+02-5.20159E+01-8.92262E+00-2.06932E+02-5.47358E+00-2.73114E+01
 -1       793-6.99203E+02-6.95797E+00-3.24896E+01 1.88100E+02 1.13565E+00-6.88546E+00
 -1       794-3.07972E+02-9.49523E+01-2.24277E+01 1.80042E+02-3.54471E+01 2.32585E+01
 -1       795 1.18351E+02-4.36875E+01 1.89566E+01-2.23009E+01-1.15598E+01 3.25783E+01
 -1       796 1.60032E+02 1.37200E+02-5.87053E-01-1.47159E+02-1.18897E+01 2.91169E+00
 -1       797 3.36571E+01 3.82069E+02 3.24752E+01-1.65340E+02 6.45944E-01 9.78408E+00
 -1       798 2.08404E+01 2.05209E+02-7.30921E-01-4.96750E+01 5.98870E+00-3.12976E+00
 -1       799-1.20441E+01 1.51370E+02-1.00812E+01 3.03068E+01 1.20210E+01 2.74534E+00
 -1       800 1.06571E+01 6.00730E+01 1.16047E-01 2.95699E+01 3.83111E+00 1.64229E+00
 -1       801 6.09352E+00 4.23428E+00-7.69162E-01 4.60812E+00 6.57684E+00 3.66432E+00
 -1       802-1.95081E+01-3.06807E+01-1.58347E-01-2.98156E+01 2.83222E+00 4.04468E+00
 -1       803-9.17108E+01-3.73273E+01-4.40422E+00-4.90116E+01 4.33187E-01 3.63857E+00
 -1       804-1.03977E+02-1.11351E+01 6.84522E+00-3.35580E+01 3.94287E+00 5.07633E-01
 -1       805-1.83446E+02-1.44198E+01-9.49842E+00-1.69512E-01-6.41343E+00-1.85906E+00
 -1       806-1.10770E+02-1.11390E+01 9.19599E-01 3.27950E+01 4.51817E+00-4.81354E-01
 -1       807-1.08817E+02-3.45570E+01-2.43360E+00 5.67272E+01-2.58460E+00-1.94129E+00
 -1       808-2.90182E+01-3.67519E+01-5.43955E-01 3.58526E+01 6.24520E+00-3.07358E+00
 -1       809-3.92407E+00-1.53513E+01 5.72981E-02 7.32975E+00 3.46630E+00-2.87102E+00
 -1       810 1.03180E+01 3.89959E+01-6.59929E-01-2.20329E+01 3.08938E+00-8.67400E-01
 -1       811-4.51499E+00 1.23848E+02-5.75413E+00-2.40750E+01 1.18787E+01-2.21406E+00
 -1       812 2.18337E-01 2.06759E+02 7.91774E-01 2.35072E+01-2.97876E-01-3.38908E-01
 -1       813 1.75403E+01 2.44142E+02-4.03985E+00 7.70421E+01 1.37585E+01-7.02305E-02
 -1       814 1.24364E+02 2.46337E+02-5.94133E+00 1.75262E+02-6.20696E+00-4.20085E+00
 -1       815 1.11124E+02 6.86741E+01-7.59214E+00 9.89794E+01-9.94151E+00-6.36537E+00
 -1       816 2.79583E+01-3.50054E+01-3.47478E+00-3.52700E+01-2.53283E+01-2.03473E+01
 -1       817-2.62713E+02-8.12542E+01-1.57751E+01-1.48769E+02-2.66945E+01-2.95285E+01
 -1       818-6.80902E+02 3.92720E+00-3.70413E+01-3.38055E+01 1.06400E+01-2.87466E+01
 -1       819-4.91778E+02-7.32430E+01-1.42909E+01 1.76139E+02-2.65407E+01 1.54004E+01
 -1       820-1.09802E+02-1.04698E+02-2.41522E+01 1.23808E+02-4.96270E+01 2.83285E+01
 -1       821 1.32834E+02 5.03268E+01-5.93205E+00-8.97278E+01-1.89590E+01 1.05860E+01
 -1       822 1.26376E+02 2.59461E+02-1.68696E+00-1.81937E+02-6.29036E+00 1.05175E+01
 -1       823 2.87424E+01 2.71772E+02 8.85465E+00-9.04123E+01 1.65308E+01 1.06403E+00
 -1       824-6.08569E+00 2.34199E+02 7.57190E-02-2.91734E+01-9.04963E-01 1.57709E+00
 -1       825 1.34004E+02 2.24818E+02 6.38727E+01-1.53765E+02-1.87038E-01 3.48703E-01
 -1       826 1.77693E+02 2.36831E+02 6.75165E+01-1.71216E+02 1.13100E+01 4.52156E+00
 -1       827 1.79519E+02 2.36685E+02 6.83263E+01-1.70552E+02-1.17679E+01-4.22255E+00
 -1       828 6.25284E+03 2.59153E+06 7.78329E+03 6.99560E+04 5.39588E+02-2.46513E+02
 -1       829-5.08554E+02 2.58397E+06 7.15078E+03 5.03131E+04-1.45274E+04-1.96392E+03
 -1       830-2.56507E+02 2.58549E+06 7.83020E+03 5.00832E+04 1.49522E+04 2.04601E+03
 -1       831-4.31295E+03-1.38452E+03 5.38492E+01-1.81740E+03 1.10003E+01-4.43693E+00
 -1       832-5.44734E+03-1.88818E+03-1.35705E+02-1.73085E+03 6.73533E+02-1.36782E+02
 -1       833-5.47666E+03-1.73279E+03-1.82708E+02-1.68630E+03-6.60870E+02 1.23709E+02
 -1       834-8.81178E+04 5.47922E+05 1.15685E+05 1.79437E+05 1.37939E+04-1.71568E+04
 -1       835-1.50767E+05 5.06325E+05 9.20966E+04 9.55992E+04-8.64658E+03 9.86351E+03
 -1       836-1.42474E+05 6.71453E+05 1.58694E+05 1.96882E+05 6.68799E+04 8.10085E+03
 -1       837-1.25530E+05 4.85080E+05 1.07865E+05 1.21115E+05 1.93849E+03-7.55122E+03
 -1       838-2.08243E+05 5.94830E+05 1.15976E+05 1.08065E+05-5.68197E+04-8.13188E+03
 -1       839-1.11626E+05 1.12020E+05 1.50947E+03-1.64433E+05 1.36828E+03 3.89838E+02
 -1       840-3.79480E+03 1.16052E+05 3.49097E+04-1.29650E+05-4.55967E+03 2.21799E+04
 -1       841 5.98255E+04 1.24055E+05 5.43088E+04-1.14585E+05-9.26892E+03 3.33954E+04
 -1       842 1.08547E+05 1.32639E+05 6.02086E+04-1.11901E+05-8.13586E+03 3.74340E+04
 -1       843-2.62820E+05 9.62708E+04-4.99648E+04-2.06639E+05 1.57774E+03-5.16104E+03
 -1       844-6.42900E+04 1.09126E+05 1.34508E+04-1.44598E+05-3.12031E+03 1.02067E+04
 -1       845 2.69657E+04 1.20579E+05 4.42636E+04-1.22173E+05-8.84673E+03 2.89383E+04
 -1       846 9.34062E+04 1.36946E+05 6.91058E+04-1.14670E+05-1.17800E+04 3.85335E+04
 -1       847 1.58279E+05 1.65630E+05 9.72848E+04-1.21333E+05-1.53120E+04 4.97510E+04
 -1       848-1.17490E+05 1.17507E+05 9.49293E+02-1.69101E+05-2.03015E+02-4.34711E+03
 -1       849-1.15237E+04 1.13950E+05 3.13578E+04-1.28903E+05 5.48870E+03-2.12452E+04
 -1       850 6.60763E+04 1.26790E+05 5.79134E+04-1.16367E+05 1.09909E+04-3.59395E+04
 -1       851 1.17789E+05 1.41767E+05 7.65052E+04-1.12776E+05 1.18826E+04-4.44181E+04
 -1       852-2.69692E+05 1.05850E+05-4.91528E+04-2.19803E+05 2.18054E+03-7.13281E+03
 -1       853-6.82554E+04 1.09932E+05 1.25030E+04-1.47005E+05 3.73267E+03-1.22098E+04
 -1       854 2.73881E+04 1.19936E+05 4.41973E+04-1.21304E+05 9.04524E+03-2.95877E+04
 -1       855 8.93907E+04 1.34839E+05 6.72691E+04-1.13895E+05 1.17501E+04-3.84355E+04
 -1       856 1.51626E+05 1.62288E+05 9.42865E+04-1.20232E+05 1.55347E+04-5.04361E+04
 -1       857-2.15147E+05-3.03471E+04-7.23457E+04-4.74130E+04 1.45627E+04-4.29350E+04
 -1       858-1.62920E+05 3.42275E+03-4.63114E+04-6.19307E+04 1.11816E+04-2.64436E+04
 -1       859-9.42964E+04 5.33233E+04-1.37731E+04-9.24335E+04 3.32838E+03-7.28786E+03
 -1       860-2.25389E+04 1.39378E+05 2.96598E+04-1.53628E+05-4.31065E+03 2.76331E+04
 -1       861-2.49502E+05-4.63868E+04-8.88893E+04-4.46598E+04 1.45123E+04-4.78128E+04
 -1       862-1.92854E+05-1.67138E+04-6.28705E+04-5.56059E+04 1.19551E+04-3.90995E+04
 -1       863-1.28034E+05 2.53435E+04-3.08074E+04-7.69568E+04 5.42823E+03-1.77532E+04
 -1       864-5.02098E+04 9.42763E+04 1.32200E+04-1.22850E+05-2.23941E+03 7.32393E+03
 -1       865 1.60418E+05 3.06570E+05 1.40097E+05-2.75333E+05-1.25814E+04 4.11476E+04
 -1       866-5.70929E+04-4.30128E+05 8.51686E+04 2.42784E+05 7.83696E+04-4.03184E+04
 -1       867-1.73880E+04-9.74186E+04 1.42462E+03 6.66453E+04 5.10141E+03-1.40531E+04
 -1       868 1.56054E+05 5.38151E+04 1.86362E+03-8.83332E+04 5.27252E+03-8.27667E+03
 -1       869 2.27950E+05 3.04527E+04 4.32859E+03-8.39822E+04-2.91119E+03 1.31071E+04
 -1       870 3.95090E+04-3.27630E+03-2.55752E+03-5.21960E+04 6.82772E+02 1.84702E+04
 -1       871-1.00486E+05-2.31351E+04-9.30630E+03-2.92648E+04 4.82318E+03 6.82170E+03
 -1       872 8.26959E+03-2.25369E+04-4.88715E+04 2.03733E+04-3.89149E+04-5.00220E+04
 -1       873-9.57087E+04-1.16703E+06-1.02886E+05 2.81269E+05-4.87801E+04 3.10961E+04
 -1       874-6.33529E+04-2.33320E+05 1.16216E+04 1.34429E+05 1.96907E+04-3.17987E+04
 -1       875 6.73232E+04-1.66466E+04 9.23161E+02-2.05385E+04 7.00162E+03-8.81985E+03
 -1       876 2.15727E+05 4.21353E+04 4.65083E+03-9.71023E+04-3.22097E+02 1.62715E+03
 -1       877 1.36244E+05 2.07657E+04 3.00766E+02-6.26376E+04 3.10794E+03 2.30811E+04
 -1       878-4.90519E+04-1.63161E+04-5.89599E+03-4.10858E+04-3.96936E+03 1.68754E+04
 -1       879-5.87453E+04-5.45388E+03-8.69382E+03-1.72431E+03 3.21880E+03-9.87768E+03
 -1       880 2.93372E+05 3.92527E+05 7.83374E+04 3.53923E+05-8.94898E+02 1.48689E+04
 -1       881-2.14760E+05-2.99462E+04-7.21994E+04-4.79868E+04-1.44954E+04 4.27928E+04
 -1       882-1.59255E+05 4.40690E+03-4.47319E+04-6.30144E+04-1.05351E+04 2.52384E+04
 -1       883-1.03277E+05 5.11494E+04-1.67991E+04-9.34839E+04-4.61106E+03 6.67205E+03
 -1       884-2.96573E+04 1.43068E+05 3.00791E+04-1.63933E+05 2.65287E+03-2.10088E+04
 -1       885-2.49357E+05-4.60701E+04-8.87419E+04-4.49468E+04-1.43991E+04 4.74477E+04
 -1       886-1.91574E+05-1.57021E+04-6.21831E+04-5.62268E+04-1.18713E+04 3.88253E+04
 -1       887-1.28596E+05 2.68154E+04-3.05343E+04-7.87896E+04-5.35782E+03 1.75229E+04
 -1       888-5.47582E+04 9.82016E+04 1.30330E+04-1.28908E+05 1.40674E+03-4.60066E+03
 -1       889 1.26240E+05 3.10923E+05 1.31149E+05-2.93225E+05 1.12336E+04-3.67397E+04
 -1       890-7.17590E+04-4.56148E+05 5.60106E+04 2.16327E+05-6.25980E+04 4.74998E+04
 -1       891-6.42281E+02-1.11737E+05 2.53742E+03 6.06257E+04-1.12903E+04 1.73343E+04
 -1       892 1.75163E+05 4.31512E+04 6.48623E+03-7.38868E+04 1.10577E+03 8.42099E+03
 -1       893 2.06111E+05 4.97848E+04 1.04671E+04-8.58377E+04 2.87743E+03-5.06814E+03
 -1       894 4.38222E+04-1.78039E+03-4.44634E+03-4.16559E+04-8.68934E+02-1.92305E+04
 -1       895-1.07062E+05-2.60325E+04-8.68594E+03-3.25186E+04-3.78658E+03-5.65825E+03
 -1       896 8.92174E+03-4.82449E+04-6.88341E+04 2.70956E+04 4.20556E+04 4.92674E+04
 -1       897-3.63651E+04-1.19182E+06-1.01275E+05 2.57851E+05 8.68765E+04 1.39793E+03
 -1       898-2.48305E+04-2.40344E+05 6.97164E+03 1.34774E+05-1.83582E+04 3.32461E+04
 -1       899 8.27959E+04-1.94367E+04 4.32100E+03-1.52057E+04-8.02336E+03 1.67234E+04
 -1       900 2.06408E+05 4.18568E+04 3.45816E+03-9.40544E+04 2.45694E+03 1.21604E+03
 -1       901 1.53850E+05 3.51405E+04 7.21876E+03-6.44338E+04 3.55272E+03-1.82420E+04
 -1       902-5.75997E+04-1.71869E+04-7.81040E+03-3.88547E+04 3.43645E+03-1.30404E+04
 -1       903-5.94669E+04-1.48092E+04-1.19534E+04-6.89225E+03-8.53452E+03 1.34545E+04
 -1       904 3.04842E+05 3.74296E+05 9.99965E+04 3.50576E+05-6.31528E+03-7.26391E+03
 -1       905 3.68856E+05-4.03491E+05 1.15665E+03-2.12408E+05-2.37660E+04-2.68303E+04
 -1       906 3.13358E+05-5.19454E+05-3.73700E+04-1.68561E+05 1.52400E+04 1.24592E+04
 -1       907 4.95868E+05-4.44602E+05 1.53798E+04-2.60507E+05-8.91932E+04-1.41523E+04
 -1       908 3.11576E+05-4.32667E+05-3.63276E+04-1.98507E+05-1.37793E+04-8.72889E+02
 -1       909 3.67094E+05-5.90807E+05-6.71143E+04-1.95859E+05 9.95071E+04 6.93367E+03
 -1       910 3.56460E+01 4.65385E+01 2.79372E+00-4.34471E+01 1.02659E+01-1.18394E+01
 -1       911 3.37733E+01 1.19359E+01-1.41823E+00-2.22323E+01 2.82867E+00-3.95573E+00
 -1       912 4.31591E+00-3.51823E+01 1.57553E+00-3.76052E+00 8.15531E+00-1.39234E+00
 -1       913-6.62085E+00-8.29248E+01-7.08280E-01 2.21487E+01 1.98180E+01-9.58562E+00
 -1       914-3.72656E+01-1.53400E+02 1.57838E+00-7.34954E+01-8.60723E+00-6.17636E+00
 -1       915 5.61035E+00-2.30926E+02 9.90876E-02-4.08546E+01 2.67231E+01 1.18749E+01
 -1       916-2.01564E+02-1.27041E+02-1.17253E+00-1.52305E+02-2.95208E+00-1.84206E+01
 -1       917-6.40252E+01-1.78465E+02 4.32871E-01-1.18621E+02-1.86193E+01-5.40433E+00
 -1       918 1.45494E+02-1.89963E+01-7.90285E+00-5.44192E+01-1.66187E+00-2.96821E+01
 -1       919 4.84427E+02 5.25866E+00 1.74608E+01 4.52486E+01-2.43453E+01-3.39655E+01
 -1       920 7.38980E+02 1.05771E+02 4.07627E+01-1.90688E+02-2.70608E+01 1.02399E+01
 -1       921 4.81760E+02-9.63524E+00-1.04314E+01 2.33894E+01-5.53642E+00 2.44223E+01
 -1       922-5.54296E+01-2.22265E+02-1.20891E+01 1.13893E+02-3.69375E+01 2.03413E+01
 -1       923-2.03414E+02-1.06474E+02 1.50128E+00 1.60420E+02-2.70409E+01 3.43461E+01
 -1       924-7.77675E+00-2.57988E+02-4.57688E+00 5.21001E+01 2.72633E+01-1.61253E+01
 -1       925-3.86687E+01-1.92333E+02 1.14861E-01 7.61067E+01 2.98822E+00 6.52343E+00
 -1       926-1.01963E+01-1.21742E+02-1.21106E-01-2.31829E+01 7.64615E+00 1.25696E+01
 -1       927 2.76685E+00-5.67948E+01 2.53253E-01 7.25565E-01 5.88172E+00-5.58202E-01
 -1       928 2.30650E+01 3.81463E+00-1.08660E+00 1.20722E+01 5.32779E+00 5.19011E+00
 -1       929 2.47754E+01 3.51037E+01-8.82731E-01 3.62872E+01 7.82366E+00 9.24235E+00
 -1       930 1.18216E+02 4.71116E+00-9.70138E-01 2.32298E+01-4.25776E+00-1.63251E+00
 -1       931 1.45955E+02 9.14027E+00 1.93110E+00 2.91806E+01 3.89508E+00 5.72127E+00
 -1       932 1.47833E+02 1.06281E+01-4.16790E-01-3.20321E+01-3.66609E-01-8.82771E+00
 -1       933 1.27016E+02 6.85633E+00-1.78859E-01-2.92107E+01-5.46986E+00 3.60004E+00
 -1       934-3.77340E+01-1.88851E+02-4.62307E-01 7.89195E+01-3.95179E+00-6.29893E+00
 -1       935-5.73049E+00-1.20736E+02 1.08289E+00-2.54222E+01-5.05520E+00-1.31209E+01
 -1       936 3.81279E+00-5.65900E+01 1.22807E+00 8.09874E-01-7.38433E+00-1.06048E+00
 -1       937 2.22111E+01 4.42006E+00 5.74802E-01 1.26710E+01-3.12750E+00-5.52034E+00
 -1       938 3.01776E+01 3.76443E+01 1.58339E+00 3.70727E+01-1.00104E+01-1.01048E+01
 -1       939 1.16572E+02 5.77803E+00 2.17876E+00 2.21768E+01 5.73004E+00 2.94423E+00
 -1       940 1.45329E+02 1.09989E+01-2.26733E-01 2.99733E+01 1.65050E+00-1.10082E+01
 -1       941 1.47637E+02 1.09402E+01 6.56161E-01-3.03258E+01-3.11647E-01 9.79014E+00
 -1       942 1.26802E+02 6.60860E+00-1.35523E+00-2.85911E+01 5.63019E+00-4.28067E+00
 -1       943 3.82960E+01 4.54590E+01 1.49235E+00-4.51425E+01-7.60540E+00 9.22898E+00
 -1       944 3.50406E+01 1.19805E+01 8.50583E-02-2.19059E+01-3.41695E+00 3.58072E+00
 -1       945 4.97799E+00-3.46232E+01 3.16574E+00-3.39212E+00-7.27808E+00-1.29075E+00
 -1       946-1.11222E+00-7.92595E+01 2.84315E+00 2.41688E+01-2.41351E+01 5.90813E+00
 -1       947-3.13435E+01-1.48973E+02 4.84057E+00-7.55792E+01 1.12670E+01 2.26788E+00
 -1       948-7.31267E+00-2.36302E+02-8.11627E+00-4.02586E+01-2.47529E+01-5.80504E+00
 -1       949-1.96645E+02-9.98291E+01 2.04254E+00-1.52398E+02 2.08073E+01 2.87985E+01
 -1       950-7.14439E+01-1.85204E+02-7.98190E+00-1.16780E+02 1.82239E+01 6.11912E+00
 -1       951 1.47325E+02-1.91800E+01-8.16649E+00-5.40890E+01 1.59862E+00 2.98791E+01
 -1       952 4.82713E+02 6.42769E+00 2.20417E+01 4.32212E+01 2.50876E+01 3.41627E+01
 -1       953 7.44193E+02 1.08493E+02 4.14943E+01-1.94439E+02 3.05006E+01-1.16462E+01
 -1       954 4.83193E+02-1.15261E+01-1.11920E+01 2.54611E+01 6.03102E+00-2.53230E+01
 -1       955-4.77191E+01-2.12481E+02 1.95846E-01 1.18826E+02 3.90996E+01-1.92041E+01
 -1       956-2.05779E+02-1.17937E+02-4.77928E+00 1.59708E+02 2.49411E+01-3.39355E+01
 -1       957-7.97938E+00-2.58702E+02-4.69864E+00 5.25709E+01-2.72447E+01 1.62012E+01
 -1       958 2.31920E+01 2.48017E+01-7.37204E+00-3.17011E+01 3.52725E+00-3.83227E+00
 -1       959 2.73008E+01 2.30028E+01-7.58661E+00-2.76993E+01-4.05101E+00 4.20719E+00
 -1       960 2.21733E+01 1.73847E+01-6.26867E+00-2.19441E+01 4.49219E+00-4.54839E+00
 -1       961 1.99763E+01 2.18946E+01-9.69130E+00-2.45511E+01 3.78080E-01-8.85293E-01
 -1       962 1.54347E+01 2.24832E+01-6.34472E+00-1.98523E+01-5.01890E+00 4.91083E+00
 -1       963 1.56577E+02 7.01745E+01 4.92650E+01-6.03161E+01-2.29163E-02-2.36996E+00
 -1       964 1.28599E+02 5.96270E+01 3.68628E+01-4.51160E+01 3.69056E+00 2.36190E+00
 -1       965 2.20374E+02 9.70068E+01 6.19830E+01-9.47513E+01 1.49422E+00-4.80206E+00
 -1       966 1.48944E+02 6.80785E+01 4.94993E+01-5.11177E+01-5.55474E-01-2.15149E+00
 -1       967 1.63082E+02 8.05651E+01 4.15086E+01-6.40216E+01 2.71780E+00 6.86733E+00
 -1       968 1.00349E+02-2.47292E+00-1.91546E+01-3.05447E+01-3.21311E-01-1.73553E+00
 -1       969 9.63769E+01 2.28022E+00-1.86349E+01-2.94845E+01-4.70888E-01 1.71614E+00
 -1       970 9.02059E+01 3.31095E+00-1.17919E+01-2.47016E+01 2.20664E+00-1.77441E+00
 -1       971 9.53051E+01 3.84247E+00-1.82474E+01-2.63803E+01-5.48269E-02 4.70851E-01
 -1       972 9.30753E+01 6.12496E+00-1.23681E+01-2.64722E+01-1.81318E+00 9.56724E-01
 -1       973 2.02025E+02 5.12305E+01 5.29195E+01-2.90708E+00-2.06575E+00-2.10009E+00
 -1       974 2.38995E+02 5.05775E+01 6.40121E+01-1.80127E+00 3.62916E-01-2.97787E+00
 -1       975 2.48468E+02 6.20542E+01 5.25264E+01 3.10234E+00-6.10188E+00 5.57639E-01
 -1       976 3.70503E+02 7.14770E+01 1.12655E+02 2.86901E+00 1.39399E+00-2.07919E+00
 -1       977 3.48072E+02 6.42697E+01 8.31093E+01-1.12760E+01 3.09153E+00-2.35455E+00
 -1       978 9.13135E+01 1.62550E+00-1.72023E+01 2.58106E+01 5.70557E-01 2.71806E+00
 -1       979 1.01259E+02-1.21377E+00-1.60830E+01 2.98355E+01-2.24325E-01-2.60677E+00
 -1       980 8.35615E+01 3.52449E+00-1.25012E+01 2.49891E+01 2.11203E+00 2.47189E+00
 -1       981 9.22464E+01 5.07006E+00-1.61833E+01 2.44492E+01 6.35461E-02-2.56442E-01
 -1       982 8.49888E+01 2.68912E+00-1.19297E+01 2.42093E+01-2.38674E+00-2.56509E+00
 -1       983 1.40712E+02 6.11060E+01 4.46003E+01 5.53966E+01 7.10422E-01 3.12908E+00
 -1       984 1.43771E+02 6.28217E+01 4.46085E+01 5.39779E+01-2.71322E-01-4.28895E+00
 -1       985 1.98573E+02 8.57629E+01 5.67816E+01 8.46463E+01 1.70841E+00 5.38349E+00
 -1       986 1.49985E+02 7.04114E+01 5.25495E+01 5.67512E+01 1.31359E+00 6.00708E-01
 -1       987 1.91835E+02 8.29943E+01 5.56786E+01 8.50810E+01-3.63350E+00-5.14679E+00
 -1       988 1.85691E+01 1.61268E+01-4.92546E+00 2.11486E+01 4.33733E+00 5.13632E+00
 -1       989 1.74476E+01 1.68402E+01-4.42705E+00 2.27305E+01-3.91087E+00-4.42143E+00
 -1       990 9.75374E+00 1.76636E+01-4.61551E+00 1.42070E+01 5.08612E+00 5.08186E+00
 -1       991 1.28659E+01 1.53748E+01-7.10356E+00 1.83619E+01-1.78987E-01-1.03051E-01
 -1       992 1.68778E+01 1.13626E+01-4.20854E+00 1.52817E+01-5.17963E+00-5.15370E+00
 -1       993 2.52039E+00-3.31647E+01-5.48977E+00 8.30917E-02 5.14983E+00 2.76962E+00
 -1       994 4.25187E+00-3.14151E+01-4.70777E+00-3.25662E-01-5.17999E+00-2.70699E+00
 -1       995 5.66590E+00-4.32708E+01-6.78753E+00-9.33403E-01 9.93314E+00 5.38692E+00
 -1       996 7.24842E-01-2.82095E+01-5.42276E+00 2.31505E-01-2.01387E-01 9.28991E-02
 -1       997 1.11999E+01-3.21710E+01-2.21562E+00 2.49191E+00-8.93287E+00-5.91409E+00
 -1       998 2.43477E+00-7.36841E+01 1.32837E+01-2.15843E+01 8.33510E+00 2.50851E+00
 -1       999 3.50673E+00-7.00990E+01 1.52944E+01-1.90828E+01-8.40779E+00-2.73862E+00
 -1      1000 3.91299E+00-5.34489E+01 1.32512E+01-1.68037E+01 8.79806E+00 3.70406E+00
 -1      1001-4.04415E+00-6.68673E+01 1.10189E+01-1.71362E+01-2.84906E-01 6.60774E-01
 -1      1002 3.66710E+00-5.55009E+01 1.23775E+01-1.77929E+01-9.27846E+00-4.30811E+00
 -1      1003-6.24704E+01-2.37376E+02-5.97812E+01 1.84399E+01 6.72242E+00-4.27156E-01
 -1      1004-5.76752E+01-2.56567E+02-6.38121E+01 1.46199E+01-9.88225E+00 7.93455E-01
 -1      1005-6.08276E+01-2.59051E+02-5.05459E+01 2.06835E+01 1.04171E+01-4.11440E+00
 -1      1006-7.55421E+01-2.87418E+02-8.45542E+01 3.35922E+00 4.79412E-01 1.61248E+00
 -1      1007-5.82760E+01-2.60688E+02-5.40188E+01 2.55396E+01-9.64531E+00 3.33601E+00
 -1      1008 3.80460E+00-1.89053E+02 2.65125E+01 5.60716E+01 6.08778E+00-3.15625E+00
 -1      1009 4.36863E+00-1.89123E+02 2.59301E+01 5.51889E+01-5.66134E+00 3.17704E+00
 -1      1010 4.60942E+00-1.40976E+02 3.20470E+01 4.62629E+01 3.96219E+00 1.34601E+00
 -1      1011-5.09638E+00-1.77159E+02 2.71527E+01 5.03294E+01 1.52554E-01 2.83422E-02
 -1      1012 4.84109E+00-1.40929E+02 3.16807E+01 4.57920E+01-3.93618E+00-1.45150E+00
 -1      1013-2.06297E+02-3.29755E+02-1.28640E+02 1.51951E+02-1.45601E+01 3.44519E+00
 -1      1014-2.06759E+02-3.29983E+02-1.29463E+02 1.51676E+02 1.39189E+01-3.52494E+00
 -1      1015-2.45415E+02-4.23073E+02-1.18746E+02 1.81843E+02-1.38767E+01-7.26455E+00
 -1      1016-3.57787E+02-5.62165E+02-2.53843E+02 2.92929E+02-2.97867E-01 1.56787E-02
 -1      1017-2.46817E+02-4.21630E+02-1.18263E+02 1.82035E+02 1.43172E+01 7.16935E+00
 -1      1018-1.14309E+02-1.28900E+02-4.36041E+01 1.36483E+02-2.35777E+01 1.57802E+01
 -1      1019-1.17185E+02-1.36692E+02-4.82425E+01 1.42593E+02 2.07064E+01-1.60101E+01
 -1      1020-8.60545E+01-8.89454E+01-1.28977E+00 1.10290E+02-2.88042E+01 1.75096E+01
 -1      1021-1.37558E+02-1.23596E+02-6.61421E+01 1.26625E+02 1.23934E+00-6.11074E-01
 -1      1022-9.86313E+01-1.10201E+02-8.01148E+00 1.10345E+02 1.79673E+01-3.24887E+01
 -1      1023 2.28984E+02-1.84442E+02-2.10414E+01 1.69897E+02-1.41349E+01-1.33056E+01
 -1      1024 2.54673E+02-1.69066E+02-1.20285E+01 1.69665E+02 1.22441E+01 1.43797E+01
 -1      1025 2.60015E+02-8.97469E+01-6.47276E+00 8.89298E+01-2.98824E+01 3.36074E+01
 -1      1026 1.88578E+02-2.23845E+02-4.00042E+01 1.94808E+02-3.84677E-01 9.78026E-01
 -1      1027 2.53038E+02-9.51652E+01-1.09251E+01 8.90837E+01 2.82225E+01-3.18342E+01
 -1      1028 5.95543E+02-1.04440E+01 5.64608E-02-1.80280E+02-1.35427E+01 3.69400E+01
 -1      1029 5.98636E+02-9.19356E+00 2.25558E+00-1.78691E+02 1.40946E+01-3.89288E+01
 -1      1030 4.95553E+02 1.18395E+01-2.23505E+01-1.60717E+02-2.66520E+01 2.14156E+01
 -1      1031 5.34627E+02-3.61735E+01-1.20123E+01-1.51363E+02-1.98898E+00-3.19958E-01
 -1      1032 4.99575E+02 1.38753E+01-2.27023E+01-1.61762E+02 2.71601E+01-2.20537E+01
 -1      1033 7.66081E+02 2.12660E+02 2.35610E+02-1.10607E+02-8.28291E+00-1.44617E+01
 -1      1034 7.51570E+02 2.18359E+02 2.01388E+02-1.41087E+02 4.90118E+00 1.15128E+01
 -1      1035 8.80985E+02 2.36417E+02 1.99927E+02-7.25974E+01 1.29002E+00-2.23104E+01
 -1      1036 7.76265E+02 2.34010E+02 2.25209E+02-1.22861E+02-1.19908E+01-1.74806E+01
 -1      1037 8.89389E+02 2.43946E+02 2.01440E+02-7.81938E+01 4.44032E+00 3.46893E+01
 -1      1038 2.67694E+02-1.99990E+01-4.70890E+01 9.42234E+01-1.97422E+01-4.80462E+01
 -1      1039 2.67109E+02-1.92414E+01-4.92989E+01 9.63379E+01 1.93712E+01 4.73043E+01
 -1      1040 2.07794E+02-6.75984E+00-3.65680E+01 7.65906E+01-1.89907E+01-3.60570E+01
 -1      1041 2.29518E+02-5.66321E+01-5.83391E+01 6.14044E+01 4.12979E-01 1.84167E-01
 -1      1042 2.08216E+02-8.15960E+00-3.76012E+01 7.59637E+01 1.88515E+01 3.60410E+01
 -1      1043-1.24413E+01-1.45022E+02-4.02644E+01-1.03076E+02-3.82859E+00-8.92724E+00
 -1      1044-1.76401E+01-1.50054E+02-4.08176E+01-1.04388E+02 3.23209E+00 6.41149E+00
 -1      1045-3.43796E+01-1.23844E+02-4.11956E+01-9.37369E+01-1.79610E+01-3.16014E+01
 -1      1046-2.54606E+01-1.64662E+02-5.28030E+01-1.14049E+02 1.25419E-01 3.11040E-02
 -1      1047-3.49483E+01-1.25203E+02-4.21072E+01-9.32652E+01 1.82377E+01 3.15161E+01
 -1      1048-1.08426E+02-1.35550E+02-1.54480E+01-1.36981E+02-1.16053E+01-5.79968E+00
 -1      1049-1.06808E+02-1.30161E+02-1.10262E+01-1.32577E+02 1.32351E+01 6.27907E+00
 -1      1050-9.07186E+01-9.56449E+01 7.58512E+00-1.01907E+02-8.94362E+00-1.92432E+01
 -1      1051-1.34478E+02-1.18058E+02-2.57275E+01-1.22075E+02-2.57944E-01-6.10425E-01
 -1      1052-7.72746E+01-8.87246E+01 1.13954E+01-9.92319E+01 1.60611E+01 9.16670E+00
 -1      1053-2.27815E+02-3.50781E+02-1.39348E+02-1.70556E+02-4.36081E+00-1.56193E+00
 -1      1054-2.04509E+02-3.22261E+02-1.27541E+02-1.54194E+02 1.12361E+01 3.41028E+00
 -1      1055-2.46210E+02-4.17126E+02-1.23048E+02-1.88903E+02-6.59538E+00 3.78469E+00
 -1      1056-3.19081E+02-5.26421E+02-2.27670E+02-2.70378E+02 5.09391E-01 6.15792E-01
 -1      1057-2.32491E+02-4.00792E+02-1.16081E+02-1.57770E+02 6.53106E+00-7.79563E+00
 -1      1058-1.70018E+00-1.68135E+02 2.32833E+01-5.17788E+01 4.85777E+00 2.69252E+00
 -1      1059 6.04854E+00-1.75838E+02 2.36316E+01-5.01379E+01-6.21857E+00-2.74080E+00
 -1      1060-2.97615E+00-1.27010E+02 2.56569E+01-4.05154E+01 6.71207E+00-1.68225E+00
 -1      1061-1.14492E+01-1.69907E+02 1.90636E+01-4.32457E+01-2.00926E+00-7.92141E-02
 -1      1062 2.18887E+00-1.27393E+02 2.92216E+01-4.05245E+01-4.01596E+00 2.28406E+00
 -1      1063-4.81546E+01-2.45555E+02-6.40984E+01-1.68494E+01 8.65670E+00 3.79557E-01
 -1      1064-5.16844E+01-2.02981E+02-5.60458E+01-1.36963E+01-3.74644E+00-7.61353E-01
 -1      1065-6.06828E+01-2.37199E+02-5.17858E+01-2.42223E+01 7.92544E+00 3.09130E+00
 -1      1066-6.16765E+01-3.44820E+02-1.00617E+02-2.15890E+01 3.22419E+00 2.52040E+00
 -1      1067-6.99487E+01-3.36244E+02-8.41994E+01-2.42644E+01-1.04933E+01-5.03895E+00
 -1      1068-2.00445E+00-4.98920E+01 9.97548E+00 1.15900E+01 8.06288E+00-2.01073E+00
 -1      1069-1.14448E+00-5.45318E+01 9.98905E+00 1.29569E+01-5.32992E+00 1.58745E+00
 -1      1070 3.39332E-01-4.19351E+01 6.75723E+00 1.10299E+01 8.86467E+00-3.25387E+00
 -1      1071-4.20068E+00-4.91447E+01 9.73959E+00 1.39388E+01 8.66270E-01-1.21126E-01
 -1      1072 1.08966E+00-4.20589E+01 7.68158E+00 1.12198E+01-8.62717E+00 3.50664E+00
 -1      1073 1.73141E+01 1.81250E+00 4.35449E+00-1.29124E+01 4.72166E+00-2.81672E+00
 -1      1074 1.71374E+01-2.85493E+00 4.24890E+00-1.19159E+01-4.96166E+00 2.54273E+00
 -1      1075 2.37779E+01 6.49223E-01 4.42842E+00-1.49350E+01 7.28779E+00-4.83913E+00
 -1      1076 2.10727E+01 2.46590E+00 6.63222E+00-1.51238E+01-9.80386E-02-4.59572E-01
 -1      1077 1.95838E+01-4.61136E+00 2.21777E+00-1.45218E+01-7.39665E+00 3.50593E+00
 -1      1078 3.69799E+02-2.10077E+05 2.26186E+02 7.67665E+02-1.73852E+01-3.01520E-01
 -1      1079 5.94219E+01-2.42170E+05 1.79332E+02-4.93809E+00 1.09242E+02-3.40947E+01
 -1      1080-1.25877E+02-1.78444E+05-1.83066E+02 6.02779E+02-2.52493E+01 4.22351E+00
 -1      1081 4.07095E+01-1.22326E+06-4.70423E+01 1.98210E+02-2.02005E+02 1.54278E+01
 -1      1082 6.93091E+02-1.30254E+06 4.29401E+02 9.21308E+02 9.93898E+01 9.94734E+01
 -1      1083-4.13927E+02-1.14847E+06 2.21554E+02 1.54082E+03 5.06444E+01 6.97291E+00
 -1      1084 3.16396E+02-1.07750E+06 3.82183E+02 5.21780E+02-6.02867E+01-2.76965E+01
 -1      1085-2.83218E+02-9.39629E+05 8.58644E+01 1.39429E+03 1.42117E+01-4.62467E+01
 -1      1086 8.81013E+01-2.19144E+06 9.39573E+01 1.14062E+02 3.15358E+02-1.01154E+01
 -1      1087 5.68897E+01-1.00614E+06-1.78778E+02 6.19963E+02 5.67068E+01-6.97293E+01
 -1      1088 8.08517E+02-2.28196E+06 1.18049E+03 8.64144E+02-1.68228E+02 4.67491E+01
 -1      1089-2.27804E+02-2.09271E+06-9.34041E+01 1.59990E+03-3.22479E+01 1.11095E+02
 -1      1090 1.39083E+02-1.90173E+06 1.59129E+02 3.26354E+03-4.49490E+01 1.13193E+02
 -1      1091 2.66440E+02-1.80984E+06-1.14329E+01 7.18980E+02 2.86393E+01 1.40075E+02
 -1      1092 1.31239E+02-1.71850E+06-5.97581E+01 2.34752E+02 1.52561E+02-1.36407E+02
 -1      1093 6.61785E+02-1.54646E+06 7.77105E+02 1.01468E+03 4.64951E+01 8.32351E+01
 -1      1094-2.26062E+02-1.37803E+06-1.31894E+02 1.72805E+03 4.35181E+01 3.72765E+01
 -1      1095 5.15328E+02-8.77513E+05 5.04099E+02 6.89241E+02 1.20171E+01 1.07791E+02
 -1      1096 7.30980E+01-8.12698E+05-2.42541E+01 1.25131E+02 7.79104E+01-3.06158E+00
 -1      1097 5.44967E+02-6.96321E+05 3.55512E+02 5.96349E+02 1.69162E+01 9.43933E+01
 -1      1098 2.92512E+01-6.38658E+05 1.51938E-01 1.37795E+02-1.86094E+02-3.17264E+01
 -1      1099-1.85123E+02-5.84782E+05 6.80376E+01 1.09464E+03-7.68095E+01 2.08894E+01
 -1      1100 2.37770E+02-5.35141E+05 3.80503E+02 4.10891E+02 7.81700E+01-1.08616E+01
 -1      1101 1.81076E+02-4.85105E+05-1.52608E+02 2.37171E+02-7.91065E+01-8.46510E+01
 -1      1102 2.95083E+02-3.95753E+05 3.02483E+02 3.87836E+02 6.30623E+01-5.90623E+01
 -1      1103 1.95748E+01-3.52939E+05-1.13682E+00 2.13002E+02-5.58451E+01-8.98150E+01
 -1      1104 3.14566E+02-2.77957E+05 3.37977E+02 2.90716E+02-7.24845E+00-4.91279E+01
 -1      1105 7.02513E+01-1.26038E+05 8.62487E+01 3.77354E+02-4.31340E+01-1.78410E+01
 -1      1106 1.08957E+02-8.20576E+04 1.30456E+02-3.22964E+01-3.77903E+01 3.74821E+00
 -1      1107 7.97357E+01-6.30231E+04-6.74265E+00 2.96487E+02 3.06880E+01 1.69523E+01
 -1      1108 1.05573E+02-3.28262E+04 6.77189E+01 2.94709E+02-9.93815E+00-1.35935E+01
 -1      1109 7.93461E+01-2.12761E+04 4.24586E+01 3.28628E+02-4.13765E-01 1.81220E+01
 -1      1110 3.17352E+01-1.22427E+04 9.95310E+01 2.35214E+02 2.67211E+01 2.01610E+00
 -1      1111 1.19852E+02-5.82917E+03 7.86712E+01 1.09975E+02-2.04147E+01-2.47955E+01
 -1      1112 2.11435E+01-1.58225E+03 7.58531E+01 3.11792E+00 1.32484E+01 4.72602E-02
 -1      1113 1.53550E+02-1.99672E+06-3.74937E+01 3.60674E+03-1.56040E+02-1.44083E+02
 -1      1114-1.36229E+01-1.63031E+06 1.50972E+02 1.69187E+03-1.94245E+02-5.56819E+01
 -1      1115 2.38056E+01-1.45983E+06-7.31470E+01 1.58257E+02-7.94509E+01-2.52608E+02
 -1      1116-1.75195E+02-7.51765E+05-4.59382E+01 1.24642E+03 8.98358E+00-2.65166E+01
 -1      1117-2.09022E+02-4.38652E+05 5.60954E+01 9.45682E+02 5.74208E+01 1.16246E+01
 -1      1118-1.12684E+02-3.13417E+05 7.52760E+01 7.61957E+02 6.38401E+01 1.91180E+01
 -1      1119 2.45551E+01-1.51043E+05 4.38639E+01 3.02807E+02 8.27831E+01 3.50633E+00
 -1      1120 2.81046E+02-1.03454E+05 2.20541E+02 1.29304E+02 5.42561E+00 1.75459E+01
 -1      1121 3.55907E+01-4.65688E+04 3.41256E+01 3.26147E+02-4.12623E+01 2.12360E+00
 -1      1122 7.52869E+03-2.37474E+06 5.22985E+03 4.54357E+03 2.45485E+01 5.98711E+00
 -1      1123 9.76403E+01-2.54235E+01 7.88787E+01-1.27943E+02-1.14323E+00-4.40122E+00
 -1      1124-5.32454E+03-2.45448E+06-9.03579E+02 2.42292E+04 6.52336E+03-5.23821E+02
 -1      1125 7.85792E+03-2.45085E+06 4.09567E+03 2.52629E+04 6.62289E+02-1.29245E+02
 -1      1126 3.70024E+03-2.35170E+06 3.81219E+03 1.79211E+03 1.96240E+03 1.07218E+03
 -1      1127-5.24475E+03-2.45578E+06 2.37164E+02 2.41764E+04-6.97992E+03-2.68607E+02
 -1      1128 3.59018E+03-2.35490E+06 4.33001E+03 2.58107E+03-1.89715E+03-1.48688E+03
 -1      1129 5.73701E+01-3.02591E+02 3.55208E+01-8.44701E+01 4.84407E+00-2.39569E+01
 -1      1130 6.06674E+01 4.61766E+02 6.57913E+01-5.48786E+01 3.05181E+01-9.03927E+00
 -1      1131 9.83888E+01 5.32665E+02 1.22711E+02-7.82534E+01 2.23560E+00 6.40500E+00
 -1      1132 5.64610E+01 4.52924E+02 6.19393E+01-2.85085E+01-3.47383E+01 1.12307E+01
 -1      1133 4.52090E+01-2.84214E+02 4.39891E+01-8.90071E+01-8.11804E+00 2.26494E+01
 -1      1134 5.81185E+02-2.30807E+06 1.77738E+03 1.89784E+03-1.71142E+03-2.50983E+02
 -1      1135 8.50524E+01-2.26033E+06 7.91892E+01 8.54676E+02-8.56233E+02-2.41669E+02
 -1      1136-2.26176E+03-2.32290E+06 1.42913E+03 2.58632E+03-4.64582E+02 2.96650E+02
 -1      1137 6.42534E+02-2.21600E+06-3.12861E+02 4.37878E+02-5.58729E+02 2.80965E+02
 -1      1138-8.25130E+02-2.16690E+06 1.87498E+02 6.45251E+02-7.11648E+02-3.76603E+02
 -1      1139 4.38571E+02-2.23812E+06 7.15026E+02 1.02955E+03-4.95353E+01-2.24871E+02
 -1      1140 7.49259E+02-2.11912E+06 2.51221E+02 1.33880E+03-1.05208E+03 3.95717E+02
 -1      1141-7.45627E+02-2.07009E+06 2.47261E+02 1.53477E+03-1.18767E+03-4.39683E+02
 -1      1142-7.05636E+01-2.14261E+06-3.67279E+02 1.07992E+03 5.67582E+01 7.82151E+01
 -1      1143 1.07041E+03-2.02100E+06 1.61749E+02 1.82087E+03-1.54581E+03 1.64390E+02
 -1      1144-7.06964E+02-1.97366E+06-3.14402E+02 3.67234E+03-1.39379E+03-8.38966E+02
 -1      1145 9.14090E+00-2.04497E+06-2.75052E+02 2.35522E+03-4.88395E+01 7.20252E+01
 -1      1146 1.07356E+03-1.92452E+06 4.34605E+02 3.47732E+03-1.36354E+03 7.70265E+02
 -1      1147-7.45552E+02-1.87818E+06-6.64300E+01 1.68906E+03-1.44411E+03-2.48750E+02
 -1      1148 2.09904E+02-1.94909E+06 4.48835E+01 4.39072E+03-5.65052E+01 1.68437E+01
 -1      1149 5.08763E+02-1.83182E+06 1.43521E+02 8.82977E+02-1.10390E+03 3.09458E+02
 -1      1150-5.39254E+02-1.78515E+06 1.95513E+02 7.78308E+02-8.19242E+02-3.63684E+02
 -1      1151 4.20495E-01-1.85541E+06 2.20056E+02 1.77636E+03 2.65641E+01 9.43827E+01
 -1      1152 8.88155E+02-1.74100E+06-5.63747E+02 6.05917E+02-1.04410E+03 2.88285E+02
 -1      1153-2.99389E+02-1.69389E+06-6.75807E+00 8.80639E+02-7.00505E+02-1.97823E+02
 -1      1154 1.97150E+02-1.76272E+06 5.87780E+02 2.46442E+02 7.41741E+00-1.87013E+02
 -1      1155 5.40963E+02-1.65267E+06-1.37758E+02 1.40797E+03-1.46824E+03 4.50848E+02
 -1      1156-6.80958E+01-1.60729E+06 5.72087E+02 1.46355E+03-9.18347E+02-3.85005E+02
 -1      1157 5.24889E+02-1.67200E+06 6.57393E+02 1.15207E+03 3.75921E+02-4.60576E+02
 -1      1158 2.88856E+02-1.56715E+06 1.93366E+02 1.32415E+03-1.05809E+03 2.27003E+02
 -1      1159-6.89273E+02-1.52211E+06 6.71529E+02 1.23652E+03-7.00913E+02-6.52469E+02
 -1      1160 1.14847E+03-1.58617E+06 1.84226E+03 8.92288E+02 1.82626E+02 6.18201E+01
 -1      1161 7.04385E+02-1.48132E+06-5.41377E+02 4.90085E+02-8.01287E+02 2.68981E+02
 -1      1162-9.52731E+01-1.43843E+06 3.67524E+01 6.08045E+02-8.19528E+02-4.15870E+02
 -1      1163 6.13674E+02-1.50119E+06 1.14310E+03 4.94322E+02 1.99443E+01-2.21126E+02
 -1      1164 6.56753E+02-1.39822E+06 1.82748E+02 1.65149E+03-9.67844E+02 3.50779E+02
 -1      1165-1.39111E+02-1.35819E+06 3.24128E+01 1.45449E+03-8.72343E+02-2.41232E+02
 -1      1166-1.69869E+02-1.41806E+06-5.22999E+02 1.46485E+03-6.04433E+01-1.25117E+02
 -1      1167 4.23895E+02-1.32136E+06 8.03129E+01 1.16250E+03-9.87615E+02 2.08151E+02
 -1      1168-2.70923E+02-1.28033E+06 6.25506E+02 1.16287E+03-6.27104E+02-5.59615E+02
 -1      1169 6.03035E+02-1.33931E+06 1.12643E+03 1.00007E+03 1.25850E+02 1.41337E+02
 -1      1170 2.36008E+02-1.24336E+06-3.64123E+02 4.05712E+02-7.91959E+02 2.69686E+02
 -1      1171-2.15590E+02-1.20348E+06 3.85386E+02 5.89466E+02-7.18470E+02-3.47466E+02
 -1      1172 6.53648E+02-1.26121E+06 8.27811E+02 3.99677E+02 5.74721E+01 4.73232E+01
 -1      1173 4.18217E+02-1.16699E+06 3.47327E+02 1.46925E+03-7.96460E+02 2.82785E+02
 -1      1174-5.10863E+02-1.13053E+06 1.40368E+01 1.19507E+03-8.55194E+02-2.19468E+02
 -1      1175-2.47888E+02-1.18494E+06-2.14586E+02 1.34671E+03 6.40227E+01-7.85290E+01
 -1      1176 5.80864E+02-1.09627E+06-3.54925E+02 9.36900E+02-8.33066E+02 3.31676E+02
 -1      1177-3.96844E+02-1.05843E+06 4.20462E+02 7.50100E+02-8.77352E+02-4.86323E+02
 -1      1178 3.69992E+02-1.11348E+06 1.13673E+03 7.06792E+02-5.41250E+01-1.84683E+02
 -1      1179 7.05277E+02-1.02506E+06-1.26457E+02 5.44185E+02-6.22798E+02 2.31400E+02
 -1      1180-2.56833E+02-9.89967E+05-1.51682E+02 7.22273E+02-6.28137E+02-1.85716E+02
 -1      1181-1.25182E+02-1.04207E+06-7.32290E+02-6.61546E+01-1.15202E+02 2.37820E+02
 -1      1182 4.50306E+02-9.56398E+05 1.79655E+02 1.30991E+03-8.04877E+02 2.64890E+02
 -1      1183-2.36389E+02-9.23406E+05 3.70783E+01 1.23136E+03-7.87648E+02-2.19739E+02
 -1      1184-3.08936E+02-9.73082E+05-4.19314E+02 1.38518E+03 5.86938E+01-1.23303E+02
 -1      1185 2.91484E+02-8.93066E+05 1.40060E+02 9.48222E+02-8.66967E+02 1.98185E+02
 -1      1186-3.85868E+02-8.59189E+05 4.88730E+02 8.58866E+02-5.64720E+02-4.59843E+02
 -1      1187 4.64469E+02-9.07771E+05 1.07163E+03 7.79112E+02 2.41097E+01 1.24849E+02
 -1      1188 4.50919E+02-8.28647E+05-1.88324E+02 3.27980E+02-5.92627E+02 2.21835E+02
 -1      1189-4.00859E+02-7.96933E+05 2.19380E+02 5.56873E+02-5.17528E+02-3.16911E+02
 -1      1190 5.45904E+02-8.43588E+05 8.55215E+02 2.39245E+02-5.10407E+01-2.03753E+02
 -1      1191 6.35866E+02-7.66737E+05 2.27680E+02 1.16500E+03-7.37694E+02 2.17210E+02
 -1      1192-1.51302E+02-7.37223E+05-3.01579E+01 1.08741E+03-6.66345E+02-1.86716E+02
 -1      1193-1.21901E+02-7.81414E+05-2.98409E+02 1.09513E+03-1.52004E+01 8.96009E+01
 -1      1194 3.22949E+02-7.10158E+05 7.99731E+01 8.41255E+02-7.75370E+02 1.82099E+02
 -1      1195-1.59527E+02-6.79935E+05 5.10908E+02 7.97740E+02-4.73777E+02-4.17476E+02
 -1      1196 4.52961E+02-7.23311E+05 8.47883E+02 6.69949E+02 1.94288E+01 8.93956E+01
 -1      1197 1.90294E+02-6.53182E+05-2.60996E+02 2.31021E+02-5.84645E+02 1.70830E+02
 -1      1198-1.30137E+02-6.24373E+05 2.78303E+02 5.14334E+02-5.46984E+02-3.01892E+02
 -1      1199 5.44271E+02-6.66098E+05 7.16311E+02 2.16795E+02 9.79183E+00 1.58593E+01
 -1      1200 3.74343E+02-5.98037E+05 2.41813E+02 1.09209E+03-6.53479E+02 2.08637E+02
 -1      1201-2.86808E+02-5.72030E+05 2.09661E+01 8.86208E+02-6.30526E+02-1.38876E+02
 -1      1202-1.47923E+02-6.10968E+05-1.80891E+02 9.86516E+02-5.81643E+01-6.81960E+01
 -1      1203 4.13520E+02-5.47845E+05-1.67181E+02 7.62188E+02-6.39428E+02 2.52046E+02
 -1      1204-3.25875E+02-5.21552E+05 1.02865E+02 6.31370E+02-4.70742E+02-2.86476E+02
 -1      1205 3.28033E+02-5.59803E+05 7.86193E+02 5.08255E+02-9.79555E+01-6.33716E+01
 -1      1206 5.12342E+02-4.97902E+05-2.39407E+02 2.31202E+02-5.67664E+02 1.45751E+02
 -1      1207-9.75966E+00-4.73235E+05 9.70867E+01 3.91034E+02-4.05704E+02-2.12233E+02
 -1      1208 1.14505E+02-5.09629E+05-7.33237E+00 1.15849E+02-3.47746E+01-1.99519E+02
 -1      1209 3.19997E+02-4.50189E+05 2.05083E+02 9.07493E+02-4.70706E+02 1.82868E+02
 -1      1210-2.42847E+02-4.27682E+05-1.23689E+01 7.35365E+02-4.99719E+02-1.08842E+02
 -1      1211-1.13305E+02-4.61551E+05-2.27550E+02 9.18788E+02 6.60003E+01-3.44858E+01
 -1      1212 4.44013E+02-4.06844E+05-2.11697E+02 6.61051E+02-5.80788E+02 2.45765E+02
 -1      1213-1.74546E+02-3.84116E+05 8.96063E+01 5.49654E+02-3.74875E+02-2.19119E+02
 -1      1214 3.26945E+02-4.17045E+05 6.90073E+02 4.23691E+02-1.06202E+01-8.74935E+01
 -1      1215 3.00484E+02-3.63921E+05-1.66640E+02 1.33971E+02-4.44317E+02 1.23234E+02
 -1      1216-8.18098E+01-3.42820E+05 1.43463E+02 3.69818E+02-3.72177E+02-2.29684E+02
 -1      1217 9.42805E+01-3.73873E+05 4.23337E+01 1.34111E+02-3.52853E+01-2.09297E+02
 -1      1218 3.08376E+02-3.23177E+05 2.35759E+02 7.43899E+02-4.38067E+02 1.41251E+02
 -1      1219-1.68244E+02-3.04093E+05 4.56431E+01 6.00615E+02-4.01336E+02-1.04972E+02
 -1      1220-1.43496E+02-3.32859E+05-1.11804E+02 7.69475E+02 5.59694E+01-3.08343E+01
 -1      1221 3.70548E+02-2.86569E+05-6.17893E+01 5.17610E+02-4.67218E+02 1.08475E+02
 -1      1222-1.44133E+02-2.67688E+05 1.35454E+02 3.70393E+02-3.49688E+02-2.53745E+02
 -1      1223 2.57136E+02-2.95165E+05 6.38889E+02 3.37551E+02 2.72706E+01-5.66003E+01
 -1      1224 3.14199E+02-2.50735E+05-1.03506E+02 1.98436E+02-3.46720E+02 9.19010E+01
 -1      1225-7.43090E+01-2.32841E+05 1.72924E+02 2.31264E+02-2.31248E+02-1.09868E+02
 -1      1226 4.10430E+02-2.58858E+05 6.22384E+02 7.73425E+01 5.48978E+00-1.69857E+00
 -1      1227 3.17483E+02-2.17954E+05 1.20824E+02 4.45256E+02-4.58185E+02 9.03435E+01
 -1      1228 4.43154E+02-2.01815E+05 2.97945E+02 1.19731E+03-5.84639E+01-2.99550E+02
 -1      1229 2.40211E+02-2.25024E+05 4.76153E+02 2.99635E+02 1.66166E+02-6.61825E+01
 -1      1230 2.42863E+01-1.86769E+05-1.65847E+02 1.08386E+03-9.53176E+01 2.53287E+02
 -1      1231-2.17037E+02-1.71718E+05 4.36319E+01 4.51848E+02-3.40137E+02-1.39499E+02
 -1      1232 2.67667E+02-1.94103E+05 5.54540E+01 1.04028E+03 2.50892E+01-3.87156E+01
 -1      1233 3.31046E+02-1.58177E+05 7.02729E+01 2.67521E+02-2.88350E+02 5.01350E+01
 -1      1234-1.98951E+02-1.44418E+05-5.95626E+01 3.05077E+02-2.13511E+02-2.39500E+01
 -1      1235-2.01245E+01-1.65052E+05-3.19067E+02 1.74959E+02-5.39975E+01 5.09694E+01
 -1      1236 2.46184E+02-1.32433E+05 2.08502E+01 3.35886E+02-3.91445E+02 1.17580E+02
 -1      1237 8.17211E+01-1.19675E+05 2.20538E+02 3.97587E+02-2.30124E+02-1.02378E+02
 -1      1238 8.66906E+01-1.38177E+05 2.02735E+02 3.77598E+02 1.12128E+02-1.05316E+02
 -1      1239 1.66309E+02-1.08966E+05 4.67685E+01 2.98753E+02-3.15643E+02 4.04615E+01
 -1      1240 4.90390E+01-9.71278E+04 2.56514E+02 2.94602E+02-1.68747E+02-1.81860E+02
 -1      1241 3.61897E+02-1.14007E+05 5.53008E+02 7.91315E+01 4.03557E+01 7.66867E+00
 -1      1242 6.54635E+01-8.71745E+04 1.84055E+01 4.01407E+01-2.28303E+02 3.51679E+01
 -1      1243-8.10473E+01-7.68918E+04 1.79574E+02 2.43710E+02-1.37923E+02-1.37738E+02
 -1      1244 3.81997E+02-9.17989E+04 4.80507E+02-2.08566E+01 2.86177E+00-5.16861E+00
 -1      1245 3.02573E+02-6.75997E+04 1.00588E+02 2.97887E+02-1.76653E+02 6.83076E+01
 -1      1246 1.38617E+01-5.88525E+04 1.02420E+02 3.55646E+02-1.58183E+02-1.14593E+02
 -1      1247 1.82810E+02-7.20326E+04 2.69304E+02 7.32575E+01-1.03255E+02 3.82051E+01
 -1      1248 1.47633E+02-5.08455E+04 6.48780E+01 2.50877E+02-2.15195E+02 6.13017E+01
 -1      1249-5.87756E+01-4.31798E+04 7.91530E+01 2.58225E+02-2.19437E+02-8.07924E+01
 -1      1250-1.35688E+02-5.48900E+04-1.68273E+02 3.19035E+02-3.49818E+01 8.58008E+00
 -1      1251 2.16086E+02-3.62652E+04 9.15946E+01 1.23201E+02-1.74566E+02 2.07119E+01
 -1      1252-2.15783E+01-2.99662E+04 9.46377E+00 2.31766E+02-1.35718E+02-6.01641E+01
 -1      1253-6.61028E+00-3.98659E+04-8.33093E+01 1.67630E+02-2.47421E+01 2.92771E+01
 -1      1254 1.78459E+02-2.41639E+04 1.13642E+02 1.78544E+02-1.48539E+02 3.80702E+01
 -1      1255 4.27618E+01-1.91187E+04 9.70951E+01 2.43589E+02-8.31314E+01-6.15356E+01
 -1      1256 1.34655E+02-2.70200E+04 8.78388E+01 3.24460E+02-1.10060E+01-1.52528E+01
 -1      1257 1.47262E+02-1.44373E+04 9.22472E+01 1.91766E+02-1.23402E+02 3.43242E+01
 -1      1258 4.39986E+01-1.04254E+04 5.29096E+01 1.45361E+02-8.53503E+01-4.14803E+01
 -1      1259-3.53656E+00-1.67432E+04-1.20216E+01 3.16676E+02-2.22014E+01 2.15397E+01
 -1      1260 1.11914E+02-7.34304E+03 4.35522E+01-6.15695E+01-1.25539E+02-2.83483E+01
 -1      1261 5.81431E+01-4.55606E+03 8.94555E+01 1.35672E+02-2.09628E+01-6.22244E+01
 -1      1262 6.51115E+01-8.85305E+03 1.26364E+02 1.01528E+02 2.83454E+01-3.65547E+01
 -1      1263 9.29894E+01-2.42359E+03 8.44439E+01 5.74897E+01-2.49847E+01 3.07716E+00
 -1      1264 8.11968E+01-9.60836E+02 6.65506E+01-6.06098E+01 1.03002E+01-4.74470E+00
 -1      1265 5.48974E+01-3.47452E+03 1.02161E+02 1.76672E+02 1.55101E+01-3.60295E+00
 -1      1266 8.36136E+01-7.44468E+02 1.08402E+02-1.07856E+02 5.27456E+00-9.71945E+00
 -1      1267 1.81240E+02-2.26043E+06 4.13374E+02 7.79477E+02 9.13758E+02 3.00028E+02
 -1      1268-1.12923E+02-2.30792E+06 1.39330E+03 1.92446E+03 1.39119E+03 8.57306E+01
 -1      1269-3.88191E+02-2.16643E+06 3.63311E+02 5.61848E+02 1.01713E+03 3.74981E+02
 -1      1270 2.19422E+02-2.21654E+06-4.54384E+02 2.93310E+02 8.63794E+02-2.45068E+02
 -1      1271-3.50353E+02-2.06953E+06-7.14571E+01 1.46769E+03 1.29626E+03 4.40854E+02
 -1      1272 6.40126E+02-2.11907E+06-3.51803E+02 1.50891E+03 1.04262E+03-5.02326E+02
 -1      1273-7.92208E+02-1.97421E+06 9.19534E+01 3.66521E+03 1.08794E+03 7.58359E+02
 -1      1274 7.71524E+02-2.02093E+06 5.77404E+02 1.84364E+03 1.51413E+03-2.25490E+02
 -1      1275-6.91483E+02-1.87821E+06-4.28336E+02 1.53101E+03 1.41011E+03 1.87542E+02
 -1      1276 1.16087E+03-1.92412E+06 1.25032E+02 3.52926E+03 1.14433E+03-7.06870E+02
 -1      1277-2.27526E+02-1.78495E+06-9.34279E+01 7.38091E+02 9.74632E+02 3.86436E+02
 -1      1278 7.86754E+02-1.83142E+06-3.19858E+02 8.83311E+02 1.10649E+03-3.41079E+02
 -1      1279-4.39086E+02-1.69504E+06 5.07577E+02 8.54449E+02 8.73788E+02 4.68393E+02
 -1      1280 3.56887E+02-1.74117E+06-1.78074E+02 2.36964E+02 1.01272E+03-2.96859E+02
 -1      1281-4.30915E+02-1.60705E+06-2.02703E+01 1.55868E+03 1.02924E+03 4.02529E+02
 -1      1282 7.33618E+02-1.65082E+06 4.25502E+02 2.03115E+03 8.53072E+02-2.48140E+02
 -1      1283-3.29298E+02-1.52211E+06 2.64979E+02 1.06051E+03 8.09983E+02 5.57236E+02
 -1      1284 6.66731E+02-1.56630E+06-2.58232E+02 1.43515E+03 1.04799E+03-3.16174E+02
 -1      1285-6.60225E+02-1.43882E+06 5.31415E+02 7.09258E+02 6.49922E+02 3.42901E+02
 -1      1286 1.39731E+02-1.48161E+06-2.67178E+01 4.61303E+02 8.03984E+02-3.48779E+02
 -1      1287-4.27759E+02-1.35835E+06-1.70294E+02 1.40891E+03 9.09109E+02 2.17428E+02
 -1      1288 8.23666E+02-1.39833E+06 3.05729E+02 1.58470E+03 8.99480E+02-2.88786E+02
 -1      1289-2.90140E+02-1.28023E+06 1.12451E+01 8.96649E+02 8.01339E+02 4.47413E+02
 -1      1290 7.94261E+02-1.32081E+06-3.36392E+02 1.24556E+03 1.01384E+03-3.05139E+02
 -1      1291-4.65668E+02-1.20412E+06 2.53032E+02 6.81141E+02 5.82410E+02 3.85320E+02
 -1      1292 5.37747E+02-1.24287E+06-2.45596E+02 4.56317E+02 6.56531E+02-3.15293E+02
 -1      1293-3.40213E+02-1.13041E+06 1.34242E+02 1.37925E+03 8.77811E+02 2.68759E+02
 -1      1294 6.09050E+02-1.16697E+06 3.66977E+02 1.45377E+03 9.22252E+02-2.42787E+02
 -1      1295-2.71247E+02-1.05793E+06 6.54009E+02 7.97561E+02 8.19175E+02 5.30012E+02
 -1      1296 1.75441E+02-1.09692E+06-2.19748E+02 9.39255E+02 9.34939E+02-3.52165E+02
 -1      1297-4.47918E+02-9.90162E+05 2.53337E+02 8.66323E+02 6.69998E+02 2.86745E+02
 -1      1298 4.71902E+02-1.02538E+06-4.75828E+01 5.59438E+02 6.61302E+02-1.95714E+02
 -1      1299-3.73788E+02-9.23389E+05 4.68288E+00 1.14773E+03 7.51533E+02 1.98021E+02
 -1      1300 6.11783E+02-9.56208E+05 4.30089E+02 1.32747E+03 7.83020E+02-2.15006E+02
 -1      1301-1.42859E+02-8.59191E+05 2.09235E+02 7.48180E+02 6.25260E+02 4.21880E+02
 -1      1302 6.13066E+02-8.92516E+05-2.00686E+02 9.96907E+02 7.93682E+02-2.08415E+02
 -1      1303-7.61338E+01-7.96590E+05 3.05476E+02 5.49122E+02 5.67850E+02 3.37924E+02
 -1      1304 1.87172E+02-8.29106E+05-2.85880E+02 3.11205E+02 6.49836E+02-2.42854E+02
 -1      1305-2.85756E+02-7.37282E+05-3.67057E+01 1.00356E+03 6.65189E+02 1.45293E+02
 -1      1306 4.46844E+02-7.66760E+05 2.14222E+02 1.23790E+03 6.93355E+02-2.38018E+02
 -1      1307-1.59941E+02-6.79970E+05 7.39592E+01 6.22115E+02 5.56413E+02 3.58523E+02
 -1      1308 6.28096E+02-7.09751E+05-2.19888E+02 8.84236E+02 7.24541E+02-2.00506E+02
 -1      1309-3.86843E+02-6.24751E+05 2.19157E+02 5.11474E+02 3.95134E+02 2.80164E+02
 -1      1310 3.46138E+02-6.52854E+05-1.42520E+02 3.05669E+02 4.68814E+02-2.19432E+02
 -1      1311-1.52180E+02-5.71951E+05 3.37035E+01 9.23382E+02 5.41505E+02 1.72169E+02
 -1      1312 5.46199E+02-5.98008E+05 2.49675E+02 1.02021E+03 6.11498E+02-1.83282E+02
 -1      1313-3.66710E+02-5.21136E+05 4.91876E+02 5.43939E+02 6.54383E+02 3.94235E+02
 -1      1314 1.60109E+02-5.48174E+05-7.21741E+01 5.94205E+02 6.55776E+02-1.79076E+02
 -1      1315-3.10035E+02-4.73358E+05 1.53894E+02 5.48729E+02 4.38869E+02 2.30963E+02
 -1      1316 4.73533E+02-4.97982E+05 3.53697E+01 4.04063E+02 4.34740E+02-1.01369E+02
 -1      1317-1.27847E+02-4.27476E+05 6.33708E+01 8.25579E+02 5.33602E+02 1.68127E+02
 -1      1318 4.45781E+02-4.50080E+05 2.02135E+02 8.94516E+02 5.65822E+02-1.53657E+02
 -1      1319-2.66573E+02-3.83680E+05 4.71428E+02 4.77998E+02 5.32348E+02 3.46955E+02
 -1      1320 1.97249E+02-4.06919E+05-2.02597E+01 5.40395E+02 5.58543E+02-1.31684E+02
 -1      1321-4.31872E+02-3.42937E+05 1.87904E+02 5.10330E+02 4.11143E+02 1.83617E+02
 -1      1322 3.02935E+02-3.63934E+05 1.04724E+02 3.17998E+02 3.53668E+02-7.23363E+01
 -1      1323-7.55194E+01-3.04030E+05 5.14153E+01 6.87341E+02 4.60504E+02 1.21880E+02
 -1      1324 4.53291E+02-3.23110E+05 1.98159E+02 7.53289E+02 5.36182E+02-1.44271E+02
 -1      1325-8.64068E+01-2.67617E+05 3.51146E+02 4.57600E+02 3.15129E+02 2.76259E+02
 -1      1326 1.93114E+02-2.86769E+05 8.53972E+01 4.79502E+02 4.99002E+02-1.03478E+02
 -1      1327-2.71364E+02-2.33422E+05 2.52218E+02 3.01498E+02 2.79744E+02 1.69162E+02
 -1      1328 8.05726E+01-2.50835E+05 2.38747E+01 8.45062E+01 3.62673E+02-9.53778E+01
 -1      1329 3.46668E+02-2.01720E+05 1.12274E+02 1.22252E+03 9.49074E+01 2.80316E+02
 -1      1330 5.35297E+02-2.17136E+05 2.20764E+02 7.14526E+02 2.73395E+02-4.63763E+01
 -1      1331-1.58133E+02-1.71510E+05-9.04218E+00 4.36453E+02 3.18879E+02 1.17846E+02
 -1      1332 4.22959E+01-1.86746E+05-1.89043E+02 1.09389E+03 9.10308E+01-2.79708E+02
 -1      1333-1.76082E+02-1.44845E+05 7.11735E+01 3.51573E+02 2.69355E+02 1.26815E+02
 -1      1334 1.98324E+02-1.58259E+05 2.91966E+01 2.15186E+02 2.73632E+02-5.39882E+01
 -1      1335-5.60519E+01-1.19667E+05 2.55339E+01 3.82240E+02 2.51431E+02 9.90656E+01
 -1      1336 3.20117E+02-1.31792E+05 1.94230E+02 5.27621E+02 2.63300E+02-6.06068E+01
 -1      1337-1.60446E+01-9.71454E+04 1.19275E+02 2.25996E+02 1.88456E+02 1.58058E+02
 -1      1338 2.64785E+02-1.08830E+05-3.09833E+01 3.14531E+02 2.91078E+02-6.53105E+01
 -1      1339 9.06374E-01-7.64862E+04 1.57336E+02 1.49280E+02 1.37087E+02 7.18958E+01
 -1      1340 1.82324E+02-8.71179E+04-7.25242E+01 9.70302E+01 2.38780E+02-4.76039E+01
 -1      1341 1.06181E+02-5.87349E+04 1.34833E+02 3.33026E+02 2.06703E+02 1.09462E+02
 -1      1342 1.99238E+02-6.81251E+04-7.01445E+01 2.09552E+02 2.91443E+02-9.83399E+01
 -1      1343-2.52166E+01-4.31436E+04 4.70618E+01 2.18063E+02 2.02599E+02 6.86812E+01
 -1      1344 1.46763E+02-5.08403E+04 2.83013E+01 3.00003E+02 1.99786E+02-8.48073E+01
 -1      1345-5.25625E+01-3.00199E+04 7.31945E+01 2.48605E+02 1.10213E+02 6.25710E+01
 -1      1346 1.47729E+02-3.63624E+04 1.05570E+02 1.41939E+02 1.62432E+02-2.39902E+01
 -1      1347 6.93113E+01-1.89940E+04 4.54614E+01 2.43099E+02 1.22179E+02 6.96174E+01
 -1      1348 2.23006E+02-2.41477E+04 4.50794E+01 2.01154E+02 1.26948E+02-2.57938E+01
 -1      1349-1.51735E+01-1.05896E+04 7.90794E+01 1.26759E+02 9.70202E+01 4.29321E+01
 -1      1350 1.37534E+02-1.44474E+04 1.11260E+02 1.72728E+02 1.33243E+02-3.35501E+01
 -1      1351 8.83115E+00-4.58965E+03 4.92195E+01 1.64070E+02 1.98619E+01 5.77599E+01
 -1      1352 1.29216E+02-7.13735E+03 1.28996E+02 7.95947E+01 6.05690E+01 3.79046E+00
 -1      1353 9.44854E+01-9.23674E+02 7.78082E+01-4.36350E+01 1.09186E-01 7.79323E+00
 -1      1354 9.72192E+01-2.42824E+03 7.91863E+01 6.30168E+01 3.93843E+01-4.84054E+00
 -1      1355-1.13210E+05-2.35437E+06-1.22364E+04 4.63352E+05-7.34108E+02-4.20255E+03
 -1      1356-1.81859E+05-1.85107E+06-1.33884E+04 5.66592E+05 1.19118E+03 3.03352E+03
 -1      1357-2.77354E+05-1.21601E+06-5.88122E+04 5.88811E+05-9.72155E+02 2.14218E+03
 -1      1358-5.87709E+04-2.65070E+06-2.19243E+04 2.09520E+05-1.14648E+03 1.91970E+03
 -1      1359-3.32958E+05-8.09744E+05-5.98385E+04 4.94648E+05-1.04477E+03 1.15053E+02
 -1      1360-5.82612E+04-2.68488E+06-3.82568E+04 1.22780E+05-2.31706E+02 1.73249E+03
 -1      1361-1.96881E+04-2.66538E+06-1.75828E+04 1.29651E+05 6.18112E+03-3.27549E+03
 -1      1362-4.98834E+04-2.64498E+06-1.13981E+04 2.62776E+05-9.14626E+03-4.30450E+03
 -1      1363-1.87115E+04-2.65911E+06-2.08156E+04 1.26358E+05-8.36022E+03 2.52387E+03
 -1      1364-4.87611E+04-2.61327E+06-1.41345E+04 2.66757E+05 1.08925E+04 5.92073E+03
 -1      1365-3.35035E+05-8.63388E+05-3.97639E+04 5.59867E+05-4.51229E+04 3.49283E+04
 -1      1366-3.18181E+05-6.76213E+05-5.39317E+04 4.40796E+05-4.97989E+04 4.79742E+04
 -1      1367-3.45760E+05-7.16204E+05-2.45456E+04 4.53219E+05-7.67243E+01 6.00570E+01
 -1      1368-3.19659E+05-6.78726E+05-5.49131E+04 4.40188E+05 5.00762E+04-4.80584E+04
 -1      1369-3.31345E+05-8.71304E+05-3.95215E+04 5.62259E+05 4.14495E+04-3.49578E+04
 -1      1370-2.58660E+05-1.39997E+06-2.43839E+04 6.01336E+05-2.73720E+04 2.88240E+03
 -1      1371-3.06697E+05-1.11992E+06-3.97192E+04 5.81849E+05-4.16777E+04 2.15490E+04
 -1      1372-3.28649E+05-9.59083E+05-8.00482E+04 5.77211E+05-2.95253E+03 3.44774E+03
 -1      1373-1.56624E+05-1.97357E+06-2.69153E+03 5.53996E+05-1.37412E+04-3.56988E+03
 -1      1374-2.28450E+05-1.71016E+06-1.75146E+04 6.02986E+05-2.15910E+04 8.83910E+03
 -1      1375-2.29264E+05-1.56875E+06-3.51780E+04 5.98693E+05-5.79263E+02 2.06369E+03
 -1      1376-7.15165E+04-2.49043E+06-1.24950E+04 3.91384E+05 5.81601E+02-1.19291E+04
 -1      1377-1.42540E+05-2.26500E+06-1.60314E+04 4.97614E+05-1.38309E+04 2.98036E+03
 -1      1378-1.66204E+05-2.13294E+06-2.39438E+04 5.21944E+05-2.41987E+02-2.15523E+03
 -1      1379-8.71518E+04-2.59507E+06-4.02850E+04 3.57662E+05-8.53815E+03-4.57418E+02
 -1      1380-3.13082E+05-1.10638E+06-3.96734E+04 5.83629E+05 4.25235E+04-1.87328E+04
 -1      1381-2.50367E+05-1.39133E+06-2.53242E+04 5.98955E+05 2.73292E+04-2.99881E+03
 -1      1382-2.35272E+05-1.70717E+06-1.43126E+04 5.98759E+05 2.03305E+04-8.98200E+03
 -1      1383-1.55236E+05-1.97535E+06 5.13746E+03 5.49180E+05 1.01186E+04 3.47844E+03
 -1      1384-1.38459E+05-2.26500E+06-9.29214E+03 5.01960E+05 1.23637E+04-6.43972E+03
 -1      1385-8.73593E+04-2.53659E+06-2.33175E+04 4.14275E+05 2.92621E+03 4.30357E+03
 -1      1386 1.87126E+01 3.63736E+02 2.14314E+01 5.58596E+01 6.89751E-02 7.87935E-02
 -1      1387 3.51939E+01 2.46313E+02 3.96594E+01 1.14007E+02 3.62783E-01 2.93808E-01
 -1      1388 6.75996E+01 2.31395E+02 3.90751E+01 1.14451E+02-5.09624E+00 2.95462E+00
 -1      1389 6.50032E+01 2.31128E+02 3.96684E+01 1.14328E+02 4.68201E+00-4.13847E+00
 -1      1390 1.24340E+01 6.30317E+02 2.09907E+01 5.41196E+01-3.46706E+01 2.80295E+00
 -1      1391 1.24264E+01 6.27645E+02 2.08196E+01 5.40472E+01 3.43484E+01-2.30552E+00
 -1      1392 2.37695E+01 6.85392E+02 4.21127E+01 7.10285E+01 2.96582E+01-1.56767E+01
 -1      1393 1.16332E+01 6.47522E+02 2.45167E+01 2.47871E+01 2.44705E+01-6.06335E+00
 -1      1394 2.22372E+01 5.54709E+02 1.53807E+01 4.86340E+01 4.13998E+01 4.92697E+00
 -1      1395 1.00588E+01 6.54526E+02 2.36818E+01 2.12618E+01-2.53119E+01 9.77857E+00
 -1      1396 2.33121E+01 6.89307E+02 4.79573E+01 7.04716E+01-3.09317E+01 1.46087E+01
 -1      1397 2.27383E+01 5.54156E+02 1.51849E+01 4.88402E+01-4.25448E+01-4.79792E+00
 -1      1398 9.06507E+01 2.32829E+02 3.52633E+01 1.21465E+02-1.71019E+01 4.05692E+00
 -1      1399 3.27165E+01 2.64009E+02 1.64555E+01 1.09377E+02-1.16227E+00-8.00682E-01
 -1      1400 8.72065E+01 2.27503E+02 4.07727E+01 1.17988E+02 2.99543E-01 1.80936E+00
 -1      1401 3.17651E+01 2.62340E+02 1.50893E+01 1.09514E+02 3.91522E-01 1.04808E+00
 -1      1402 9.40482E+01 2.33462E+02 3.67783E+01 1.20979E+02 1.55998E+01-3.07998E+00
 -1      1403 8.67194E+01 2.26469E+02 4.02311E+01 1.18556E+02 2.88688E-01-1.92031E+00
 -1      1404 1.15233E+01 6.58561E+02 2.09920E+01 3.93910E+01 1.37180E-01-2.23072E-01
 -1      1405 2.00443E+01 2.75924E+02 5.74165E+00 7.80101E+01-1.12516E+01-1.21357E+00
 -1      1406-1.80180E+01 4.26277E+02 5.36405E+00 5.58335E+01-2.72376E+01 3.78942E+00
 -1      1407 2.85039E+01 5.62060E+02 3.57477E+01 5.55289E+01-1.49805E+01-1.28674E+00
 -1      1408 2.90263E+01 2.49093E+02 2.15367E+01 1.01385E+02-4.99667E+00-1.27253E+00
 -1      1409 3.65543E+01 2.89494E+02 3.48531E+01 8.82103E+01 2.73246E-01 1.48223E-01
 -1      1410 5.26170E+01 2.51280E+02 4.34605E+01 1.15889E+02-3.78021E+00-4.39778E-01
 -1      1411-1.78965E+01 4.28147E+02 6.06494E+00 5.59053E+01 2.68126E+01-3.61170E+00
 -1      1412 2.02143E+01 2.75238E+02 5.50512E+00 7.77935E+01 1.12576E+01 1.44107E+00
 -1      1413 2.82822E+01 5.61619E+02 3.62355E+01 5.53759E+01 1.48861E+01 1.58079E+00
 -1      1414 2.92810E+01 2.48785E+02 1.99991E+01 1.00893E+02 5.03199E+00 1.37506E+00
 -1      1415 5.04303E+01 2.48769E+02 4.07482E+01 1.15644E+02 3.62477E+00-1.00633E+00
 -1      1416 7.47581E+01 2.53702E+02 4.85513E+01 1.16390E+02 9.69186E-02-1.25797E-01
 -1      1417 2.07482E+04 2.23071E+04-3.08552E+02 4.58247E+04 3.89942E+01-7.45593E+02
 -1      1418 3.61269E+03-2.05371E+04 3.15972E+02 1.28582E+05 4.68680E+02-2.67472E+02
 -1      1419-4.77485E+03-5.12386E+01-1.39241E+01 7.33511E+03 4.19825E+00 2.18059E+01
 -1      1420-5.04014E+03 2.08331E+02 1.53085E+01 1.68275E+04-7.95679E+00 3.30182E+01
 -1      1421-5.05755E+03 2.71340E+02 1.62829E+01 2.58262E+04 6.49764E+00-3.38367E+01
 -1      1422-5.07180E+03-1.04748E+03 7.67160E+01 3.49703E+04-1.82419E+01 1.06137E+00
 -1      1423-5.03584E+03-1.33363E+03-6.75891E+01 4.40155E+04-3.09140E+01-1.02697E+02
 -1      1424-5.05745E+03-2.42345E+03-1.79747E+01 5.31998E+04 7.76065E+01 8.27767E+00
 -1      1425-4.64514E+03-2.20613E+04 6.44163E+01 6.17121E+04 1.77242E+00 1.43339E+01
 -1      1426-4.41852E+03-4.25800E+04-3.56810E+02 7.00144E+04 7.64484E+01-1.89863E+02
 -1      1427-4.42521E+03-5.47745E+04-1.72554E+01 7.88446E+04-2.79618E+01 1.07181E+01
 -1      1428-4.47779E+03-6.83351E+04-5.54557E+01 8.88090E+04-2.43852E+02 2.25416E+02
 -1      1429-4.50458E+03-8.25299E+04-1.93624E+02 9.73348E+04 7.58777E+00 2.24703E+02
 -1      1430-4.93019E+03-1.45731E+04 1.95519E+02 1.22149E+05-1.92584E+02 5.20766E+01
 -1      1431-4.89505E+03-3.65426E+03-4.87589E+01 1.05129E+05 2.41702E+00-4.41516E+02
 -1      1432-4.76176E+03-6.37280E+04-2.59841E+01 1.13519E+05-2.51207E+01-1.97802E+02
 -1      1433 7.85245E+04 8.09466E+05-1.00321E+03-3.18485E+04 1.86225E+03-2.57012E+03
 -1      1434-7.23911E+04-7.74862E+05 9.23161E+02-5.38647E+04-1.91535E+03-1.23033E+03
 -1      1435-2.19470E+03-4.87386E+02-2.44352E+00 2.17682E+03-9.59840E-01 1.62847E+00
 -1      1436-7.67232E+03 4.42751E+05 6.20366E+02 9.05508E+04-3.06536E+02 3.04494E+02
 -1      1437-7.46195E+03 3.68958E+05-4.92477E+01 8.26087E+04-1.85388E+02-6.09807E+01
 -1      1438-7.34191E+03 3.01329E+05 1.45432E+01 7.40384E+04-4.64202E+01 2.98706E+00
 -1      1439-7.63218E+03 2.39817E+05 2.88694E+02 6.73019E+04-2.48749E+02 2.02681E+02
 -1      1440-7.45911E+03 1.78728E+05 4.11586E+02 5.97779E+04-3.24743E+02 2.53624E+02
 -1      1441-7.50216E+03 1.33850E+05 2.50711E+02 5.13734E+04-6.27858E+01 5.32007E+01
 -1      1442-7.21578E+03 9.56860E+04 1.27328E+02 4.34682E+04-5.72196E+01 1.88725E+02
 -1      1443-7.46098E+03 6.32724E+04-8.37032E+01 3.53837E+04 1.38043E+02 1.87147E+01
 -1      1444-2.61840E+03-6.92065E+03-3.03917E+01 1.07712E+04 1.27258E+01-2.21989E+01
 -1      1445-2.71030E+03-1.97773E+04 2.33092E+02 1.88075E+04 1.06697E+02-1.49530E+01
 -1      1446-7.36033E+03 3.75592E+04 1.39516E+01 2.73646E+04 3.95371E+01 6.23940E+01
 -1      1447-2.56659E+03-4.47982E+05-4.08881E+01 9.11731E+04 1.12139E+02 1.66765E+02
 -1      1448-6.38521E+03 1.42282E+03 2.27816E+01 8.28810E+02 8.36546E+00 1.08760E+01
 -1      1449-7.94629E+03 5.64602E+05 4.04744E+02 9.67210E+04-1.01692E+02-2.28866E+01
 -1      1450-2.34150E+03-3.72848E+05-6.11315E+02 8.29580E+04-4.64096E+02 1.08459E+02
 -1      1451-2.58940E+03-3.05446E+05 4.13327E+02 7.41205E+04 1.13640E+01 6.96146E+01
 -1      1452-2.81508E+03-2.44328E+05 8.04442E+02 6.64592E+04 1.30617E+02 1.63362E+01
 -1      1453-2.33699E+03-1.88763E+05-3.55072E+02 5.82418E+04 6.65861E+01 8.33476E+01
 -1      1454-2.36490E+03-1.40846E+05-3.09532E+02 5.03350E+04 2.22680E+02-5.18365E+01
 -1      1455-2.51400E+03-1.00517E+05-2.56388E+01 4.24732E+04-8.11245E+01-7.25240E+00
 -1      1456-2.41455E+03-6.65139E+04 1.57506E+01 3.48751E+04-2.55108E+01-6.19029E+00
 -1      1457-2.61261E+03-3.85802E+04-4.67872E+01 2.65583E+04 5.84023E+01 9.53809E+01
 -1      1458-7.30736E+03 1.92292E+04-5.78179E+00 1.90409E+04 3.75450E+01-2.84215E+01
 -1      1459-7.69260E+03 7.13232E+03-2.78984E+01 1.02885E+04 3.60961E+00 3.04476E+01
 -1      1460-2.43443E+03-5.47528E+05 7.38418E+01 9.79576E+04 1.71376E+01 1.68151E+02
 -1      1461-7.73755E+03-8.73841E+05-4.84261E+02 9.75960E+04 1.86363E+01 1.04741E+02
 -1      1462 3.10614E+04 8.60695E+05-3.07027E+02 1.22966E+05-5.45827E+02 5.90283E+01
 -1      1463-2.23202E+03-6.98456E+05-5.45658E+02 1.01818E+05 7.12986E+02 1.41642E+02
 -1      1464-8.76740E+02-7.73883E+05-3.33709E+02 1.08534E+05 2.25887E+02 1.31430E+02
 -1      1465-5.44899E+03 7.66761E+05 1.14211E+02 1.09476E+05-3.81706E+02 1.86079E+02
 -1      1466-7.87356E+03 6.88879E+05 1.61580E+02 1.01497E+05-3.83425E+02-1.04698E+02
 -1      1467 1.11830E+05 1.18720E+06 5.40806E+02 1.05184E+05-6.40080E+02-2.52043E+03
 -1      1468-8.06619E+04-1.14236E+06-6.49412E+02 6.77638E+04 9.12343E+02 9.47039E+02
 -1      1469-7.98172E+03 3.22250E+03-1.04291E+01 5.29150E+03-1.74785E+01 3.10898E+01
 -1      1470-8.59403E+03 3.36205E+05-3.82576E+02 5.22575E+04-1.15878E+02-1.56519E+02
 -1      1471-8.71711E+03 4.13823E+05-2.35812E+01 6.08701E+04-2.27016E+02 5.27854E+01
 -1      1472-8.52491E+03 2.56062E+05 1.95512E+02 4.53011E+04-2.27698E+02-1.36345E+02
 -1      1473-8.29310E+03 1.69903E+05-3.03518E+01 4.11591E+04-1.84228E+02-1.77728E+02
 -1      1474-8.85095E+03 5.10630E+05-2.03358E+02 6.77533E+04-6.19125E+01 3.29632E+02
 -1      1475 8.32842E+02-1.14748E+06 6.63611E+01 9.09141E+04 5.48349E+01 1.67291E+02
 -1      1476-8.33416E+03 1.17283E+05-2.58029E+00 3.40527E+04-2.18961E+02 1.07338E+01
 -1      1477-9.37796E+03 6.27168E+05 7.08842E+02 7.34340E+04-6.75275E+01 5.10018E+01
 -1      1478-8.37753E+03 7.43856E+04-2.73461E+01 2.75587E+04-9.44649E+01 2.57745E+01
 -1      1479-1.73217E+03-4.18977E+03-5.33400E-01 5.61573E+03 2.80329E+01 9.77288E+00
 -1      1480-1.36593E+03-1.92695E+04 5.38539E+01 1.22796E+04-3.49753E-01-3.20705E+01
 -1      1481-8.24334E+03 3.92342E+04 4.38155E+01 2.04769E+04-6.26449E+01 7.19842E+00
 -1      1482-1.75900E+03-3.85707E+04-5.45290E+00 2.03766E+04 6.91942E+01 2.66422E+01
 -1      1483-1.54037E+03-7.74357E+04 9.17191E+01 2.61848E+04 7.89838E+01-7.13936E+00
 -1      1484-8.45919E+03 1.73858E+04 2.55412E+01 1.30898E+04-2.54048E+01-3.21603E+00
 -1      1485-1.39219E+03-1.21896E+05-1.47373E+02 3.28326E+04 1.46138E+02-4.83834E+00
 -1      1486-1.53827E+03-1.77858E+05-3.94555E+01 4.01805E+04-2.87624E+01 5.86128E+01
 -1      1487-1.57570E+03-2.44928E+05 1.11059E+02 4.59674E+04 2.04278E+02-1.53059E+02
 -1      1488-1.82254E+03-3.09379E+05-2.92013E+01 5.41996E+04 2.10745E+02 1.74922E+02
 -1      1489-1.49209E+03-3.93261E+05-4.26572E+01 6.05628E+04 1.59489E+02 6.74017E+01
 -1      1490-1.42203E+03-4.87258E+05-1.10991E+01 6.82520E+04 8.55851E+01-1.90912E+02
 -1      1491-1.44359E+03-5.90975E+05-6.65042E+01 7.44148E+04 3.52347E+02 2.97990E+01
 -1      1492-1.56905E+03-7.66772E+05 2.59106E+02 7.68552E+04 1.61510E+02-2.88993E+01
 -1      1493-9.23310E+03 1.19496E+06 6.33112E+02 7.69708E+04-2.84889E+02 4.39254E+01
 -1      1494-8.35597E+03 7.46014E+05-9.64244E+02 8.08834E+04-3.14248E+01-5.66061E+02
 -1      1495-1.99519E+03-7.45418E+05 1.07552E+02 9.47776E+04 5.92001E+02-8.04388E+01
 -1      1496-1.02646E+03 1.06149E+06-8.58487E+02 1.10100E+05-2.43842E+02 3.83561E+02
 -1      1497-8.05937E+03 8.44509E+05-1.47155E+02 8.74835E+04-8.94674E+01-2.35814E+02
 -1      1498-1.24691E+03-9.42517E+05 4.74720E+01 9.64490E+04 7.98787E+01-1.15296E+01
 -1      1499 8.63781E+04 1.25712E+06 7.24183E+02 5.27661E+04 1.51796E+04-3.53268E+03
 -1      1500-5.36497E+02-4.53307E+02 3.78498E+00 4.58958E+02 1.00322E+00 1.38532E+01
 -1      1501-7.14330E+03-5.08865E+03 4.33661E+03-1.26527E+05 2.02055E+03-6.44431E+02
 -1      1502-9.69023E+04-1.23499E+06-7.71013E+02 4.75595E+03-1.41439E+04-3.03170E+03
 -1      1503-9.02599E+03 6.83105E+03 4.44660E+00 6.46077E+03 1.06684E+01 2.27198E+01
 -1      1504 1.55755E+05 1.55685E+06-4.77014E+03 1.21396E+05-2.06508E+03-1.75402E+03
 -1      1505 1.30394E+04 4.05043E+04-2.71068E+03-4.79768E+04-9.51946E+02-1.89609E+03
 -1      1506-2.54818E+03 2.86335E+02-1.94639E+01 7.40050E+02-2.50812E+00-3.45100E+00
 -1      1507-5.03581E+03 8.70372E+02 4.41518E+00 4.41919E+03 2.38040E+00 8.36824E+00
 -1      1508-6.66033E+02-2.71919E+03-1.57617E+01 2.54354E+03-4.41883E+00 1.39145E+01
 -1      1509-9.42534E+03 3.97138E+05 1.93748E+02 3.97016E+04 9.93230E+01 3.98966E+01
 -1      1510 1.53964E+04-6.05966E+04 1.61190E+02 1.06880E+05 2.17246E+01-1.21297E+02
 -1      1511-9.45262E+03 5.09132E+05-3.16725E+01 4.59007E+04 8.63028E+01 5.06127E-01
 -1      1512-9.27089E+03 2.99910E+05-2.05384E+02 3.44668E+04-2.10512E+02 7.67189E+01
 -1      1513-8.91226E+03 6.34726E+05-4.24681E+02 5.00281E+04-1.30336E+02-2.41412E+01
 -1      1514-9.08609E+03 7.74293E+05 3.83411E+02 5.51432E+04 2.02927E+01-2.48509E+02
 -1      1515-9.43609E+03 2.13084E+05 1.64780E+02 2.93697E+04 7.48503E+01 3.75913E+01
 -1      1516-1.62319E+05-1.29369E+06 6.62998E+03 3.99930E+05-1.67658E+04 3.51444E+02
 -1      1517-2.00500E+03-9.60778E+02-1.11148E+02-1.47981E+03 9.22810E+01-1.88311E+01
 -1      1518-9.47822E+03 1.43056E+05 2.53548E+02 2.41532E+04-1.34027E+02 5.15232E+01
 -1      1519-9.33004E+03 8.67524E+04-3.25821E+01 1.89634E+04 3.70976E+00 3.94948E+01
 -1      1520-9.34991E+03 4.49391E+04 9.75402E+01 1.35721E+04-4.67318E+01 3.26425E+01
 -1      1521-9.12712E+03 9.25338E+05 1.07502E+02 6.06509E+04 1.54355E+02-4.56112E+01
 -1      1522-9.36726E+03 1.73096E+04-1.49332E+01 8.05042E+03 3.73355E+00 4.17489E+01
 -1      1523-5.70625E+03 4.12521E+04 1.11085E+02 1.19848E+05-1.63385E+02-5.83797E+01
 -1      1524-2.92245E+03 3.53506E+04-4.46989E+02 1.27538E+05 4.13628E+01 2.83980E+02
 -1      1525-5.70074E+02-8.62337E+04-1.32956E+02 1.83985E+04 2.04632E+01 6.31351E+01
 -1      1526-6.69001E+02-1.41529E+05 5.53873E+01 2.35112E+04 9.73912E+01 4.08596E+01
 -1      1527-6.92679E+02-2.11483E+05 2.06529E+02 2.87470E+04 1.18934E+02 1.06524E+02
 -1      1528-5.85525E+02-2.94231E+05-3.26965E+01 3.41488E+04-3.42390E+01 6.31095E+01
 -1      1529-6.36442E+02-1.65646E+04-6.24729E+01 8.06846E+03 3.31740E+01 1.35327E+01
 -1      1530-6.77560E+02-3.89676E+05 1.93248E+02 3.93904E+04 1.39265E+02 1.06339E+02
 -1      1531-7.26215E+02-9.53812E+03 2.91279E+01 5.97973E+03-5.73444E+00 2.32637E+01
 -1      1532-7.09153E+02-4.41132E+04-1.09481E+01 1.36545E+04 1.10626E+01-4.54302E+01
 -1      1533-5.30835E+02-4.99556E+05-2.41922E+02 4.47573E+04 1.20119E+02-1.34040E+02
 -1      1534-6.83766E+02-3.16296E+04-3.63027E+01 1.11712E+04 1.68113E+01 1.35199E+01
 -1      1535-4.33786E+02-6.22599E+05-4.10212E+02 4.97226E+04 3.62954E+01 1.99682E+00
 -1      1536-4.96793E+03 9.65366E+02-1.21691E+02 2.28051E+04-4.18023E+01-3.96274E+00
 -1      1537-5.22146E+02-7.59917E+05 5.26651E+01 5.57588E+04 2.02578E+02 2.92080E+02
 -1      1538-5.24478E+03 4.12087E+02 3.61974E+01 1.33160E+04-6.51042E+01-7.44171E+00
 -1      1539-7.27955E+02-9.18892E+05-2.12003E+01 5.90530E+04-4.38030E+01-8.08285E+01
 -1      1540-4.79031E+03-5.13867E+02-1.30723E+02 3.15163E+04-2.00060E+01-2.14544E+01
 -1      1541-4.84902E+03-1.75604E+03-1.20685E+02 4.05391E+04 5.71805E+01 1.73265E+02
 -1      1542-4.71757E+03-2.26002E+03-3.55720E+02 4.99939E+04 3.67399E+01 2.93200E+01
 -1      1543-5.07130E+03-4.65375E+03 2.76015E+02 5.81247E+04 1.02381E+02-7.02945E+01
 -1      1544-4.79665E+03-5.42327E+03 1.03049E+02 6.73891E+04 1.51008E+02 1.30908E+02
 -1      1545-4.53683E+03-1.01341E+04-9.70076E+01 7.67214E+04-2.79240E+02 1.94537E+02
 -1      1546-5.10115E+03-1.30825E+04 2.87406E+02 8.54705E+04 2.84388E+02 3.40082E-01
 -1      1547-4.87417E+03-1.52124E+04 1.19676E+02 9.50671E+04 9.74974E+01-7.46569E+01
 -1      1548-4.98126E+03-5.44779E+03-2.77186E+01 1.02669E+05 1.50850E+02 4.33739E+02
 -1      1549-5.28803E+03-1.19176E+04-2.52865E+01 1.11862E+05 3.26399E+02-1.33315E+02
 -1      1550-4.47060E+03-3.34713E+04-3.66785E+01 1.00243E+05 1.72448E+02-2.67108E+02
 -1      1551-4.47542E+03-2.82796E+04-6.37236E+02 9.10734E+04-1.15311E+02 1.08868E+02
 -1      1552-1.04430E+03-8.48345E+05 1.54430E+02 5.90747E+04 1.24971E+02-1.77409E+02
 -1      1553-2.90602E+02-1.05761E+06-6.10188E+02 6.70917E+04 1.31535E+02 2.13321E+02
 -1      1554-4.64765E+03-2.33780E+04 1.95427E+01 8.26529E+04 1.22191E+02 1.01322E+02
 -1      1555-5.05404E+03-1.33930E+04 2.20648E+02 7.33233E+04 7.38858E+01 1.28691E+02
 -1      1556-9.98064E+02-7.00944E+05-4.05295E+01 5.26961E+04 1.72067E+02 5.74871E+01
 -1      1557-4.86589E+03-8.13047E+03-8.55291E+01 6.53659E+04 3.44704E+01 9.31860E+01
 -1      1558-4.95650E+03-2.75044E+03-2.23320E+02 5.60259E+04 2.80015E+02-2.22854E+02
 -1      1559-9.55082E+02-5.70361E+05 3.39704E+01 4.91074E+04 1.58800E+02 1.02815E+02
 -1      1560-4.88480E+03-2.11528E+03 5.59510E+01 4.65629E+04-8.25553E+01 6.21495E+01
 -1      1561-4.87292E+03-8.73312E+02-1.16284E+02 3.83626E+04 7.65869E+01-1.17853E+02
 -1      1562-4.98669E+03-1.24154E+02-3.20131E-01 1.96856E+04-2.45489E+01 3.63470E+01
 -1      1563-5.10475E+03-3.98022E+02 7.79299E+01 2.87481E+04-1.57378E+02-2.30835E+01
 -1      1564-9.00076E+02-4.52732E+05 7.69158E+01 4.32498E+04 1.01651E+02-1.48175E+02
 -1      1565-5.08699E+03 1.25616E+01 9.84765E+00 1.06114E+04-1.12904E+01-9.55896E+00
 -1      1566-7.26110E+02-3.48964E+05-7.01454E+01 3.74203E+04 1.08930E+02 2.02261E+02
 -1      1567-6.04129E+02-2.57422E+05-5.25677E+02 3.22420E+04 1.19218E+01-2.86754E+01
 -1      1568-8.34819E+02-1.81273E+05 9.75746E+01 2.69893E+04 2.00376E+02 1.33158E+02
 -1      1569-3.68354E+04-1.55978E+06-1.49065E+03 8.94815E+04 6.96614E+02 1.00858E+02
 -1      1570-7.95489E+02-1.17622E+05-5.64782E+01 2.15205E+04 1.11502E+02-5.51063E+01
 -1      1571-7.31660E+02-6.69340E+04-1.02599E+02 1.67382E+04 1.20440E+02 6.56648E+01
 -1      1572 3.59286E+04 6.57915E+05-9.99700E+03-9.50526E+04 2.64597E+03-6.07488E+03
 -1      1573-9.21981E+03 6.78215E+04 6.41021E+00 1.70719E+04-7.87358E+01 3.97080E+01
 -1      1574 5.21683E+04 1.58538E+06 1.17660E+03 1.30923E+05-7.06544E+02-9.34478E+02
 -1      1575-9.24188E+03 1.18134E+05 1.38439E+02 2.23175E+04-1.62095E+02 2.09990E+01
 -1      1576-1.10027E+03-1.00759E+06 1.47816E+02 6.48025E+04-5.20168E+01 3.31368E+02
 -1      1577-9.24861E+03 1.81518E+05 7.15356E+01 2.83739E+04-5.81587E+01 2.12111E+01
 -1      1578-9.21350E+03 3.26688E+04-4.65493E+01 1.14563E+04-7.67676E+00 4.94376E+01
 -1      1579-2.83852E+03-1.39716E+03-2.12412E+00 4.64606E+03-1.66745E+01-9.67071E+00
 -1      1580-9.21907E+03 2.59082E+05-7.48138E+01 3.32564E+04-1.45147E+02 1.93527E+02
 -1      1581-1.33965E+05-1.44031E+06 2.68541E+03 5.39262E+04-1.14220E+03-3.37508E+03
 -1      1582-9.35858E+03 3.53153E+05 7.74699E+01 3.89298E+04-9.05182E+01 2.84127E+01
 -1      1583 8.45223E+04 6.75315E+05-1.00381E+03 2.76130E+04-2.51841E+02-1.04228E+03
 -1      1584-9.57193E+03 1.13849E+06-2.67219E+01 7.01459E+04-1.07926E+02 6.93148E+01
 -1      1585-9.55005E+03 5.04838E+05 3.12364E+01 3.70115E+04-6.48257E+01 2.91023E+02
 -1      1586-9.35844E+03 6.33927E+05-8.12156E+01 4.20090E+04-1.17059E+02-5.55007E+01
 -1      1587-4.93334E+03-8.89820E+03-1.80135E+00 1.10848E+05 1.82779E+02-1.77176E+02
 -1      1588-9.62192E+03 7.78713E+05 5.72827E+01 4.59321E+04-1.63624E+02 7.70728E+01
 -1      1589-5.10340E+04-6.36353E+05 1.30608E+04-1.17851E+05-7.62067E+02-5.07791E+03
 -1      1590-9.34607E+03 9.39964E+05-4.01532E+01 5.17475E+04-1.01986E+02 1.48909E+02
 -1      1591-9.76449E+02-1.50376E+06-5.44500E+02 7.44668E+04-2.00549E+02 2.28683E+02
 -1      1592 1.65639E+02-1.40775E+06 1.92849E+02 7.22875E+04-1.23052E+02-2.28526E+02
 -1      1593-7.00390E+03 1.35999E+05-2.92245E+02 5.58588E+04-3.88000E+02 2.30599E+02
 -1      1594-2.54147E+04-6.65540E+05 7.47325E+02 7.46772E+04-3.54836E+02-6.12929E+02
 -1      1595-7.02337E+03 1.69727E+05-1.14787E+02 6.40537E+04 7.73177E+01-1.55990E+02
 -1      1596 1.30195E+05 1.40317E+06-1.95511E+02 2.60251E+05 4.69644E+04-2.43702E+03
 -1      1597-7.14827E+03 9.48570E+04-3.91739E+01 4.64833E+04-7.81474E+01-5.35662E+01
 -1      1598 2.46125E+02-1.40476E+06-1.31479E+02 6.60939E+04-1.60789E+02-6.75232E+01
 -1      1599-7.10107E+03 2.14738E+05 5.15516E+01 7.27071E+04 4.30960E+00 5.23019E+01
 -1      1600-7.03125E+03 6.43016E+04-1.69152E+02 3.83049E+04 2.48389E+02-3.38254E+01
 -1      1601-7.17085E+03 2.66550E+05-2.93119E+00 8.22352E+04 7.57482E+01 2.74061E+02
 -1      1602-9.10656E+03 8.57040E+02 1.23461E+02-1.78578E+02 9.34467E+00 1.25818E+02
 -1      1603-7.13422E+03 3.26193E+05 2.94633E+00 8.92692E+04 1.62951E+02 1.47967E+02
 -1      1604-7.10002E+03 3.95402E+04 5.98182E+01 2.95872E+04-4.88310E+01 4.84438E+01
 -1      1605-9.52330E+03 1.13258E+06 7.01550E+01 5.23810E+04-6.03326E+02 1.92714E+02
 -1      1606-9.71388E+03 1.25699E+06 2.79800E+02 6.65932E+04-1.67103E+02-1.98678E+02
 -1      1607-8.44737E+03 1.41224E+06 2.57268E+02 7.39126E+04-1.01170E+02 6.74087E+00
 -1      1608 5.78635E+04 5.69768E+05 1.12360E+01 9.65170E+04 2.13255E+01-4.76475E+02
 -1      1609-9.08901E+03 1.34251E+06-2.49629E+02 7.31293E+04 9.23641E+01 1.01661E+02
 -1      1610 7.07301E+02 1.59017E+06 6.22323E+02 8.53342E+04-3.15720E+02 9.31409E+02
 -1      1611-7.10562E+03 4.07888E+05-2.58427E+02 9.62325E+04 1.74447E+02-2.72061E+02
 -1      1612-7.79702E+02-1.29658E+06 1.20517E+02 5.94352E+04 1.32803E+02-4.68697E+01
 -1      1613-3.69297E+03-4.07061E+05 5.96628E+02 1.01450E+05 1.01099E+02 3.88756E+01
 -1      1614-7.08375E+03 2.10751E+04 1.21146E+02 2.14461E+04 2.63561E+01 2.81514E+01
 -1      1615 2.53335E+05 1.28053E+06 1.93013E+04 4.99543E+05 7.49910E+04 1.27612E+04
 -1      1616-7.28031E+03 8.82072E+03 2.73603E+00 1.31162E+04-7.28589E+00-1.28709E+01
 -1      1617-2.86329E+03-2.09026E+04 1.09833E+01 2.18208E+04 4.55091E+00-6.15876E+00
 -1      1618-2.87854E+03-8.51070E+03-2.51318E+01 1.30017E+04 2.70574E+00 1.38315E+01
 -1      1619-2.03669E+02-7.71290E+02-2.20364E+01 6.62785E+02-7.57352E+00 2.43182E+01
 -1      1620 1.17385E+04 2.46492E+05-4.95143E+02 1.26629E+05 7.05932E+01 3.52759E+02
 -1      1621-2.69253E+03-4.26176E+05 1.55098E+02 9.52549E+04-2.61021E+02-1.97684E+02
 -1      1622-2.72301E+03-3.65325E+05 2.87426E+01 8.69633E+04-2.49976E+02 4.34123E+00
 -1      1623-2.62094E+03-3.00389E+05 2.57539E+02 7.79182E+04-9.29450E+01-1.20357E+02
 -1      1624-2.46089E+03-2.41193E+05 1.27581E+01 7.06156E+04-2.70105E+01-1.17745E+01
 -1      1625-2.58119E+03-1.88001E+05-5.05170E+01 6.15084E+04 1.01877E+02 4.93250E+01
 -1      1626-3.13058E+03-1.43003E+05 4.85546E+02 5.36588E+04 1.01528E+02-1.49324E+02
 -1      1627-2.52667E+03-9.99457E+04 2.20329E+02 4.56391E+04-1.04935E+02 2.72514E+02
 -1      1628-2.73171E+03-6.80768E+04 1.39465E+01 3.77051E+04-8.58612E+01 1.43347E+02
 -1      1629-2.91473E+03-4.11717E+04 2.06168E+02 2.98613E+04-2.13919E+01-5.46139E+00
 -1      1630-4.44536E+04-5.23610E+05 1.43079E+02 3.81370E+03 1.26743E+03-1.22979E+03
 -1      1631-3.25535E+03-4.85013E+05-3.04997E+02 1.03496E+05 1.85600E+02-1.56643E+02
 -1      1632-2.47539E+03-3.99273E+05-9.51152E+01 8.99623E+04-2.43269E+02 2.44778E+01
 -1      1633-2.76052E+03-1.41502E+04-1.28328E+00 1.69371E+04 1.02794E+01 5.08087E+01
 -1      1634-6.84204E+03 4.03019E+05 1.77725E+02 1.12131E+05-2.47119E+02-2.31923E+01
 -1      1635-9.60155E+03 1.17815E+04 2.01450E+01 5.70353E+03 3.45012E+01 1.21746E+01
 -1      1636-2.89679E+03-4.08811E+03-5.49392E+01 8.46067E+03-1.50914E+01-6.41006E+00
 -1      1637-2.79261E+03-3.30878E+05 5.17720E+01 8.07650E+04-8.20240E+01 2.77589E+02
 -1      1638-2.23755E+03-2.68018E+05-2.84303E+02 7.42842E+04-3.00366E+01 1.19274E+02
 -1      1639-2.41563E+03-2.11278E+05-1.36886E+02 6.62308E+04-9.66936E+01-3.78787E+00
 -1      1640 5.19432E+02-5.85717E+05-1.45926E+02 1.18306E+05-1.72922E+01 3.57872E+02
 -1      1641-2.72510E+03-1.62897E+05-3.76277E+01 5.81607E+04 1.00195E+02 5.55366E+01
 -1      1642-2.87235E+03-1.15918E+05-1.57414E+02 4.94173E+04-4.45689E+01-8.95720E+00
 -1      1643-2.63313E+03-8.11606E+04-1.67680E+02 4.15602E+04-2.34827E+02 1.87000E+02
 -1      1644-2.89512E+03-5.20389E+04-1.30949E+02 3.29786E+04 3.74646E+01-1.48673E+02
 -1      1645-2.86551E+03-2.86371E+04-7.71186E+01 2.51899E+04 1.05145E+02-1.74255E+01
 -1      1646 2.30522E+03-5.65200E+05 3.25424E+02 1.17955E+05-9.55237E+00-4.76070E+02
 -1      1647-2.97902E+03-2.21710E+05-3.22308E+02 1.24887E+05 3.94308E+02-5.31263E+01
 -1      1648-4.21578E+03-2.14670E+05 4.45793E+01 1.16532E+05 1.33130E+02-1.21673E+02
 -1      1649-7.29265E+03 6.18568E+05 2.76340E+02 1.08718E+05-2.35269E+02 2.49966E+02
 -1      1650-6.86322E+03 5.35561E+05-2.60308E+02 1.16668E+05-1.38002E+02-3.87047E+02
 -1      1651-1.15386E+05-1.39543E+06 1.00631E+04 1.68887E+05-2.12645E+04-1.38422E+02
 -1      1652 6.54792E+01-2.09557E+02-1.78446E+01 3.80434E+02-6.53339E+01-4.99245E+01
 -1      1653 2.48350E+01 1.01472E+02 1.06589E+01-1.24925E+02-1.58420E+01 1.03265E+01
 -1      1654-5.51298E+01-6.27049E+01 2.19017E-01-3.74946E+00 6.80580E+00-1.88850E+00
 -1      1655-7.18386E+03 1.37452E+04-6.42394E+01 1.70473E+04-4.56225E+01 4.28977E+01
 -1      1656-7.10502E+03 2.85949E+04 3.57784E+01 2.51517E+04 8.64074E+00 5.31922E+01
 -1      1657-1.62596E+03 5.60608E+05-8.73453E+02 1.22701E+05 3.30938E+02-2.32783E+02
 -1      1658-3.08330E+03 3.22128E+02 1.16754E+01-1.28790E+02 1.98898E+01 1.80922E+01
 -1      1659-9.41945E+03 2.46913E+03-5.39148E+00 2.65760E+03 3.41396E+00 5.06270E+01
 -1      1660-6.97226E+03 5.03715E+04 4.09907E+01 3.34987E+04 5.38693E+01-9.42242E+01
 -1      1661 1.39308E+05 1.61019E+06-6.36061E+03 1.88400E+05 3.92301E+03-7.82603E+03
 -1      1662-2.91887E+03-5.10652E+05 1.01289E+02 1.12551E+05 5.61891E+02-8.62594E+01
 -1      1663-8.99462E+02-1.33553E+06-3.21985E+01 6.15092E+04 4.25372E+01-2.04318E+02
 -1      1664-7.36620E+03 7.71863E+04 1.92380E+02 4.25108E+04 5.21731E+01 8.72451E+01
 -1      1665 1.22196E+05 1.91171E+06-8.59758E+03 1.57554E+05 1.55686E+03-3.88042E+03
 -1      1666-6.93485E+03 3.62275E+03-7.51105E+01 8.49361E+03-1.25094E+00-7.07274E+00
 -1      1667-6.81930E+03 1.10493E+05 1.11934E+01 5.08996E+04 3.73828E+01-1.39791E+02
 -1      1668-7.57118E+03 1.49689E+05 4.07736E+02 5.93463E+04-7.97432E+01 6.10555E+01
 -1      1669-9.63442E+03 4.63144E+03 6.00704E+01 3.70099E+03-2.16400E+01 3.46515E+01
 -1      1670 7.17323E+01 3.51747E+02 6.50909E+00 2.26833E+02-4.85637E+01-1.52696E+01
 -1      1671 3.93552E+01 2.12413E+02 9.39465E-01-2.50664E+00-1.08160E+01 3.09108E+00
 -1      1672-1.25626E+05-1.64175E+06 6.11728E+03 1.21556E+05-3.56452E+03-7.69496E+02
 -1      1673-1.21389E+03-1.88352E+02-1.05347E+01 5.57742E+02 8.65370E+00-7.75032E-02
 -1      1674-6.51321E+03 1.37413E+05 2.65403E+01 6.83691E+04-2.11336E+02 3.45344E+01
 -1      1675-9.12236E+03 1.17227E+06-1.22167E+02 5.60466E+04-8.61104E+01 2.21608E+02
 -1      1676-6.37823E+03 1.69992E+05-3.22521E+02 7.76786E+04 1.54162E+02-2.56045E+02
 -1      1677-5.88706E+03 2.09401E+05-3.03080E+02 8.64442E+04 4.49194E+01-5.05306E+01
 -1      1678-6.87536E+03 3.48292E+05 9.09110E+01 1.08692E+05-1.00033E+01 3.58315E+02
 -1      1679-6.66791E+03 2.56425E+05-5.98766E+01 9.42736E+04 2.69411E+02 1.55087E+02
 -1      1680-9.30808E+03 1.16905E+06-5.48405E+01 4.34282E+04-4.57001E+02-3.18094E+02
 -1      1681-4.61600E+03 9.53982E+02 1.16534E+01 2.12135E+03 1.66172E+01 7.60906E+00
 -1      1682-9.58457E+04-1.78480E+06 7.53865E+03 1.01569E+05 1.14704E+03-6.26321E+03
 -1      1683-9.97196E+03 9.89080E+05-1.22470E+02 3.79276E+04-1.59687E+02 3.35546E+02
 -1      1684-9.81896E+03 8.16748E+05-2.74317E+02 3.47890E+04-3.76609E+02 2.14891E+02
 -1      1685-5.20458E+02-1.32398E+06 7.32704E+01 4.85813E+04 2.13136E+02 1.75078E+02
 -1      1686-9.78327E+03 6.59496E+05 1.10219E+02 3.05406E+04-1.80743E+02-7.34271E+01
 -1      1687-9.67717E+03 5.20834E+05-7.70216E+01 2.66667E+04-7.97652E+01 1.29517E+02
 -1      1688-6.95688E+03 2.08924E+03-7.04833E+01 3.25562E+03 6.01904E+00-4.11777E+00
 -1      1689-9.48129E+03 3.96553E+05-2.15343E+02 2.29916E+04-2.01084E+02-1.81739E+01
 -1      1690-6.01977E+03 3.41535E+05-8.01552E+02 1.02541E+05-2.29935E+01-1.83768E+02
 -1      1691-9.69802E+03 2.81721E+05-3.11136E+01 2.14546E+04-1.29814E+02 1.28427E+02
 -1      1692-9.56073E+03 1.93013E+05-1.34595E+02 1.77809E+04-9.69072E+01-3.78524E+01
 -1      1693-2.76899E+02-5.94759E+03-1.63070E+00 2.83464E+03-8.63957E+00 3.81335E+01
 -1      1694-2.15426E+02-2.79832E+04-4.99696E+01 6.07351E+03 3.38934E+01-4.54324E+01
 -1      1695-9.73341E+03 1.21462E+05 3.20114E+01 1.44238E+04-1.36278E+02 1.45412E+00
 -1      1696-2.62459E+02-6.42459E+04-9.63222E+01 1.08036E+04 1.12124E+02 5.79623E+01
 -1      1697-1.74949E+02-1.21056E+05-4.46621E+01 1.32618E+04 1.04892E+02-8.50260E+01
 -1      1698 3.45669E+02-1.75775E+06 1.04777E+01 4.52902E+04-8.57888E+00 1.25219E+02
 -1      1699-9.69551E+03 6.51804E+04 2.67214E+01 1.07788E+04-1.01272E+02 4.18178E+01
 -1      1700-2.75117E+02-1.93244E+05 5.01022E+01 1.66476E+04 1.35904E+02 1.63792E+02
 -1      1701-2.11631E+02-2.81042E+05 4.64784E+01 1.99599E+04 2.02037E+02 1.02876E+02
 -1      1702-9.75401E+03 2.79660E+04 5.65650E+01 6.64308E+03-5.22375E+01 5.23012E+01
 -1      1703-4.43173E+02-3.85799E+05 1.43992E+02 2.32587E+04 2.24492E+02-1.12284E+02
 -1      1704-1.20465E+02-4.99524E+05-1.07910E+01 2.87892E+04 2.23753E+02 8.57223E+01
 -1      1705-2.83749E+02-6.35190E+05-5.52109E+01 3.17317E+04 1.59866E+02 4.60715E+01
 -1      1706 2.10719E+05 1.34391E+06 5.98112E+04 3.23142E+05 1.24641E+05 1.38910E+04
 -1      1707-2.25975E+02-7.86376E+05-2.35295E+02 3.57838E+04 2.51976E+02-2.90010E+02
 -1      1708-3.16320E+02-9.55763E+05-3.49839E+01 3.99035E+04 3.42834E+02-1.43133E+01
 -1      1709-2.00101E+02-1.17434E+06 1.15017E+02 3.87628E+04 1.17801E+02 2.92788E+02
 -1      1710-2.91594E+04-2.03016E+06 1.11977E+03 7.50102E+04 1.56066E+03 2.73395E+03
 -1      1711-1.39008E+04-1.95343E+06 1.25932E+03 4.78261E+04 3.32764E+02-9.34905E+02
 -1      1712-7.55170E+04-2.17781E+06 2.04869E+03 1.89867E+05 6.00390E+03 9.77770E+02
 -1      1713-5.11313E+04-2.16670E+06 5.06535E+03 8.63967E+04 1.91103E+03-8.21365E+02
 -1      1714-7.43953E+04-1.68958E+06-9.26172E+02 1.00277E+05 2.59999E+03-1.27535E+03
 -1      1715-1.16995E+02-7.99792E+02-3.77418E+01 3.36492E+02-1.01127E+01 1.89455E+01
 -1      1716-5.63889E+01-1.50734E+02-3.75889E+01 2.76384E+02 1.53037E+01-6.38552E+00
 -1      1717-3.34654E+01 1.98816E+02-1.72432E+01-4.57559E-01-2.12860E+01-7.84364E+00
 -1      1718-1.66674E+01 1.93705E+02-9.02732E+00-1.89743E+01-9.59287E+00-3.27260E+00
 -1      1719-1.09400E+02-2.91998E+02 1.55664E+01 3.00517E+02 1.05432E+01 3.28315E+00
 -1      1720-2.32724E+05-1.13708E+06-5.02738E+04 4.56961E+05-8.56761E+04 5.06685E+03
 -1      1721 4.98180E+01 1.89703E+02 6.79924E+00 5.01276E+01-2.03738E+01 6.00640E+00
 -1      1722 2.56898E+05 1.10388E+06 4.25288E+04 4.80749E+05 1.11510E+05 2.15414E+04
 -1      1723 9.09656E+01 3.17160E+02 6.01848E+01 3.78378E+01-6.11706E+01-3.16279E+01
 -1      1724-3.68409E+02-7.69882E+02-3.16085E+02-1.46961E+02-1.23271E+02 1.40809E+02
 -1      1725-2.89883E+03-1.37524E+03-2.26006E+02-2.07377E+03 2.04585E+02-1.91228E+02
 -1      1726-8.13534E+03-5.34201E+02 1.55501E+02-1.06734E+03 1.74951E+02 8.32382E+01
 -1      1727-1.01302E+04-4.44428E+02 1.39887E+02 4.18558E+02-2.10273E+01-4.72443E+01
 -1      1728-5.60366E+03 2.36306E+02 7.38912E+01-1.48965E+03 4.07575E+01-2.84150E-01
 -1      1729 1.30427E+04 1.96964E+06 1.12849E+03 6.99283E+04 2.07240E+02 5.15188E+02
 -1      1730 3.15498E+04 2.06467E+06 5.49876E+03 9.80428E+04 4.26813E+02 1.17834E+03
 -1      1731 5.21744E+04 2.24973E+06-8.83450E+03 1.09484E+05-6.76358E+02-4.14142E+03
 -1      1732 8.61150E+04 2.28144E+06-3.05123E+02 2.14944E+05 1.71693E+03-4.96719E+03
 -1      1733 8.27510E+04 1.74174E+06-8.22261E+03 1.47706E+05 2.46120E+02-2.13249E+03
 -1      1734-3.64835E+02-1.92089E+06-8.95469E+02 3.99124E+04-7.47306E+02 4.89087E+02
 -1      1735-3.54007E+02-1.87338E+06-1.72852E+02 3.84042E+04-5.44444E+02-1.61171E+02
 -1      1736-1.43420E+04-1.53897E+06-1.55381E+03 8.08558E+04-3.63265E+02-1.94884E+03
 -1      1737 5.05490E+02-1.99832E+06-6.56093E+00 2.36160E+04 6.56715E+01-3.76220E+02
 -1      1738 6.94625E+01-1.95095E+06 2.22618E+01 2.38920E+04 2.03957E+02 4.48363E+02
 -1      1739-1.92441E+03-1.63374E+06-5.89161E+02 5.97269E+04-1.65546E+02 8.96866E+02
 -1      1740 2.67286E+02-1.77479E+06-7.16773E+01 3.81808E+04-1.93297E+02-1.05353E+02
 -1      1741-7.42558E+02-1.73010E+06 1.60432E+02 3.81662E+04-2.48584E+02 1.14519E+02
 -1      1742 2.11505E+03-1.57984E+06 5.37992E+02 5.93971E+04-9.92486E+01-6.35349E+02
 -1      1743 4.97642E+02-1.72663E+06-5.06345E+02 3.48133E+04-3.08708E+02-3.50242E+02
 -1      1744-6.73130E+02-1.68137E+06-2.54965E+02 3.51746E+04 1.74704E+02 3.67527E+02
 -1      1745 3.47614E+02-1.40694E+06-1.23568E+02 6.93646E+04-1.81840E+02-5.06743E+02
 -1      1746 3.48445E+02-1.63823E+06 3.43215E+02 3.31974E+04 1.36779E+02-3.62348E+02
 -1      1747-1.18810E+03-1.59433E+06 2.82581E+02 3.23461E+04-3.61391E+02-7.08460E+00
 -1      1748 3.29087E+02-1.16919E+06 4.12668E+02 8.19550E+04-4.95263E+02 4.40817E+02
 -1      1749-4.21226E+02-1.44571E+06-1.00714E+02 5.34591E+04-8.65657E+02-2.78809E+01
 -1      1750-1.87571E+03-1.14360E+06-7.83990E+02 8.01953E+04-3.42459E+02-4.48257E+02
 -1      1751-1.87095E+02-1.57386E+06-1.07358E+02 3.08647E+04 1.85663E+02-3.18468E+02
 -1      1752-6.41395E+02-1.53016E+06 1.45382E+02 3.10189E+04 1.44880E+02-2.25807E+01
 -1      1753-6.14841E+02-1.31586E+06 3.43410E+02 6.04396E+04-6.32006E+01-4.13938E+02
 -1      1754 5.88266E+01-1.54309E+06-2.33457E+02 2.53387E+04 2.62734E+02-3.41138E+02
 -1      1755-5.13740E+01-1.49988E+06-1.51000E+02 2.54398E+04 3.06314E+02 4.18783E+02
 -1      1756-1.80049E+03-1.31089E+06-2.86020E+01 5.40852E+04 3.37508E+01 5.49351E+02
 -1      1757 4.17639E+02-1.36465E+06-1.06667E+02 3.62013E+04-3.46502E+02 2.17735E+02
 -1      1758-1.24898E+03-1.32437E+06-2.94690E+02 3.55672E+04-4.02798E+02-2.81390E+02
 -1      1759-3.00443E+02-1.18854E+06-2.69187E+02 5.84402E+04 2.39001E+01 2.39578E+01
 -1      1760-2.49865E+02-1.29510E+06-2.54033E+02 3.40327E+04 6.67068E+01-1.10025E+02
 -1      1761-5.79512E+02-1.25555E+06 7.15613E+01 3.40752E+04 5.00676E+01 5.81582E+01
 -1      1762-1.56035E+03-1.03207E+06 1.75277E+02 6.58783E+04-3.12187E+02-2.39764E+02
 -1      1763 5.09379E+02-1.33734E+06-6.50570E+01 2.02694E+04 3.01474E+02-2.61521E+02
 -1      1764 6.95682E+01-1.29712E+06-1.32431E+02 2.03211E+04 2.75506E+02 6.05080E+02
 -1      1765-1.51379E+03-1.09270E+06 2.23241E+01 5.18123E+04-3.69436E+01 8.87519E+02
 -1      1766 5.03380E+02-1.16792E+06 3.09552E+01 3.18485E+04-1.95159E+02 3.33514E+02
 -1      1767-1.09854E+03-1.13103E+06-2.26836E+02 3.14252E+04-3.29161E+02-2.27333E+02
 -1      1768 8.44447E+02-1.04352E+06 3.99802E+02 4.97403E+04-1.08363E+02 1.88989E+02
 -1      1769-5.66578E+02-1.09200E+06-1.27562E+02 3.16008E+04 3.19424E+01-2.35525E+02
 -1      1770-1.21910E+03-1.05610E+06-7.92325E+01 3.13490E+04 6.48852E+01-3.07507E+02
 -1      1771-6.21964E+02-8.82253E+05 5.73871E+02 5.97880E+04-3.70867E+02-4.80298E+02
 -1      1772-5.66254E+01-1.10826E+06-7.78427E+01 2.06343E+04 4.09446E+02-4.23321E+02
 -1      1773-2.58004E+02-1.07161E+06-6.24500E+01 2.05752E+04 4.15984E+02 3.98611E+02
 -1      1774-8.54913E+02-9.03433E+05 1.83455E+02 4.93205E+04 1.38235E+02-1.19701E+02
 -1      1775 6.80772E+02-9.71938E+05-2.01069E+01 2.95952E+04-1.67368E+02 3.26229E+02
 -1      1776-6.09054E+02-9.38300E+05-7.79638E+01 2.92500E+04-7.78393E+01 1.53903E+02
 -1      1777 1.94342E+00-8.55319E+05 2.07770E+01 4.77339E+04 8.42378E+01 8.72484E+01
 -1      1778 2.53201E+02-9.05829E+05-1.52027E+02 2.90101E+04-1.53148E+02-4.21260E+01
 -1      1779-3.38190E+02-8.72941E+05-1.24771E+02 2.86759E+04-1.22866E+02 1.28331E+02
 -1      1780-1.27294E+03-7.30542E+05 9.12126E+01 5.51449E+04-2.15994E+01 1.06614E+03
 -1      1781 1.74936E+02-9.14012E+05-5.02829E+01 1.85647E+04 4.21451E+02-2.13998E+02
 -1      1782-4.22834E+02-8.80896E+05 8.64181E+00 1.84984E+04 2.78554E+02 2.24682E+02
 -1      1783-3.06190E+02-7.45490E+05-6.69050E+02 4.45074E+04-2.34050E+01-6.74242E+02
 -1      1784 3.61442E+02-7.97380E+05-4.51205E+01 2.67265E+04-2.28914E+02 2.55514E+02
 -1      1785-9.29159E+02-7.67100E+05-2.50838E+02 2.62236E+04-2.90723E+02-2.23367E+02
 -1      1786-2.83893E+02-7.03232E+05-4.50220E+02 4.30730E+04-9.32896E+01 9.63448E+00
 -1      1787-3.13940E+02-7.37653E+05-2.01735E+02 2.59448E+04 8.87358E+01-9.11940E+01
 -1      1788-6.40734E+02-7.07897E+05 1.45867E+02 2.58369E+04 1.02665E+02-2.71759E+01
 -1      1789-6.68117E+02-5.95840E+05 3.93852E+02 4.95451E+04-2.13857E+02-2.44496E+02
 -1      1790-8.46210E+01-7.39473E+05-9.03066E+01 1.67248E+04 6.98534E+01-2.80741E+02
 -1      1791-2.13432E+02-7.09300E+05-3.80625E+01 1.66964E+04 6.76003E+01 2.71476E+02
 -1      1792-1.54841E+03-6.04328E+05-1.11213E+02 4.04994E+04 1.21352E+02 5.22522E+02
 -1      1793 6.15977E+01-6.40550E+05-2.15010E+02 2.40058E+04-1.20427E+02 2.72017E+01
 -1      1794-9.14358E+02-6.12990E+05-1.68502E+02 2.34901E+04-2.34708E+02-1.96272E+02
 -1      1795 7.38463E+02-5.65278E+05 1.57313E+01 3.88497E+04 1.86428E+02-5.79208E+02
 -1      1796-4.53402E+02-5.86712E+05-1.46569E+02 2.31643E+04 6.27548E+01-1.49109E+02
 -1      1797-9.03471E+02-5.60477E+05-6.69204E+01 2.29341E+04 6.52627E+01-2.07789E+02
 -1      1798-6.11090E+02-4.75041E+05 4.71207E+02 4.42691E+04-1.87320E+02-3.49946E+02
 -1      1799 1.46837E+01-5.82742E+05-5.56118E+01 1.49203E+04 2.99629E+02-2.62604E+02
 -1      1800-7.63798E+01-5.56196E+05-3.66812E+01 1.48618E+04 3.05276E+02 3.12312E+02
 -1      1801-5.93475E+02-4.77048E+05 1.74079E+02 3.58742E+04 6.98776E+01-1.00463E+01
 -1      1802 3.01702E+02-5.00006E+05-5.24756E+00 2.11916E+04-9.47599E+01 2.42676E+02
 -1      1803-6.38479E+02-4.75894E+05-8.56411E+01 2.08249E+04-5.17991E+01 3.89386E+01
 -1      1804 1.65367E+02-4.42876E+05 1.50622E+02 3.42968E+04 2.33326E+01 2.02891E+02
 -1      1805 2.15608E+02-4.53505E+05-1.35875E+02 2.02265E+04-1.10009E+02-4.10893E+01
 -1      1806 2.78283E+01-4.30128E+05-1.25841E+02 1.99815E+04-1.85575E+01 1.53160E+02
 -1      1807-9.03133E+02-3.68999E+05 2.15296E+02 3.88579E+04-1.16920E+01 5.63847E+02
 -1      1808 1.06477E+02-4.47482E+05 4.67405E+01 1.22670E+04 1.72962E+02-1.12114E+02
 -1      1809-4.68916E+02-4.24373E+05-9.59384E+01 1.21700E+04 2.10603E+02 1.42923E+02
 -1      1810-6.49030E+02-3.68558E+05-3.05866E+02 3.05725E+04-1.49636E+01 1.71682E+02
 -1      1811 2.84610E+02-3.77559E+05-4.91506E+01 1.81779E+04-1.53345E+02 1.33052E+02
 -1      1812-5.35443E+02-3.56771E+05-6.74188E+01 1.78743E+04-8.54710E+01 4.50178E+01
 -1      1813-1.26164E+02-3.38687E+05 1.54498E+01 2.88680E+04-6.13176E+01-1.29302E+02
 -1      1814-1.86391E+01-3.36822E+05-1.98430E+02 1.74299E+04-5.09122E+01-8.42161E+01
 -1      1815-2.02220E+02-3.16697E+05-1.09377E+02 1.70767E+04-1.47973E+01 6.30915E+01
 -1      1816-1.04933E+03-2.76147E+05-9.12458E+01 3.36214E+04-1.07523E+02 4.22390E+02
 -1      1817 2.97989E+02-3.27172E+05 6.76246E+01 1.03660E+04 8.25960E+01-2.28292E+00
 -1      1818-1.35088E+02-3.07490E+05-5.40747E+01 1.04264E+04 1.84749E+02 2.12148E+02
 -1      1819-1.76714E+02-2.70336E+05-6.57218E+02 2.58654E+04-7.26107E+00 5.61808E+01
 -1      1820 2.35707E+02-2.71802E+05-6.17498E+00 1.54673E+04-8.00995E+01 1.88007E+02
 -1      1821-5.10957E+02-2.54300E+05-8.99369E+01 1.51500E+04-3.06318E+01 3.64758E+01
 -1      1822-2.79935E+02-2.45266E+05 2.05008E+02 2.44526E+04-3.25880E+01 1.20028E+02
 -1      1823-3.82151E+01-2.37557E+05-1.73067E+02 1.46550E+04-1.01482E+02 1.32006E+01
 -1      1824-4.02463E+02-2.20739E+05-1.08801E+02 1.43672E+04 6.07924E+00-1.99982E+01
 -1      1825-8.41558E+02-1.95977E+05 2.48790E+02 2.81644E+04 3.33695E+00 4.45442E+02
 -1      1826 8.03780E+01-2.26057E+05-6.43288E+01 8.74699E+03 7.80857E+01-1.11290E+02
 -1      1827-4.52685E+01-2.09663E+05-1.23111E+02 8.70783E+03 1.42360E+02 2.20188E+02
 -1      1828-8.15770E+02-1.87704E+05 9.88932E+01 2.19418E+04 1.40282E+02 3.17287E+02
 -1      1829 3.12683E+01-1.83461E+05-1.44177E+02 1.25672E+04-7.84789E+01-3.51607E+01
 -1      1830-3.50662E+02-1.68827E+05-1.71931E+02 1.25324E+04-1.27283E+02 3.59670E+01
 -1      1831-1.30799E+02-1.66250E+05 1.25074E+02 2.02692E+04 3.57058E+01 1.06494E+02
 -1      1832-2.35101E+02-1.55573E+05 1.97596E+02 1.17595E+04-2.50039E+01-7.75417E+00
 -1      1833-3.74849E+02-1.41584E+05 1.69772E+02 1.14039E+04 3.08675E+00 8.84191E+01
 -1      1834-6.23186E+02-1.29420E+05 6.32333E+01 2.29665E+04 1.64496E+02 3.44067E+01
 -1      1835 4.32662E+01-1.42946E+05 2.99114E+01 6.89832E+03 1.52736E+02-6.49745E+01
 -1      1836-2.10300E+02-1.30156E+05-2.15812E+00 6.85104E+03 1.21114E+02 9.20948E+01
 -1      1837-5.41161E+02-1.20096E+05-2.37083E+02 1.72777E+04-2.41381E+01-2.34845E+02
 -1      1838-2.86840E+01-1.12182E+05-3.35867E+01 9.95717E+03-4.21217E+01 7.53128E+01
 -1      1839-5.32722E+02-1.01069E+05-1.28672E+02 9.59922E+03-4.55236E+01-8.84715E+01
 -1      1840-3.98511E+02-1.03039E+05-1.53433E+02 1.60224E+04-5.26125E+00 3.82811E+01
 -1      1841-3.15822E+02-9.04347E+04-7.65392E+01 9.15250E+03 1.27833E+01-1.07970E+01
 -1      1842-4.39026E+02-8.01540E+04-3.97542E+01 8.92631E+03 9.91528E+00-9.30249E+01
 -1      1843-6.74674E+02-7.64099E+04 5.63634E+01 1.77411E+04-4.33170E+01-8.30063E+01
 -1      1844-9.96471E+01-7.82355E+04-4.29808E+01 5.75581E+03 9.83622E+01-3.14444E+01
 -1      1845-2.08071E+02-6.85988E+04-9.73561E+01 5.66174E+03 1.34791E+02 8.14535E+00
 -1      1846-5.70943E+02-6.57548E+04 5.07728E+01 1.38167E+04-1.65169E+01 3.74898E+01
 -1      1847-4.32553E+02-5.83090E+04-5.68642E+01 7.41256E+03-3.92524E+01-8.08631E+01
 -1      1848-5.02449E+02-5.01402E+04-2.90608E+01 7.15029E+03-4.79924E+01 1.06313E+01
 -1      1849-4.17611E+02-5.36711E+04 8.58594E+01 1.22832E+04-3.62978E+01-6.85569E+01
 -1      1850-1.04021E+02-4.32824E+04-3.61194E+01 6.10796E+03-4.23866E+01-1.50887E+00
 -1      1851-3.31928E+02-3.63829E+04 2.77511E+00 5.89052E+03-4.70895E+01 9.46232E-01
 -1      1852-5.46939E+02-3.78013E+04-2.53206E+01 1.26097E+04 2.94651E+01-1.37579E+02
 -1      1853-2.72824E+01-3.39365E+04-2.41255E+01 3.19274E+03 4.33659E+01-4.77590E+01
 -1      1854-1.92749E+02-2.78009E+04-3.69929E+01 3.09408E+03 3.82981E+01 4.67491E+01
 -1      1855-4.49261E+02-3.02677E+04-1.07473E+02 8.55877E+03 3.17612E+00-1.32496E+02
 -1      1856-2.09549E+02-2.19664E+04-2.61622E+01 4.35755E+03-5.30601E+01-2.37200E+01
 -1      1857-3.47612E+02-1.72400E+04-8.28854E+00 4.10630E+03-2.51861E+01 2.69959E+01
 -1      1858-4.21477E+02-2.20772E+04-6.74646E+01 7.14825E+03-7.95114E+00 1.97234E+01
 -1      1859-2.04134E+02-1.32089E+04-6.59875E+01 3.28739E+03-5.42687E+01-9.79709E+00
 -1      1860-2.79926E+02-9.54562E+03-3.45664E+01 3.01337E+03-3.42390E+01 2.76999E+01
 -1      1861-6.86580E+02-1.29304E+04 4.01241E+01 7.03186E+03 2.52046E+01-3.34952E+01
 -1      1862-6.08462E+01-7.51021E+03-4.16790E+01 1.50837E+03-4.80277E+01-1.47294E+01
 -1      1863-1.60445E+02-4.95454E+03-5.27271E+01 1.40606E+03 1.29522E+01 2.61675E+01
 -1      1864-5.17610E+02-7.79349E+03-9.81991E+00 4.36474E+03-1.45800E+01 5.85780E+01
 -1      1865-2.23129E+02-3.21990E+03-3.08112E+01 1.44046E+03-1.76551E+01 1.70871E+00
 -1      1866-2.44426E+02-1.79095E+03-3.26873E+01 1.15262E+03-5.49314E+00 6.48459E+00
 -1      1867-4.26431E+02-4.14923E+03 8.65693E+00 2.76978E+03-1.99593E+01 1.94085E+01
 -1      1868-4.20853E+02-1.64803E+03 2.05198E+01 1.53557E+03-1.34710E+01 1.86726E+01
 -1      1869-2.17513E+05-1.17085E+06 7.67743E+03 4.92737E+05-3.18998E+04 1.27839E+04
 -1      1870-2.03585E+05-1.38127E+06 1.06020E+04 4.96371E+05-9.67624E+03 6.48419E+03
 -1      1871-1.53388E+05-1.28193E+06-2.08050E+04 3.82355E+05-4.63009E+04-2.43244E+04
 -1      1872-1.67114E+05-1.46375E+06 1.33051E+04 3.66135E+05-7.14001E+02-2.50250E+03
 -1      1873-1.20536E+05-1.69832E+06 4.73713E+03 3.40373E+05-7.02444E+03-5.03145E+03
 -1      1874-1.54103E+05-1.38037E+06-2.51492E+03 2.81131E+05-6.82466E+03 3.66409E+03
 -1      1875-1.25970E+05-1.88879E+06 9.94687E+03 3.10474E+05 2.60431E+03 9.04707E+03
 -1      1876-8.90639E+04-2.06985E+06 9.68454E+03 2.30780E+05-4.76500E+03 1.31786E+03
 -1      1877-1.13977E+05-1.34514E+06 2.56662E+03 8.89963E+04-2.37135E+04-3.37743E+03
 -1      1878-1.18857E+05-1.66669E+06 2.25739E+03 2.31891E+05 5.03334E+03 3.45347E+03
 -1      1879-1.08343E+05-1.42002E+06 1.64868E+03 5.92803E+04-2.87500E+02-6.69114E+03
 -1      1880-1.46376E+05-1.57664E+06-6.79510E+03 7.85215E+04-6.33138E+03 1.19304E+03
 -1      1881-1.07275E+05-1.98020E+06 2.47093E+03 1.72435E+05 1.69435E+03 5.57751E+03
 -1      1882-1.23165E+05-1.61459E+06-3.84442E+02 8.10477E+04 1.71786E+03-6.51240E+03
 -1      1883 1.46070E+01 3.30027E+02-8.97952E-01 9.67760E+00-2.41864E+01-1.98839E+00
 -1      1884 3.34920E+01 2.15682E+02-3.11460E+00 4.47140E+01-1.06932E+01 4.76359E-01
 -1      1885-1.58986E+01 6.30570E+01 2.03158E+01-7.82292E+01 6.26526E+00 6.65040E+00
 -1      1886-7.01804E+00 2.62725E+02-8.74755E+00-5.67541E+01-1.52425E+01 7.10826E+00
 -1      1887 3.61903E+01 1.64824E+02-8.63741E-01-6.99335E+01-8.22884E+00 1.53809E+01
 -1      1888 5.77871E+01 1.50246E+02 6.98953E+00-3.36130E+00-1.63272E+01 1.29250E+01
 -1      1889-1.84604E+05-1.38214E+06-1.88629E+04 2.62754E+05-8.31625E+04-1.72981E+04
 -1      1890-1.58100E+05-1.23141E+06-7.68184E+04 4.95081E+04-9.68914E+04-1.39253E+04
 -1      1891-1.46108E+05-1.36861E+06-4.92606E+04 1.59450E+05-1.04919E+05-3.84705E+03
 -1      1892-8.63197E+04-5.11618E+05-2.85479E+04-1.51288E+05-3.72900E+04-4.32917E+03
 -1      1893-1.28752E+05-8.28616E+05-5.44024E+04-8.80412E+04-6.82768E+04 1.40755E+03
 -1      1894-7.14413E+04-9.51717E+05 3.50054E+03-5.42412E+04-8.07283E+03-3.48693E+03
 -1      1895-1.29021E+05-1.08678E+06-5.70278E+04-2.84618E+04-6.82674E+04-7.08595E+03
 -1      1896 2.93159E+04 1.76342E+05 2.80493E+04-1.57540E+05 1.74916E+04-3.54902E+03
 -1      1897-5.70124E+04-2.09835E+05-2.68589E+04-1.65363E+05-2.35347E+04-7.60813E+03
 -1      1898-3.28100E+04-3.26545E+05 1.30643E+04-1.24879E+05-1.90805E+02-1.94608E+03
 -1      1899 1.16208E+05 8.24410E+05 6.49041E+04-7.49400E+04 7.05621E+04 7.86274E+03
 -1      1900 5.32363E+04 4.94646E+05 2.13100E+04-1.36948E+05 3.24895E+04-1.19133E+03
 -1      1901 1.84148E+04 3.35732E+05-9.17792E+03-1.13412E+05 1.11572E+03-4.91857E+03
 -1      1902 1.52598E+05 1.37049E+06 1.21630E+05 1.73222E+05 1.50947E+05-1.42639E+04
 -1      1903 1.69067E+05 1.23283E+06 9.60783E+04 9.63839E+04 1.17513E+05-6.96726E+03
 -1      1904 1.19527E+05 1.07082E+06 6.09052E+04-4.96781E+02 7.20170E+04-5.34857E+02
 -1      1905 6.11969E+04 9.67678E+05-2.05809E+03-1.89037E+04 8.85249E+03-3.31171E+03
 -1      1906 1.11869E+05 1.37383E+06 8.58929E+03 1.55414E+05 2.68788E+04-5.45140E+03
 -1      1907 2.76091E+05 1.43186E+06 1.96516E+05 3.93904E+05 2.28022E+05 8.02920E+04
 -1      1908 3.01301E+05 1.51970E+06 2.67508E+05 2.57950E+05 2.58503E+05 2.13596E+04
 -1      1909 1.51786E+05 1.35279E+06 9.87215E+03 2.90466E+05 8.54274E+04-5.06187E+02
 -1      1910 2.93749E+05 1.13010E+06 9.32652E+03 5.34061E+05 5.76502E+04 2.55437E+04
 -1      1911 2.97808E+05 1.26637E+06 9.90705E+04 4.83954E+05 1.37199E+05 4.33566E+04
 -1      1912 2.36718E+05 1.28839E+06 3.45479E+04 4.15628E+05 9.82168E+04 1.12567E+04
 -1      1913 8.92747E+01 1.27899E+02 4.70551E+01-7.23702E+01-4.41364E+01 2.59533E+01
 -1      1914 3.48480E+01-1.56891E+01 1.39538E+01-1.45943E+02 1.75024E+00 2.13796E+01
 -1      1915-5.68518E+02-2.22741E+02-2.03233E+01 1.45747E+02 2.63493E+01-5.07250E+00
 -1      1916-7.44318E+02-6.30180E+01 2.95821E+01 2.40707E+02 2.71982E+01-1.91017E+01
 -1      1917-8.98656E+01-1.37694E+02-2.64400E+01-9.02279E+01 4.42303E+00 4.68845E+00
 -1      1918-2.55715E+02-2.32114E+02 2.75823E+01 1.91078E+02 3.26983E+01-5.58996E-01
 -1      1919-2.26570E+02-2.25854E+02 9.05998E+00 6.43619E+01 7.84963E+00-5.49967E+00
 -1      1920-9.17433E+02-3.59868E+02-2.76019E+01 5.34096E+02-6.43324E+00 2.51235E+00
 -1      1921-1.41967E+03 1.30761E+02-6.14209E+00 2.95935E+02-8.60995E+00-3.44764E+01
 -1      1922-1.67086E+03 2.22614E+02-1.29189E+01 3.40266E+02-7.91983E+00-2.33497E+00
 -1      1923-1.87137E+03 9.50022E+01-5.68627E+00 6.63014E+02 1.45606E+01 1.22604E+01
 -1      1924-1.78571E+03 8.86284E+01 4.32410E+00-4.58162E+01 3.62124E+01 5.42840E+01
 -1      1925-1.41399E+03-2.53755E+02 7.65760E+00-1.31896E+02 4.96089E+01 8.31626E+01
 -1      1926-2.91366E+03 3.31223E+02-1.02330E+01 3.77027E+02-9.00869E+00 1.70907E+00
 -1      1927-1.76235E+02-3.96039E+02-1.01001E+02 2.39215E+02 4.96572E+01 9.96727E-01
 -1      1928 1.79054E+02 1.61318E+02 1.31322E+02 3.21066E+02-1.19931E+02-9.61601E+01
 -1      1929-7.39765E+02-6.66316E+02 6.04329E+01-3.39956E+02 7.34833E+01-2.34488E+01
 -1      1930-4.02079E+02-5.47390E+02 1.80783E+02-2.67466E+02 2.00442E+02-1.20647E+01
 -1      1931-2.84373E+03-2.39983E+02 1.48948E+00-7.60810E+02 3.93037E+01-3.84365E+01
 -1      1932 7.66499E+01 2.25756E+02 1.01202E+01 2.04586E+02-3.30219E+01-5.63610E+01
 -1      1933 4.47553E+01 2.20755E+02-2.23569E+01 6.20720E+01-5.77997E+01 3.40061E+00
 -1      1934 1.23321E+02 1.66648E+02-1.86253E+01 3.59183E+02-6.61861E+01-4.86775E+01
 -1      1935 1.09046E+01 9.52699E+02 1.20025E+01 2.05706E+02-1.19271E+02 2.98824E+01
 -1      1936 1.33998E+00 3.06859E+02-1.47429E+02 3.51932E+02-9.98361E+01-6.73625E+01
 -1      1937-9.66940E+03 1.78159E+02 1.06286E+02 1.43948E+03-5.56799E+01-5.44928E+00
 -1      1938-9.78467E+03 2.12784E+03 4.36093E+01 1.66375E+03 1.58732E+01 8.84382E+00
 -1      1939-9.43490E+03 1.37765E+03-1.10065E+02 1.44658E+03 7.51103E+01 1.22660E+02
 -1      1940-9.84210E+03 3.35243E+03 4.76000E+01 1.94005E+03-4.93081E+01-4.68299E+00
 -1      1941-9.86717E+03 6.45981E+03 3.27408E+01 2.09688E+03-2.89144E+01-9.90467E+00
 -1      1942-9.66277E+03 3.11763E+03-1.16289E+02 3.24432E+03 1.96899E+01 2.17783E+01
 -1      1943-9.74455E+03 1.05726E+04 5.16536E+01 2.89077E+03-4.24635E+00 1.81093E+01
 -1      1944-9.89135E+03 1.46499E+04 9.13182E+01 2.99413E+03 8.28430E+01-6.49139E+01
 -1      1945-9.69189E+03 7.80927E+03-1.09554E+01 3.57072E+03 7.29015E+01-4.73114E+01
 -1      1946-9.46101E+03 9.06335E+03-6.18295E+01 6.19335E+03-1.51419E+01-1.77022E+01
 -1      1947-9.26118E+03 5.91350E+03 8.82338E+01 5.09884E+03 2.74615E+00 3.46718E+01
 -1      1948-9.65808E+03 1.75036E+04 2.26368E+01 4.18966E+03-8.48554E-01 2.80154E+01
 -1      1949-9.72087E+03 2.25603E+04 4.99935E+01 4.43160E+03 2.68416E+01-3.71711E+01
 -1      1950-9.42408E+03 1.45442E+04 7.12219E+01 6.96773E+03-4.06081E+01-1.88589E+01
 -1      1951-9.86809E+03 2.80470E+04 1.10452E+02 3.42652E+03-1.03037E+02-1.17270E+01
 -1      1952-9.91478E+03 3.45245E+04 1.00134E+02 3.57251E+03-6.47311E+01-1.37006E+01
 -1      1953-9.46893E+03 2.23168E+04-5.76619E+01 7.38076E+03 7.33221E+00 3.54296E+00
 -1      1954-9.67289E+03 3.70117E+04 9.22946E+00 5.97994E+03-3.14610E+01-1.80629E+01
 -1      1955-9.67359E+03 4.43496E+04 9.80618E+01 6.19175E+03-2.77293E+01 5.76487E+00
 -1      1956-9.43635E+03 3.04982E+04-5.31739E+01 9.09885E+03-5.74053E+00 1.56191E+02
 -1      1957-9.54205E+03 5.10831E+04 1.11148E+02 7.08593E+03 2.16190E+01-6.49918E+01
 -1      1958-9.68900E+03 5.94906E+04 7.71780E+01 7.39247E+03 1.74710E+01 3.05000E+01
 -1      1959-9.21502E+03 3.82769E+04-1.55186E+02 1.24986E+04 3.79903E+01-4.35824E+01
 -1      1960-9.79021E+03 6.97370E+04 8.41603E+01 5.66517E+03-7.88593E+01-5.65928E+00
 -1      1961-1.00439E+04 7.96209E+04-1.31789E+01 5.70420E+03-8.10246E+00 3.35646E+01
 -1      1962-9.77663E+03 5.45632E+04-9.81161E+01 1.23221E+04-7.63051E+00-1.79554E+01
 -1      1963-9.84436E+03 8.13768E+04 5.99080E+01 9.06816E+03 1.69313E+01 3.44827E+01
 -1      1964-9.81195E+03 9.20740E+04 1.25279E+02 9.29634E+03-6.90397E+00-4.76448E+01
 -1      1965-9.44844E+03 6.69779E+04 1.64096E+02 1.40539E+04-2.52522E+01 2.65515E+01
 -1      1966-9.56404E+03 1.02334E+05 4.96225E+01 9.93074E+03 5.15314E+01 2.66385E+01
 -1      1967-1.00056E+04 1.13874E+05 2.03865E+01 1.02404E+04 6.57531E+01 1.03782E+02
 -1      1968-9.44958E+03 7.69858E+04-1.69141E+02 1.81096E+04 1.09810E+01 2.03270E+02
 -1      1969-9.83747E+03 1.31803E+05 6.53412E+01 7.42306E+03-1.68455E+02 1.37403E+02
 -1      1970-9.86898E+03 1.45034E+05 7.92235E+01 7.53053E+03-1.51293E+02-1.46017E+02
 -1      1971-9.81137E+03 1.03166E+05-7.93171E+01 1.68347E+04-1.48410E+01 6.08996E+01
 -1      1972-9.48437E+03 1.44129E+05 6.55601E+01 1.19102E+04-4.74943E+01-1.32836E+02
 -1      1973-9.65835E+03 1.57840E+05 1.10033E+02 1.21314E+04-4.52297E+01-3.22965E+01
 -1      1974-9.41408E+03 1.20276E+05-2.50640E+01 1.83487E+04-2.64079E+01-4.89915E+01
 -1      1975-9.44732E+03 1.71732E+05 1.44342E+02 1.27212E+04 1.01470E+02-9.21858E+01
 -1      1976-1.00863E+04 1.86444E+05 5.37239E+01 1.30719E+04 1.15925E+02 1.16121E+02
 -1      1977-9.28229E+03 1.30367E+05-6.86944E+01 2.34941E+04 1.19906E+01-1.55353E+02
 -1      1978-9.72996E+03 2.12011E+05 4.16833E+01 9.29673E+03-1.09930E+02 1.36818E+02
 -1      1979-1.00633E+04 2.28582E+05-5.83468E+01 9.32722E+03-9.78629E+01 2.37760E+00
 -1      1980-9.73001E+03 1.67264E+05-5.21633E+01 2.12638E+04-5.80127E+01 2.54502E+01
 -1      1981-9.85165E+03 2.23560E+05-1.82264E+01 1.48968E+04-1.17435E+02 9.25224E+01
 -1      1982-9.66944E+03 2.40975E+05 1.23391E+02 1.50998E+04-1.43887E+02-7.82234E+01
 -1      1983-9.26441E+03 1.88252E+05 2.99893E+02 2.29866E+04 3.75186E+01 6.04625E+01
 -1      1984-9.20831E+03 2.58279E+05 1.98492E+02 1.55704E+04 9.45523E+01-1.62410E+02
 -1      1985-9.82827E+03 2.76318E+05 1.11094E+02 1.59529E+04 8.54088E+01 4.08310E+01
 -1      1986-9.33340E+03 1.97030E+05-1.84609E+02 2.90411E+04 1.29678E+02-1.21478E+02
 -1      1987-9.78212E+03 3.11306E+05 2.26092E+02 1.12593E+04-2.30047E+02 7.12844E+01
 -1      1988-1.00407E+04 3.31459E+05 1.80659E+02 1.13421E+04-1.36261E+02-7.61329E+01
 -1      1989-9.71772E+03 2.45846E+05-3.84022E+02 2.55757E+04 1.27586E+02 2.52686E+02
 -1      1990-9.64990E+03 3.21128E+05 5.96744E+01 1.77028E+04 3.74865E+01 6.12373E+00
 -1      1991-1.01199E+04 3.41428E+05 1.77853E+02 1.79338E+04 1.52552E+02 3.15691E+01
 -1      1992-9.14824E+03 2.70895E+05-1.68411E+02 2.76035E+04 3.44733E+00 4.15963E+02
 -1      1993-9.24888E+03 3.63946E+05 1.48836E+02 1.81468E+04-3.09084E+00-1.71393E+01
 -1      1994-1.01628E+04 3.85133E+05 3.61896E+01 1.85487E+04 1.11308E+02 1.40969E+02
 -1      1995-9.20741E+03 2.78863E+05-3.52731E+02 3.42146E+04-2.33677E+01 5.18788E+02
 -1      1996-9.70491E+03 4.34562E+05-9.34298E-01 1.20572E+04-2.63235E+02 1.96974E+02
 -1      1997-1.01543E+04 4.58100E+05-1.54536E+02 1.20774E+04-2.29597E+02 1.58199E+01
 -1      1998-9.76450E+03 3.46741E+05-1.66531E+02 2.90132E+04 3.44760E+01 1.31311E+02
 -1      1999-9.93041E+03 4.37351E+05-4.21809E+01 2.04596E+04-1.53363E+02 1.26577E+02
 -1      2000-9.74350E+03 4.61412E+05 1.33458E+02 2.05935E+04-1.83673E+02-1.27876E+02
 -1      2001-9.23684E+03 3.76315E+05 3.98181E+02 3.08372E+04 2.95912E+01 8.92953E+01
 -1      2002-9.08040E+03 4.85740E+05 1.82085E+02 2.08672E+04 2.06156E+02-1.87218E+02
 -1      2003-1.01865E+04 5.10196E+05 1.63309E+01 2.13009E+04 1.59831E+02 7.40512E+01
 -1      2004-9.34593E+03 3.75165E+05-1.91230E+02 3.94079E+04 1.64512E+02-1.52686E+02
 -1      2005-9.82739E+03 5.73316E+05 1.54043E+02 1.39907E+04-1.65107E+02 3.23750E+02
 -1      2006-1.01510E+04 6.00321E+05 6.94049E+01 1.39409E+04-1.27396E+02-2.10721E+02
 -1      2007-9.68359E+03 4.57362E+05 1.02140E+02 3.35722E+04 4.43821E+01-2.77102E+01
 -1      2008-9.76655E+03 5.92789E+05 6.21315E+01 1.94023E+04-5.75366E+01 8.31912E+01
 -1      2009-1.02377E+04 6.20615E+05 2.63839E+02 1.94696E+04-2.73563E+00 1.08586E+01
 -1      2010-8.71915E+03 5.13542E+05 1.58412E+02 3.20587E+04 1.85582E+01 5.41051E+02
 -1      2011-9.25620E+03 6.24950E+05 2.29234E+01 2.38992E+04 1.98082E+02 4.11329E+01
 -1      2012-1.03322E+04 6.53042E+05 7.10190E+01 2.42404E+04 1.54218E+02 7.49252E+01
 -1      2013-8.77588E+03 5.07405E+05 3.00166E+01 4.13754E+04 1.98127E+02 6.22811E+02
 -1      2014-9.56527E+03 7.29848E+05-6.13030E+00 1.58827E+04-2.20829E+02 2.16709E+02
 -1      2015-9.83015E+03 7.60586E+05-1.67068E+01 1.59228E+04-2.41774E+02-3.90136E+02
 -1      2016-1.07476E+04 5.82350E+05-3.66531E+02 3.82506E+04-2.21437E+01-5.40896E+02
 -1      2017-9.24987E+03 7.48230E+05-3.55980E+01 2.21132E+04-1.20423E+02-1.51349E+02
 -1      2018-9.73577E+03 7.79087E+05 3.35410E+01 2.21611E+04-1.78818E+02-2.27221E+02
 -1      2019-8.94816E+03 6.47912E+05 1.46444E+02 3.63394E+04-1.09731E+02 2.72883E+01
 -1      2020-8.85245E+03 7.82365E+05 1.33653E+02 2.66307E+04 3.44919E+02-2.45134E+02
 -1      2021-1.04378E+04 8.12976E+05-1.87960E+02 2.69774E+04 1.44317E+02 3.26593E+02
 -1      2022-9.08338E+03 6.34738E+05-2.81527E+02 4.66811E+04 1.22444E+02-3.11079E+02
 -1      2023-9.97170E+03 9.06067E+05 3.81661E+01 1.78197E+04-3.53668E+02 4.43768E+02
 -1      2024-1.00393E+04 9.40210E+05-1.59370E-01 1.77574E+04-3.25441E+02-2.85535E+02
 -1      2025-1.00136E+04 7.23692E+05-4.66181E+02 4.24074E+04-4.54753E+01 2.23287E+02
 -1      2026-9.66746E+03 9.21973E+05 2.00361E+02 2.43265E+04 2.89167E+01-1.34865E+02
 -1      2027-1.01617E+04 9.56614E+05 2.62985E+02 2.43329E+04 2.30711E+01-6.03445E+01
 -1      2028-9.30016E+03 7.98522E+05-3.87006E+01 4.03574E+04-1.67961E+02 1.40346E+02
 -1      2029-8.90489E+03 9.56584E+05 2.90635E+01 2.93052E+04 3.08565E+02-1.00103E+02
 -1      2030-1.03754E+04 9.91059E+05-3.10614E+01 2.95866E+04 2.24058E+02 2.16938E+02
 -1      2031-9.67254E+03 7.77467E+05 1.64606E+02 5.11319E+04-8.80161E+01 4.92048E+02
 -1      2032-1.01169E+04 1.10049E+06 1.02700E+02 1.98792E+04-2.76747E+02 4.99494E+02
 -1      2033-1.03766E+04 1.13797E+06 8.78716E+01 1.97359E+04-3.46865E+02-2.11774E+02
 -1      2034-1.05927E+04 8.79399E+05-8.72087E+01 4.72200E+04 1.04672E+02 1.30825E+02
 -1      2035-9.57285E+03 1.11399E+06-1.54731E+02 2.70133E+04-1.76428E+02 7.90720E+01
 -1      2036-9.91472E+03 1.15178E+06 9.09512E+01 2.68379E+04-2.21553E+02-2.05239E+02
 -1      2037-8.70271E+03 9.65395E+05 9.21509E+01 4.47028E+04 1.86854E+01 6.93920E+02
 -1      2038-8.82775E+03 1.14813E+06 1.55352E+02 3.22955E+04 4.42800E+02-3.03037E+02
 -1      2039-1.06315E+04 1.18536E+06-1.47307E+02 3.24275E+04 3.11162E+02 2.49672E+02
 -1      2040-8.93061E+03 9.33889E+05-7.72733E+01 5.64335E+04 2.25420E+02-2.56380E+02
 -1      2041-9.37314E+03 1.30968E+06 6.51896E+01 2.23800E+04-4.46209E+02 3.34001E+02
 -1      2042-9.51401E+03 1.35073E+06 1.35817E+02 2.24917E+04-5.26008E+02-5.76140E+02
 -1      2043-9.67019E+03 1.04480E+06 9.49522E+01 5.22511E+04-4.06754E+01-1.73843E+02
 -1      2044-9.85414E+03 1.33331E+06 8.59971E+01 2.81287E+04-5.43792E+01-5.02499E+01
 -1      2045-1.05883E+04 1.37398E+06 3.71392E+01 2.81406E+04-7.10737E+01-7.32576E+01
 -1      2046-9.05917E+03 1.15146E+06-9.62017E+01 4.82919E+04-2.95510E+02-3.61204E+02
 -1      2047-9.34038E+03 1.39424E+06-4.95380E+02 2.95673E+04 2.67271E+02 2.97613E+02
 -1      2048-1.05627E+04 1.43569E+06-3.55918E+02 3.01109E+04-2.62059E+02-2.61522E+02
 -1      2049-8.76424E+03 1.15375E+06 1.20936E+02 5.50287E+04-4.41999E+02 5.86283E+02
 -1      2050-9.44532E+03 1.42732E+06 7.75114E+01 3.73369E+04-4.71510E+01 2.56055E+02
 -1      2051-1.03869E+04 1.46895E+06 3.69426E+02 3.72294E+04 3.68899E+02-6.11885E+01
 -1      2052-9.32220E+03 1.27548E+06 2.78830E+02 4.85982E+04 9.01981E+02 1.05304E+02
 -1      2053-9.70601E+03 9.88526E+05-3.11346E+02 8.01776E+04 3.59188E+02 2.43309E+02
 -1      2054-8.15835E+03 1.01149E+06 2.46340E+02 7.22152E+04 4.00889E+01-2.40856E+02
 -1      2055-9.85796E+03 1.52949E+06-1.99398E+02 3.46289E+04-1.85970E+02 1.66019E+02
 -1      2056-1.01873E+04 1.57377E+06 1.47916E+02 3.49044E+04-1.52768E+02-1.34018E+02
 -1      2057-9.31256E+03 1.19771E+06 6.34695E+02 6.83060E+04 1.43634E+02 1.88439E+02
 -1      2058-9.74155E+03 1.54534E+06-7.02697E+01 4.18603E+04 3.55465E+02 3.85211E+01
 -1      2059-9.73944E+03 1.58941E+06 8.09968E+01 4.19699E+04 3.19121E+02-1.44045E+02
 -1      2060-9.72466E+03 1.22757E+06 7.21912E+02 7.23803E+04 8.56621E+01-8.67930E+02
 -1      2061-9.42219E+03 1.66508E+06-1.56713E+02 3.80778E+04-1.32315E+00 9.84175E+01
 -1      2062-9.54186E+03 1.71159E+06 2.92186E+02 3.81704E+04-9.03335E+01-1.52672E+02
 -1      2063-9.06113E+03 1.26710E+06-6.47612E+02 7.57604E+04 2.48578E+02 5.97552E+02
 -1      2064-8.95749E+03 1.74794E+06-1.83498E+02 3.85874E+04 1.97721E+02 6.43123E+01
 -1      2065-1.00825E+04 1.79600E+06-1.21752E+02 3.98113E+04-1.33741E+02-3.34224E+02
 -1      2066-9.50564E+03 1.37588E+06-8.44147E+02 7.33691E+04 2.65871E+02-3.21756E+02
 -1      2067-5.37780E+03 1.89809E+06 1.63249E+03 4.46251E+04 3.38530E+02 2.68324E+02
 -1      2068-7.16380E+03 1.95733E+06 3.12875E+03 4.60623E+04 2.65132E+03-1.21529E+02
 -1      2069-5.01349E+03 1.24028E+06 3.60883E+02 9.27303E+04 7.55325E+01-6.09560E+01
 -1      2070-6.82631E+03 1.62625E+06-1.82509E+01 6.01507E+04 1.25525E+03-2.99836E+02
 -1      2071-3.14503E+03 1.31881E+06-2.04163E+03 9.84280E+04-6.94430E+02 2.22480E+02
 -1      2072 1.70319E+04 1.59119E+06-1.34620E+03 1.07106E+05-1.89335E+03 1.16358E+03
 -1      2073 1.05604E+05 2.07024E+06-5.38517E+03 2.08630E+05 1.43435E+03-5.18490E+02
 -1      2074 1.25531E+05 1.98082E+06-1.18227E+04 2.98644E+05 3.36815E+01 1.64837E+03
 -1      2075 1.53646E+05 1.75095E+06 5.12599E+03 1.43728E+05 2.40531E+03 2.16637E+02
 -1      2076 1.35483E+05 2.01049E+06-7.22483E+03 3.54803E+05 8.53223E+03-5.00638E+02
 -1      2077 1.69581E+05 1.80714E+06-4.50173E+03 4.00494E+05 6.49266E+03 9.61986E+02
 -1      2078 1.59240E+05 1.62382E+06 8.11899E+03 1.56258E+05-6.21090E+03-6.59045E+03
 -1      2079 1.60547E+05 1.61087E+06-2.87278E+03 4.27437E+05 1.01261E+04-3.30023E+03
 -1      2080 2.10829E+05 1.39014E+06-2.94568E+03 4.36705E+05 1.83540E+04 1.47368E+03
 -1      2081 1.45188E+05 1.60434E+06-1.36010E+03 3.07464E+05-4.10405E+03 1.11447E+02
 -1      2082 1.06015E+05 1.41601E+06 2.09509E+02 1.10601E+05 2.13846E+02-8.74602E+03
 -1      2083 2.67726E+05 1.32429E+06 6.34017E+03 5.65578E+05 4.22591E+04 1.13037E+04
 -1      2084 2.00379E+05 1.36974E+06 8.40697E+03 3.75157E+05 5.11686E+04 2.84040E+03
 -1      2085 1.86137E+04 2.99973E+04-2.30271E+03-2.33778E+03-1.36667E+02-1.91498E+03
 -1      2086 5.24754E+04 3.54102E+05-3.10406E+03-8.06009E+03 2.27917E+02-2.50011E+03
 -1      2087 4.99515E+04 3.43973E+05-3.17457E+03 3.58992E+04 2.99349E+02-2.01512E+03
 -1      2088-9.07756E+03-2.53530E+05 1.06632E+03 2.52975E+04 4.38661E+02-7.47277E+02
 -1      2089-1.72548E+04-2.41053E+05-1.66244E+03-2.00989E+04-3.82071E+02-1.65336E+02
 -1      2090 2.00959E+04-1.81197E+04 4.43411E+02 7.82081E+04-2.98887E+02-1.06388E+03
 -1      2091-1.68629E+03-3.62149E+05 1.20130E+03 8.98507E+04-1.15388E+02-1.63102E+02
 -1      2092-5.89128E+03-3.21227E+05-1.86922E+02 6.04866E+04-6.87547E+00-7.20882E+02
 -1      2093 4.44781E+04 2.96553E+05 1.68347E+03 7.17906E+04 6.97480E+01-1.16997E+03
 -1      2094 3.31183E+04 2.49468E+05-1.30834E+03 1.00588E+05-3.57504E+02-6.31929E+02
 -1      2095 7.40797E+04 6.27470E+05 5.05749E+02 6.49408E+04-4.51336E+02-8.35454E+02
 -1      2096-3.70734E+04-6.00204E+05-2.12967E+03 4.17845E+04 4.95164E+02-1.73544E+03
 -1      2097 6.49544E+03 1.10205E+05-9.28219E+02 1.28969E+05 1.62202E+02 4.13280E+02
 -1      2098 6.80837E+03 6.54538E+05-1.49197E+03 1.20025E+05-7.07613E+02 7.55037E+02
 -1      2099 2.71549E+03 5.17268E+05-1.10753E+03 1.21526E+05 7.49734E+02-9.00548E+01
 -1      2100-2.28286E+03 8.05532E+05-1.99850E+03 1.14749E+05-7.18548E+02-3.97997E+02
 -1      2101 2.34909E+03 2.74188E+05 1.69262E+02 1.27509E+05 1.05409E+03-1.02232E+03
 -1      2102-3.76328E+02 7.14141E+03-5.02462E+02 1.28824E+05 2.59492E+02-3.64977E+02
 -1      2103-1.29537E+03-2.75774E+05-1.44391E+03 1.23886E+05-2.89132E+02 7.47795E+02
 -1      2104 1.42805E+03-3.03750E+05-1.82909E+02 1.23302E+05-1.18532E+02 1.75226E+02
 -1      2105-3.86432E+03 2.96752E+05-2.89033E+02 1.24255E+05 4.10179E+02 3.19889E+02
 -1      2106 4.05195E+03-2.91878E+05 4.27650E+02 1.23136E+05-1.66726E+02 5.72572E+01
 -1      2107 7.57828E+03-1.59568E+05 5.90819E+02 1.23889E+05-6.57332E+02-4.02157E+02
 -1      2108-3.40392E+01-5.76533E+05-4.88980E+02 1.18313E+05-2.78057E+02 4.92946E+02
 -1      2109-6.43140E+03 1.69612E+03-5.22087E+01 6.45661E+03 2.84249E+01-1.72115E+01
 -1      2110-6.56013E+03 1.93533E+03-2.67900E+01 4.96936E+03 3.45152E+01 1.67993E+00
 -1      2111-4.84961E+03 5.45130E+02 4.73317E+01 5.92507E+03 2.48074E+01 4.13100E+01
 -1      2112-5.84185E+03 1.80932E+03-4.57612E+01 7.91867E+03 2.12488E+01 1.43774E+01
 -1      2113-7.47950E+03 3.53981E+03 2.78561E+01 6.96797E+03-3.09405E+01-3.53554E+01
 -1      2114-3.80270E+03-8.19598E+02 2.17978E+01 6.02096E+03 8.58235E+00 3.88031E+01
 -1      2115-2.25251E+03-2.69578E+03 6.26304E+01 5.18300E+03 9.96502E+00 1.85393E+01
 -1      2116-3.11906E+03-2.13448E+03 6.50642E+01 6.64904E+03 6.16861E+01 2.42015E+01
 -1      2117-2.33938E+03-4.32354E+03-1.16462E+02 7.05915E+03 2.45996E+00 1.46416E+01
 -1      2118-3.96169E+03-2.06357E+03-3.78386E+01 7.90067E+03 1.72040E+01 1.05511E+00
 -1      2119-3.92487E+03-3.85108E+02-2.48022E+01 4.58386E+03 8.04709E-01 7.69151E+00
 -1      2120-3.98615E+03-2.02802E+03 3.58617E+01 9.58246E+03 4.03852E+01 2.79493E+01
 -1      2121-4.93503E+03-9.84317E+01 3.21728E+00 8.98864E+03 1.24945E+01 2.67079E+01
 -1      2122-6.05095E+03 1.81280E+03-5.75872E+01 9.54000E+03-1.86088E+01 1.48913E+01
 -1      2123-4.02162E+03-4.85915E+03-9.13448E+01 1.51321E+04 1.50699E+01 4.91465E+01
 -1      2124-2.10866E+03-1.35973E+04 6.89072E+01 1.27403E+04-5.96997E+00 3.01129E+01
 -1      2125-3.01187E+03-9.48184E+03-7.88162E+01 1.50473E+04 5.80845E+00-6.75275E+00
 -1      2126-3.86530E+03-6.46935E+03 3.76316E+01 1.70098E+04-7.54615E+01 1.24770E+02
 -1      2127-2.10323E+03-1.73181E+04-3.90006E+01 1.48428E+04 4.86964E+00-3.70925E+01
 -1      2128-7.98067E+03 1.28523E+04-1.06081E+01 1.33055E+04-3.25279E+01-3.05106E+01
 -1      2129-6.05525E+03 5.01680E+03 4.15508E+01 1.50422E+04-1.28009E+01 2.38204E+00
 -1      2130-6.99324E+03 8.59821E+03-2.21548E+01 1.53015E+04-4.83881E+01 1.28907E+02
 -1      2131-7.74600E+03 1.60902E+04-1.46074E+01 1.52494E+04-7.65191E+01 9.94047E+01
 -1      2132-6.07635E+03 6.71741E+03-2.46871E+01 1.68709E+04 4.20973E+01 1.21264E+02
 -1      2133-6.14153E+03 4.93111E+03 1.30603E+02 1.33145E+04-8.53402E+01-1.41487E+01
 -1      2134-5.14094E+03 2.95952E+02 1.45682E+01 1.51601E+04-4.26041E+01-2.97570E+01
 -1      2135-4.00168E+03-4.37060E+03-4.70094E+01 1.33777E+04 5.46003E+01 1.35798E+02
 -1      2136-3.77257E+03-6.87504E+03 1.49811E+02 1.82662E+04 4.68413E+00 4.62205E+01
 -1      2137-5.23581E+03-1.95728E+02-1.58058E+02 1.82304E+04-5.19359E+01 1.51052E+02
 -1      2138-6.17956E+03 6.55766E+03-1.89193E+02 1.85282E+04-1.31915E+02 6.28078E+01
 -1      2139-6.65226E+03 1.99715E+04-8.79635E+00 2.38765E+04 1.96295E+02-6.23577E+00
 -1      2140-7.44594E+03 3.01387E+04 5.48045E+01 2.10782E+04 4.13085E+01 9.48021E+01
 -1      2141-6.28367E+03 1.10420E+04 1.13478E+02 2.36377E+04 1.15181E+02-7.80099E+01
 -1      2142-6.09387E+03 1.40173E+04-7.56037E+01 2.57499E+04-2.84838E+01-5.68505E+01
 -1      2143-7.91397E+03 3.40873E+04 5.80041E+01 2.30801E+04 2.07229E+01-1.05598E+02
 -1      2144-3.24339E+03-1.88574E+04 1.45398E+02 2.36407E+04-1.08154E+02-1.34367E+02
 -1      2145-4.16546E+03-1.11856E+04-8.76255E+01 2.39798E+04-1.55454E+02-1.30557E+02
 -1      2146-2.18819E+03-2.92254E+04 6.09472E+01 2.12261E+04 8.43733E+01-1.26321E+02
 -1      2147-3.89267E+03-1.37898E+04 6.00614E+01 2.56889E+04 4.95848E+01-8.15799E+01
 -1      2148-2.48011E+03-3.40161E+04-7.41956E+01 2.31299E+04 8.49351E+01-1.57406E+02
 -1      2149-6.04539E+03 1.13885E+04 1.02931E+02 2.22903E+04-7.01133E+01-2.50251E+01
 -1      2150-4.91137E+03 6.45864E+02 4.66815E+01 2.42122E+04-3.45174E+01-7.63715E+01
 -1      2151-3.97170E+03-1.02452E+04-1.76133E+02 2.23421E+04-5.44514E+01 7.65479E+00
 -1      2152-3.86623E+03-1.40961E+04 1.23834E+02 2.69142E+04-9.20163E+01-6.72934E+01
 -1      2153-5.09724E+03-1.68746E+02-6.04464E+01 2.75188E+04-4.60453E+01-2.63661E+02
 -1      2154-6.16485E+03 1.37356E+04-8.42509E+01 2.71808E+04-1.78071E+02-1.13355E+01
 -1      2155-7.95809E+03 5.62663E+04-9.84369E+01 2.88555E+04-5.60929E+01 1.89866E+02
 -1      2156-6.31432E+03 1.97670E+04 1.62233E+02 3.24164E+04-4.87159E+01 7.41330E+01
 -1      2157-6.78097E+03 3.67892E+04-1.30665E+01 3.21107E+04 8.11250E+01 1.77653E+01
 -1      2158-7.52640E+03 6.31083E+04 1.13817E+02 3.07838E+04-3.71351E+01-1.88588E+02
 -1      2159-5.82487E+03 2.43387E+04-7.62069E+00 3.43947E+04-1.49188E+01-9.88580E+01
 -1      2160-4.08562E+03-2.20692E+04 8.47193E+01 3.24246E+04-5.81925E+01-2.46397E+02
 -1      2161-2.03141E+03-5.85833E+04 2.31806E+02 2.81125E+04 1.56563E+02-5.22046E+01
 -1      2162-3.27253E+03-3.95946E+04 1.04446E+02 3.13292E+04 2.85329E+02-1.24025E+02
 -1      2163-2.37524E+03-6.56628E+04-2.77860E+02 2.98963E+04 2.12385E+02 2.92427E+01
 -1      2164-3.89957E+03-2.58882E+04 1.39918E+02 3.39332E+04 5.58117E+01-7.76248E+01
 -1      2165-5.83630E+03 2.00780E+04 1.83913E+02 3.08922E+04-1.66589E+02-6.96586E+01
 -1      2166-4.64149E+03-7.99027E+02 8.19880E+01 3.32752E+04-3.49720E+01-1.23628E+02
 -1      2167-3.95707E+03-2.12951E+04-1.92906E+02 3.07203E+04-1.28884E+01-6.45248E+00
 -1      2168-3.78518E+03-2.64946E+04-2.12892E+01 3.58003E+04 2.12523E+02-5.26616E+01
 -1      2169-4.91837E+03-6.45611E+02-6.80985E+01 3.67346E+04-7.32561E+01-1.02024E+01
 -1      2170-6.10545E+03 2.42127E+04-3.28526E+02 3.60551E+04-1.16123E+02-5.45692E+01
 -1      2171-8.06593E+03 8.98050E+04-3.09723E+02 3.63784E+04-3.18456E-02-6.86265E+01
 -1      2172-5.98002E+03 3.26143E+04-2.52259E+02 4.15351E+04 4.32221E+02-1.76988E+02
 -1      2173-6.74186E+03 5.77659E+04-9.25251E+01 4.00013E+04 2.24174E+02-3.79811E+00
 -1      2174-7.50781E+03 9.80831E+04 4.26019E+02 3.84508E+04-8.15712E+01 1.72875E+02
 -1      2175-6.49757E+03 3.62749E+04-1.18113E+01 4.36104E+04 3.46740E+02 2.71908E+02
 -1      2176-4.23972E+03-3.59148E+04-2.59904E+00 4.12153E+04-3.75674E+02-7.55360E+01
 -1      2177-1.64301E+03-9.38044E+04 9.76241E+01 3.54972E+04 1.95534E+01-3.26407E+01
 -1      2178-3.20559E+03-6.18021E+04-1.83362E+02 3.94058E+04-2.93171E+02 1.31765E+01
 -1      2179-2.43142E+03-1.02783E+05-4.61476E+02 3.73504E+04 2.12207E+01 1.93285E+02
 -1      2180-3.66292E+03-3.98435E+04-1.67424E+02 4.33396E+04-5.14876E+02 2.74295E+02
 -1      2181-6.03215E+03 3.17450E+04 3.02531E+01 3.94151E+04 2.83176E+02 1.44780E+02
 -1      2182-5.06948E+03-1.59702E+03-1.23681E+02 4.21949E+04 4.93007E+01 2.18501E+02
 -1      2183-3.71529E+03-3.51137E+04-7.05153E+01 3.93706E+04-6.75991E+01 1.43710E+02
 -1      2184-3.44277E+03-4.08300E+04 2.90460E+02 4.41404E+04-2.01260E+02 9.01716E+01
 -1      2185-5.20314E+03-1.78615E+03-8.04656E+01 4.54559E+04-7.76198E+01 1.05946E+02
 -1      2186-6.06632E+03 3.71005E+04-1.57636E+02 4.49033E+04 1.23731E+02 3.31470E+01
 -1      2187-7.95330E+03 1.31563E+05-2.08229E+02 4.42699E+04-1.19090E+02-2.19232E+02
 -1      2188-6.24142E+03 4.70643E+04-9.37711E+01 4.98963E+04 1.92922E+02-2.09268E+02
 -1      2189-6.70429E+03 8.37912E+04 4.42853E+01 4.82989E+04 1.71129E+02-1.05650E+02
 -1      2190-7.04995E+03 1.41658E+05 2.19979E+02 4.64458E+04-1.52822E+02 1.15574E+02
 -1      2191-6.47149E+03 5.20982E+04-9.58186E+01 5.23716E+04 3.51630E+02 1.13519E+02
 -1      2192-3.37333E+03-5.17865E+04 2.82867E+00 4.95117E+04 1.15257E+02 2.35662E+02
 -1      2193-2.11977E+03-1.37722E+05 4.18781E+02 4.32389E+04 1.49191E+02-6.30386E+01
 -1      2194-3.37965E+03-9.05595E+04-2.00268E+02 4.82725E+04 5.82754E+02 4.55832E+01
 -1      2195-2.15112E+03-1.48133E+05-4.72518E+02 4.52685E+04 2.14093E+02 2.26707E+02
 -1      2196-3.89840E+03-5.81596E+04-2.00493E+02 5.18197E+04 1.91418E+02-1.46059E+02
 -1      2197-5.73713E+03 4.69475E+04 8.76449E+01 4.80659E+04-2.50306E+02-6.19980E+01
 -1      2198-5.15991E+03-2.57501E+03-3.86975E+02 5.17531E+04 1.58351E+02-2.28500E+02
 -1      2199-4.15124E+03-5.18481E+04-6.76619E+02 4.82741E+04 2.25448E+02-8.78329E+01
 -1      2200-3.82084E+03-5.89228E+04 5.96074E+01 5.29421E+04 2.92768E+02-1.58152E+02
 -1      2201-5.90949E+03-2.73226E+03-1.68476E+02 5.45538E+04 2.42199E+02-3.46917E+02
 -1      2202-5.62484E+03 5.35135E+04-3.00671E+02 5.36674E+04 3.01137E+02-2.48753E+02
 -1      2203-3.90139E+03-8.37647E+04 1.30359E+02 5.81660E+04 1.06159E+02 1.65064E+02
 -1      2204-2.34895E+03-1.93126E+05 6.26744E+02 5.02361E+04 2.68090E+02-2.43730E+02
 -1      2205-2.25477E+03-1.32021E+05 4.90721E+02 5.54697E+04 4.22321E+02 2.51666E+02
 -1      2206-2.63041E+03-2.05591E+05-2.38059E+02 5.27946E+04 3.99505E+02 2.34620E+02
 -1      2207-3.41154E+03-9.11667E+04-6.98466E+01 6.01342E+04-1.34555E+02 4.03078E+02
 -1      2208-6.30747E+03 5.60224E+04-3.37328E+02 5.89749E+04-3.54199E+02 2.29982E+02
 -1      2209-5.66070E+03 6.60226E+04 1.72416E+02 5.71938E+04-4.13863E+01 2.50170E+02
 -1      2210-4.48570E+03-1.25053E+04 2.17705E+02 6.07380E+04-4.26433E+01 3.72620E+02
 -1      2211-4.36543E+03-7.48067E+04-2.69933E+01 5.61903E+04 4.53078E+01-5.43107E+01
 -1      2212-3.73400E+03-8.50059E+04 5.33416E+02 6.17869E+04-1.23241E+02-3.99946E+01
 -1      2213-4.78468E+03-1.53963E+04-1.14518E+02 6.35078E+04 1.26780E+01 2.67032E+02
 -1      2214-6.21953E+03 7.05955E+04-3.00472E+02 6.23201E+04 1.10756E+02 1.51154E+01
 -1      2215-5.76765E+03 6.36515E+04 7.97044E+02 6.08721E+04 2.18604E+02 4.02636E+02
 -1      2216-6.98940E+03 1.43476E+05 3.64937E+02 5.77613E+04-1.22169E+02 4.78473E+02
 -1      2217-3.33141E+03-1.16124E+05-5.33850E+02 6.59504E+04-1.57257E+01 9.45860E+00
 -1      2218-1.72552E+03-2.47280E+05 1.78938E+02 5.87627E+04 2.25660E+01 3.87467E+02
 -1      2219-3.82088E+03-1.77412E+05-6.36155E+02 6.37443E+04-1.77140E+02 2.71684E+02
 -1      2220-2.41307E+03-2.61504E+05-3.96651E+02 6.01245E+04 1.10098E+02 2.20421E+02
 -1      2221-3.38796E+03-1.25344E+05-5.69927E+01 6.88141E+04-3.18603E+02 3.14112E+02
 -1      2222-6.22679E+03 6.35207E+04-4.10733E+02 6.79259E+04 3.54953E+02-1.24403E+02
 -1      2223-5.23080E+03 8.24897E+04 5.05725E+02 6.58403E+04 1.45150E+02 8.93285E+01
 -1      2224-5.23259E+03-2.32974E+04-7.85780E+01 6.91544E+04 3.75902E+02-2.39354E+02
 -1      2225-4.09878E+03-9.79326E+04-5.78187E+02 6.54200E+04 4.28101E+02 6.24298E+01
 -1      2226-3.45649E+03-1.11821E+05 4.16791E+02 7.01942E+04-1.16669E+02-5.32515E+01
 -1      2227-5.09631E+03-2.91692E+04-3.64927E+02 7.21406E+04 1.33903E+02 2.87963E+02
 -1      2228-6.70871E+03 6.16649E+04-1.66385E+02 7.10215E+04-1.62466E+02 2.61978E+02
 -1      2229-4.89749E+03 4.78551E+04 4.11828E+02 6.95158E+04 3.95895E+02 2.64012E+02
 -1      2230-6.56853E+03 1.54257E+05-2.24152E+01 6.71312E+04-5.30394E+01 1.57301E+02
 -1      2231-4.11398E+03-1.49921E+05-1.00725E+02 7.54549E+04-4.89722E+02-3.21429E+02
 -1      2232-1.25444E+03-3.15698E+05 2.28600E+02 6.60468E+04 2.00072E+02-3.58884E+02
 -1      2233-2.88708E+03-2.24117E+05-1.98008E+01 7.14878E+04-3.96204E+02 1.19545E+01
 -1      2234-2.38233E+03-3.31703E+05-6.02733E+02 6.76172E+04 1.15553E+02 2.71651E+02
 -1      2235-2.92610E+03-1.59232E+05-1.06204E+02 7.73234E+04-4.86212E+02 4.46237E+02
 -1      2236-5.90865E+03 8.00065E+04-3.71368E+02 7.71702E+04 5.40557E+02-1.66990E+02
 -1      2237-5.14281E+03 1.02721E+05 5.06553E+02 7.46451E+04 1.15289E+02 3.22786E+02
 -1      2238-5.04471E+03-3.17320E+04 1.49341E+02 7.79801E+04-8.95070E+01-2.26342E+02
 -1      2239-3.51191E+03-1.26257E+05-4.71197E+02 7.40560E+04-3.48415E+02 1.66948E+02
 -1      2240-3.24060E+03-1.44716E+05 5.79474E+02 7.88107E+04-3.30068E+01-1.96153E+01
 -1      2241-4.15122E+03-3.94808E+04-2.26436E+02 8.09657E+04 1.07379E+02 2.82176E+02
 -1      2242-6.61864E+03 7.25168E+04-1.25133E+03 8.03001E+04 3.22682E+02-4.30130E+02
 -1      2243-5.32666E+03 5.74062E+04-2.10852E+02 7.84759E+04 3.04665E+02-7.53934E+00
 -1      2244-7.68161E+03 1.92834E+05-1.36576E+02 7.51893E+04 1.58728E+02-5.06967E+02
 -1      2245-3.22185E+03-1.85529E+05 4.70854E+02 8.37110E+04-2.96995E+01 3.82652E+02
 -1      2246-2.31039E+03-3.92164E+05 5.96192E+02 7.35022E+04 2.94064E+02-4.45519E+02
 -1      2247-2.36306E+03-2.77350E+05 1.87058E+02 8.05667E+04 4.50927E+02 5.23277E+01
 -1      2248-2.60403E+03-4.10344E+05-5.58348E+02 7.57238E+04 1.10636E+02-2.71445E+02
 -1      2249-3.37296E+03-1.98170E+05-7.29333E+00 8.54195E+04-1.33371E+02-3.20614E+02
 -1      2250-6.12431E+03 9.93856E+04-4.98818E+02 8.62500E+04 4.12628E+02-9.81351E+00
 -1      2251-6.40867E+03 1.25998E+05 2.52132E+02 8.39566E+04 4.19676E+02 4.58185E+02
 -1      2252-3.84240E+03-3.96937E+04 4.57343E+02 8.72611E+04 3.94431E+01 3.96199E+02
 -1      2253-4.07141E+03-1.56819E+05-1.78819E+01 8.25174E+04 3.93042E+02 8.48003E+01
 -1      2254-2.97390E+03-1.78159E+05-1.61807E+01 8.64857E+04 5.90484E+01 2.46327E+01
 -1      2255-6.03845E+03-4.96442E+04-7.47267E+02 9.02179E+04-1.58563E+02-2.09911E+02
 -1      2256-5.57304E+03 8.97323E+04-9.08202E+02 8.92755E+04 1.55759E+02-3.02892E+02
 -1      2257-5.08385E+03 7.04467E+04-1.69092E+02 8.76470E+04 1.40772E+02 2.48428E+02
 -1      2258-6.40337E+03 2.39034E+05 7.69229E+01 8.43754E+04 4.42751E+00-2.81551E+02
 -1      2259-4.41297E+03-2.26695E+05-2.06110E+02 9.29036E+04-6.62385E+02-4.04879E+02
 -1      2260-1.30013E+03-4.76250E+05 2.29685E+02 8.12046E+04 1.85174E+02-3.81730E+02
 -1      2261-2.99770E+03-3.37262E+05-2.32356E+02 8.78097E+04-3.32096E+02-1.41205E+01
 -1      2262-2.12831E+03-4.96672E+05-4.19977E+02 8.26652E+04 6.71406E+01 1.34594E+02
 -1      2263-3.38665E+03-2.38913E+05-4.58134E+02 9.45780E+04-5.94372E+02 3.80321E+02
 -1      2264-6.28717E+03 1.22312E+05-2.39018E+02 9.43134E+04-2.21433E+02 2.75783E+02
 -1      2265-5.54391E+03 1.54951E+05 7.81728E+02 9.27725E+04-1.75403E+02-3.69940E+02
 -1      2266-4.04906E+03-4.77444E+04 5.99381E+02 9.62009E+04-1.71977E+02-3.11676E+02
 -1      2267-3.91225E+03-1.90454E+05-4.38054E+02 9.17837E+04-4.84867E+02 1.55193E+02
 -1      2268-3.69380E+03-2.15926E+05 1.20355E+02 9.55958E+04-2.02845E+02-8.02780E+01
 -1      2269-3.24545E+03-5.84368E+04 9.06034E-01 9.90579E+04-3.28931E+02-3.44857E+02
 -1      2270-6.35174E+03 1.11131E+05-3.95500E+02 9.71978E+04 7.46043E+01 7.43085E+01
 -1      2271-5.13425E+03 8.74500E+04 5.98961E+02 9.67104E+04-3.35035E+02 1.14392E+02
 -1      2272-7.27216E+03 2.92045E+05-9.13803E+01 9.24621E+04-2.21852E+02 4.16903E+02
 -1      2273-3.76663E+03-4.79135E+05 2.14433E+02 1.11823E+05 7.28930E+02 2.21909E+00
 -1      2274-4.29055E+03-5.86844E+05-4.81439E+02 1.11624E+05 9.42354E+02 7.39234E+02
 -1      2275-2.49460E+03-1.15800E+05 7.12801E+02 1.24243E+05 1.85699E+02 2.44513E+02
 -1      2276-3.67946E+03-2.63079E+05 2.37990E+02 1.17468E+05 2.95013E+01-6.30109E+02
 -1      2277-9.39781E+02-7.22657E+05 1.54031E+03 1.05610E+05 7.03270E+02-3.06070E+02
 -1      2278-7.42632E+03 2.99608E+05-8.30669E+02 1.16577E+05 2.84306E+02-4.51465E+02
 -1      2279-6.81662E+03 3.28631E+05 7.09128E+02 1.15248E+05-8.08942E+02-3.64908E+02
 -1      2280-4.77698E+03 1.40104E+04 3.13254E+02 1.22607E+05-1.07338E+02-8.89919E+02
 -1      2281-4.28396E+03-2.34774E+05-1.35064E+02 1.16225E+05 7.37317E+02-2.62732E+02
 -1      2282-5.68673E+03 1.56101E+05-1.04828E+03 1.22697E+05 1.15659E+03-4.25004E+02
 -1      2283-4.99750E+03 2.60364E+05 9.10331E+01 1.19112E+05 1.41447E+02 6.53450E+01
 -1      2284-6.87443E+03 5.78247E+05 3.03698E+02 1.13808E+05-4.67921E+01-6.99504E+02
 -1      2285-6.72825E+03 2.01390E+05-8.39088E+02 1.01881E+05 5.15947E+02-3.06267E+02
 -1      2286-5.36378E+03 2.02042E+05 6.18452E+02 9.97974E+04 3.46047E+02 2.20103E+02
 -1      2287-5.06936E+03-4.83446E+03-1.35358E+02 1.04619E+05 4.57853E+01-4.06634E+02
 -1      2288-4.50056E+03-2.16035E+05-3.81957E+02 9.97348E+04-4.46675E+02 8.46182E+01
 -1      2289-3.12393E+03-2.13887E+05 7.34363E+02 1.01518E+05-6.39146E+02-3.10073E+02
 -1      2290-5.00139E+03-2.05340E+05-1.10774E+02 1.03884E+05-2.07006E+02 1.85421E+02
 -1      2291-3.86544E+03-2.07670E+05 6.51214E+02 1.06047E+05 4.65985E+02-4.30193E+01
 -1      2292-4.93738E+03-6.36377E+03-7.31296E+01 1.08877E+05 9.99523E+01 2.95861E+02
 -1      2293-6.02698E+03 1.66416E+05-7.67445E+02 1.06513E+05-1.52748E+02-7.26595E+01
 -1      2294-4.74926E+03 1.69549E+05 3.72952E+01 1.04396E+05 2.46319E+02 4.11331E+01
 -1      2295-6.96084E+03 3.74605E+05-8.71021E+02 1.00154E+05-1.56286E+02 2.79974E+02
 -1      2296-2.75273E+03-4.15960E+05 7.56107E+02 9.92884E+04-7.68664E+01 7.94585E+02
 -1      2297-2.65233E+03-2.74151E+05 5.58944E+02 1.09156E+05-1.05879E+02-5.55015E+02
 -1      2298-2.21083E+03-6.13194E+05 2.66865E+02 9.94065E+04 5.02498E+02-2.75339E+02
 -1      2299-4.59161E+03-4.04820E+05-2.71413E+02 1.06489E+05-1.27791E+02-1.33385E+02
 -1      2300-3.43774E+03-4.80303E+05 6.86113E+02 1.06597E+05 4.56181E+02 1.80691E+02
 -1      2301-3.52858E+03-1.37537E+05 3.75426E+02 1.16393E+05-2.12610E+02 2.16415E+02
 -1      2302-6.30360E+03-3.79148E+04-3.13999E+02 1.13448E+05 4.11262E+02-6.41369E+02
 -1      2303-4.60424E+03-2.49563E+05-1.06625E+03 1.08949E+05 1.06932E+03-3.00208E+02
 -1      2304-6.12122E+03 1.41184E+05-3.84342E+02 1.11495E+05 1.00250E+02 3.09753E+01
 -1      2305-5.16496E+03 1.67973E+05 8.19442E+02 1.10717E+05 3.46314E+02 4.83542E+02
 -1      2306-5.23421E+03 9.44390E+04-2.30960E+02 1.15417E+05-6.82853E+02 1.35527E+01
 -1      2307-5.28944E+03 1.69830E+05 2.91029E+02 1.12806E+05 2.16227E+01 2.05607E+02
 -1      2308-6.96965E+03 3.74292E+05-1.18771E+02 1.10832E+05-2.72483E+02 1.05969E+03
 -1      2309 5.03355E+04 7.25680E+05-1.34777E+04-6.26466E+04 3.60723E+03-4.63181E+03
 -1      2310 7.94918E+04 1.03942E+06 6.92616E+02 2.03986E+04 8.11255E+03-6.42455E+03
 -1      2311 1.11467E+05 1.22819E+06 5.19900E+03 5.97498E+04 1.67651E+03 4.22905E+01
 -1      2312 4.56669E+04 4.20750E+05-3.52454E+03-4.65613E+04-4.56113E+03-1.87618E+03
 -1      2313-3.06832E+03 1.75024E+04 1.54254E+03-9.02487E+04 1.87715E+02-4.56543E+03
 -1      2314 3.38102E+04 4.04020E+05-1.30039E+03-7.95742E+04 7.84497E+02-2.86181E+02
 -1      2315 1.11733E+05 1.16055E+06-9.74303E+03 5.09711E+04-4.06933E+02-1.83899E+03
 -1      2316 1.15037E+05 1.10360E+06-1.84507E+03 6.59167E+04-2.39290E+03-5.67677E+02
 -1      2317 8.71007E+04 7.47209E+05 3.90385E+03-3.83221E+03-4.43421E+03-3.44064E+03
 -1      2318-3.28333E+04-3.86158E+05 6.96824E+03-9.46080E+04-2.59026E+03-3.47149E+03
 -1      2319-3.16069E+04-3.68025E+05-1.40341E+03-5.45329E+04-4.11836E+02-1.75388E+03
 -1      2320-5.94970E+04-6.95250E+05 1.29951E+04-8.77077E+04-4.71212E+03-4.88514E+03
 -1      2321-7.82932E+04-1.00878E+06 8.85675E+02-1.84195E+04-8.49053E+03-5.99278E+03
 -1      2322-1.03498E+05-1.21623E+06-2.88138E+03 1.71775E+04-3.79226E+03-2.76921E+03
 -1      2323-6.51117E+04-6.59908E+05-3.24095E+03-2.80724E+04-3.07265E+02-2.49754E+02
 -1      2324-8.31438E+04-9.78628E+05 3.19968E+03 2.65252E+04 2.16096E+03-6.42320E+02
 -1      2325-9.61314E+04-1.08644E+06 9.29028E+03 5.70774E+03 6.00534E+02 1.25625E+03
 -1      2326-1.31746E+03-5.39385E+02-1.30224E+01 1.28331E+03-5.34288E-01 1.02875E+01
 -1      2327-4.40852E+02-6.55872E+02-3.18680E+01 6.20143E+02-1.51489E+01 4.03034E+01
 -1      2328-1.06667E+03-7.06277E+02 1.45718E+01 1.42430E+03 3.30357E+00 2.30579E+01
 -1      2329-1.75888E+03-2.54367E+02 1.48647E+01 1.27973E+03 5.53079E+00 5.23106E-01
 -1      2330-2.41246E+03 1.02370E+01 1.10312E+01 1.53669E+03-3.32894E+00 8.10083E+00
 -1      2331-3.37485E+03 1.85908E+02-5.74465E+00 2.23196E+03 6.20767E+00 4.31935E+00
 -1      2332-3.67906E+03 5.85643E+02-1.97828E+01 1.46156E+03 1.46139E+01-9.28851E+00
 -1      2333-2.48602E+03-8.78924E+02 2.09467E+01 3.41444E+03-6.80856E+00-4.00773E+00
 -1      2334-3.61303E+03 1.05024E+02-4.87139E+00 3.30768E+03 1.78638E+01 3.07127E+00
 -1      2335-4.77272E+03 9.76709E+02 2.58063E+01 3.28975E+03 2.47675E+01 1.58557E+01
 -1      2336-1.50415E+03-1.65026E+03-4.09011E+01 2.49718E+03 7.26873E+00 1.74352E+00
 -1      2337-1.67165E+03-2.01340E+03 4.09070E+01 3.63392E+03 3.12825E+00 2.78906E+01
 -1      2338-8.60229E+03 6.90991E+05-4.62566E+02 7.33619E+04 1.46843E+02-3.60777E+02
 -1      2339-9.81122E+03 7.80982E+05 1.27356E+01 6.27171E+04-1.81794E+02 2.53992E+02
 -1      2340-9.06533E+03 5.37836E+05 1.06461E+03 8.18018E+04 9.01751E+01-3.59554E+02
 -1      2341-8.17401E+03 4.41708E+05-3.90511E+02 8.59380E+04-9.33859E+01 4.41958E+02
 -1      2342-5.95142E+03 3.48378E+05 1.56369E+02 9.26000E+04-1.32821E+02-2.73642E+02
 -1      2343-7.45821E+03 6.82531E+05 1.32090E+02 7.61556E+04 1.53361E+02 5.82575E+02
 -1      2344-8.15179E+03 4.26623E+05 6.10584E+02 9.42904E+04 5.83568E+01-6.10764E+02
 -1      2345-8.21717E+03 6.65546E+05-6.14664E+02 8.09871E+04 8.64397E+02-2.09379E+02
 -1      2346-5.56633E+03 2.04908E+05 9.40481E+02 9.76310E+04-4.16621E+02-4.02007E+02
 -1      2347-3.56341E+03-1.89197E+04 3.78339E+02 1.02610E+05 2.02946E+01-4.81656E+02
 -1      2348-7.22062E+03 2.18163E+05-1.55790E+02 9.78808E+04 1.31402E+02 3.86145E+01
 -1      2349-8.41887E+03 5.72431E+05-5.03379E+02 6.65670E+04-1.17566E+03 2.83319E+01
 -1      2350-8.22355E+03 6.43414E+05-2.44436E+02 5.70699E+04-5.48897E+02-2.58321E+02
 -1      2351-9.43080E+03 4.40925E+05-2.28683E+02 7.48859E+04-4.26184E+02 6.58292E+02
 -1      2352-6.98508E+03 3.59804E+05-1.62161E+02 7.83695E+04-1.01833E+02-1.63221E+01
 -1      2353-7.21601E+03 2.86585E+05-3.57940E+02 8.50435E+04-3.22381E+02-1.38677E+02
 -1      2354-7.46206E+03 5.70377E+05 2.70005E+02 6.93983E+04-4.85577E+02-5.57509E+02
 -1      2355-8.25907E+03 3.48536E+05-1.76503E+02 8.66580E+04-1.69944E+02 5.22565E+02
 -1      2356-9.14383E+03 5.49638E+05-6.48343E+02 7.45432E+04-4.86882E+02 3.45549E+02
 -1      2357-5.21917E+03 1.70857E+05-4.71793E+01 8.78393E+04-3.39720E+02-6.98159E+00
 -1      2358-5.78301E+03-2.22301E+04-3.83928E+02 9.34823E+04-9.01522E+01 4.48401E+02
 -1      2359-5.55964E+03 1.78356E+05-1.40308E+02 9.01327E+04-2.93384E+02 4.56624E+02
 -1      2360-8.82609E+03 4.65893E+05-7.23697E+02 6.00611E+04 1.35891E+02-4.96764E+02
 -1      2361-8.61959E+03 5.22226E+05-1.80577E+01 5.12598E+04-1.50440E+02 2.65137E+02
 -1      2362-9.02280E+03 3.58932E+05 7.40509E+01 6.77959E+04 1.67145E+02-5.85701E+02
 -1      2363-6.86885E+03 2.91552E+05-3.84515E+01 7.09304E+04 6.04841E+02-3.24375E+01
 -1      2364-7.15635E+03 2.34174E+05-5.54325E+02 7.60469E+04-5.36698E+01-2.17633E+02
 -1      2365-7.53209E+03 4.66895E+05-6.22287E+02 6.24288E+04-9.13719E+01 1.97434E+02
 -1      2366-6.88338E+03 2.85241E+05 2.32833E+02 7.87449E+04-4.27887E+00 6.05045E+02
 -1      2367-8.06293E+03 4.50571E+05-4.06773E+02 6.78102E+04-3.42010E+02 3.09383E+02
 -1      2368-5.47079E+03 1.39603E+05 3.33529E+02 7.92775E+04-1.32225E+02-1.11933E+02
 -1      2369-4.74289E+03-1.81351E+04 4.26371E+02 8.49664E+04 3.10655E+02 4.50600E+02
 -1      2370-6.71910E+03 1.43770E+05-3.23167E+02 8.08312E+04-4.65876E+01 5.27538E+02
 -1      2371-8.73657E+03 3.71541E+05-2.55311E+02 5.30070E+04 1.93847E+01 1.63379E+02
 -1      2372-9.62116E+03 4.18702E+05-1.09272E+02 4.50939E+04 4.44668E+01 4.89924E+02
 -1      2373-6.87172E+03 2.90487E+05 8.96316E+02 6.00216E+04 7.02751E+01 4.88395E+02
 -1      2374-8.01530E+03 2.36324E+05-4.38878E+02 6.18592E+04-2.44679E+02 2.95303E+02
 -1      2375-6.81814E+03 1.88035E+05 3.67601E+02 6.79910E+04-2.76729E+02 7.95201E+02
 -1      2376-8.83354E+03 3.72687E+05 3.57103E+02 5.67137E+04-2.14207E+01 3.40591E+02
 -1      2377-8.04744E+03 2.28587E+05 4.63720E+02 7.01821E+04-8.97921E+00-3.89080E+02
 -1      2378-8.24116E+03 3.61774E+05-3.79606E+02 6.07119E+04 3.73328E+02-2.43235E+02
 -1      2379-6.55571E+03 1.13333E+05 4.72035E+02 7.14373E+04 3.20463E+02 4.63479E+02
 -1      2380-4.17747E+03-1.18277E+04 8.04326E+01 7.55522E+04-1.15704E+02 5.31716E+02
 -1      2381-6.47728E+03 1.15087E+05-4.32805E+02 7.27929E+04 8.40750E+01 4.70817E+01
 -1      2382-7.83629E+03 2.88093E+05 5.01287E+02 5.04271E+04 1.25205E+02 1.18505E+02
 -1      2383-8.40697E+03 2.66239E+05-2.98906E+02 4.98232E+04 1.27059E+02-2.30592E+02
 -1      2384-7.47142E+03 1.75235E+05 5.19336E+02 6.24862E+04-3.18797E+01-2.90010E+02
 -1      2385-8.31368E+03 2.83070E+05-2.00079E+02 5.34353E+04 5.48315E+02-1.77828E+02
 -1      2386-5.35689E+03 8.62233E+04 6.03091E+02 6.29686E+04-3.84296E+02-1.03166E+02
 -1      2387-4.74947E+03-6.25955E+03 3.32868E+01 6.69214E+04 1.28426E+02-3.93180E+02
 -1      2388-6.58950E+03 8.60887E+04-8.47372E+01 6.40592E+04 5.54902E+01 1.99137E+01
 -1      2389-8.17497E+03 1.63961E+05-1.12053E+02 5.98238E+04-5.05014E+01-1.16636E+02
 -1      2390-8.10956E+03 2.51551E+05 5.14231E+02 4.94256E+04 1.45225E+02 6.34725E+01
 -1      2391-8.03944E+03 2.17403E+05 7.55938E+01 4.34033E+04-1.93612E+02 2.26122E+02
 -1      2392-8.89265E+03 1.95854E+05-1.26333E+02 4.22796E+04-3.59439E+02 2.41501E+02
 -1      2393-7.26762E+03 1.34966E+05-3.19171E+02 5.44280E+04-3.80029E+02 5.09946E+02
 -1      2394-8.55352E+03 2.17953E+05-6.89254E+02 4.63207E+04-6.32995E+02 3.82401E+02
 -1      2395-5.60921E+03 6.58698E+04 2.17456E+02 5.41923E+04-1.31115E+01-2.26493E+02
 -1      2396-4.97579E+03-3.94994E+03-2.69809E+02 5.77809E+04 2.38473E+02-4.10070E+02
 -1      2397-7.03559E+03 6.35737E+04-3.42266E+02 5.52547E+04-1.47598E+02 1.03816E+02
 -1      2398-7.12963E+03 1.22001E+05 8.01867E+00 5.15641E+04-3.28451E+01-1.47438E+02
 -1      2399-7.91756E+03 1.85086E+05 1.96855E+02 4.27605E+04-1.94640E+02-1.67224E+02
 -1      2400-7.93279E+03 1.54353E+05 3.82222E+02 3.68962E+04 9.50339E+01 1.02817E+02
 -1      2401-8.25952E+03 1.38929E+05-1.82304E+02 3.60749E+04 9.50654E+01-1.37783E+02
 -1      2402-7.58232E+03 9.51665E+04-3.75450E+01 4.53408E+04 7.06653E+01-1.94067E+02
 -1      2403-8.21403E+03 1.53568E+05-8.53853E+01 3.91602E+04 5.38638E+02-6.09630E+01
 -1      2404-5.46865E+03 4.66837E+04 3.00732E+02 4.56095E+04 9.33413E+01 2.80728E+02
 -1      2405-4.49732E+03-1.97491E+03-2.26670E+01 4.83740E+04 1.74850E+01 2.25738E+02
 -1      2406-6.24138E+03 4.63043E+04-4.25655E+02 4.71021E+04 1.09153E+02 1.02569E+02
 -1      2407-7.76385E+03 8.63599E+04-1.27699E+02 4.31725E+04 6.48566E+01 4.66082E+01
 -1      2408-8.21014E+03 1.29597E+05 2.44062E+02 3.57486E+04 2.04287E+02 6.38413E+01
 -1      2409-8.14167E+03 1.03753E+05 3.66970E+02 3.00057E+04-2.37724E+02-1.45208E+02
 -1      2410-8.36007E+03 9.08515E+04-6.28891E+00 2.89326E+04-3.74747E+00-1.00578E+02
 -1      2411-7.25302E+03 6.43067E+04-2.26359E+01 3.72008E+04 1.31290E+02-1.88385E+02
 -1      2412-8.37787E+03 1.03140E+05-1.26306E+01 3.16566E+04 1.75597E+02-3.66274E+01
 -1      2413-5.85309E+03 3.11080E+04 1.72758E+02 3.70460E+04-4.41368E+01-2.42620E+02
 -1      2414-4.91196E+03-1.35055E+03-5.28462E+01 3.98592E+04 1.07298E+02 5.64931E-01
 -1      2415-6.55535E+03 3.03897E+04-3.67662E+02 3.84856E+04 2.69401E+02 6.93979E+01
 -1      2416-7.07687E+03 5.71097E+04 1.79902E+02 3.47312E+04-4.77397E+01-1.79213E+02
 -1      2417-7.93377E+03 8.44031E+04 2.50581E+02 2.85134E+04-1.67409E+02-2.36991E+02
 -1      2418-1.73367E+03-8.26473E+03 7.53710E+01 8.26679E+03 4.47106E+01 6.28492E+01
 -1      2419-1.65171E+03-1.18953E+04-1.50341E+02 9.56272E+03 6.37088E+01-3.12643E+01
 -1      2420-1.65169E+03-1.25470E+04-3.26052E+01 1.06204E+04-2.36843E+01-3.29928E+01
 -1      2421-2.90168E+03-7.99647E+03-9.71295E+01 1.19077E+04 4.68705E+01-8.38363E+01
 -1      2422-2.61029E+03-5.31700E+03 3.82910E+01 9.64241E+03 3.30685E+01 4.63407E+01
 -1      2423-1.89172E+03-7.09153E+03-5.34502E+01 7.28915E+03-3.85626E+01 4.51422E+01
 -1      2424-3.91813E+03-3.30361E+03 2.77243E+01 1.21101E+04-5.06298E+01-2.52152E+01
 -1      2425-5.23492E+03 8.06475E+01-2.43261E+01 1.20067E+04-4.00524E+01-5.72673E+01
 -1      2426-3.84874E+03-3.39341E+03-6.65956E+01 1.07114E+04 3.32711E+01-4.05188E+01
 -1      2427-1.55298E+03-2.56889E+04 1.76272E+02 1.50741E+04 5.83228E+01-1.24391E+01
 -1      2428-1.77466E+03-3.19887E+04 9.03646E+01 1.62684E+04 1.32925E+02-3.27042E+01
 -1      2429-1.69250E+03-3.25314E+04 8.37560E+01 1.80125E+04 8.57841E+01 4.58748E+01
 -1      2430-2.74971E+03-2.03211E+04 2.01268E+01 2.04127E+04 1.23123E+01 2.07184E+01
 -1      2431-2.67208E+03-1.66399E+04 2.71580E+02 1.79434E+04 4.58872E+01 8.51697E+01
 -1      2432-1.50098E+03-2.28148E+04-1.28591E+01 1.43816E+04-1.01818E+02 1.49918E+01
 -1      2433-3.72947E+03-9.33871E+03 3.16952E+01 2.08961E+04 4.89470E+01 1.14334E+01
 -1      2434-5.09014E+03 2.89931E+02-1.28154E+02 2.13613E+04-8.70822E+01 1.21412E+02
 -1      2435-3.98095E+03-1.00760E+04 2.76338E+01 1.93901E+04-1.98751E+01 4.51257E+01
 -1      2436-8.47471E+03 6.18760E+04 1.66735E+02 2.35484E+04-1.12132E+02-6.94624E+01
 -1      2437-8.16796E+03 5.28641E+04-1.43136E+02 2.22131E+04-1.27521E+02 2.21647E+02
 -1      2438-6.76632E+03 3.87216E+04 1.06983E+02 2.87101E+04-9.51584E+01-8.54336E+01
 -1      2439-8.47605E+03 6.28416E+04-1.45362E+02 2.48484E+04-1.12353E+02 1.09076E+02
 -1      2440-5.95691E+03 1.87469E+04 3.77989E+02 2.84390E+04-2.62274E+02-7.25750E+01
 -1      2441-4.84977E+03-2.63644E+02 1.75361E+02 3.03153E+04-1.83649E+02-9.96654E+01
 -1      2442-6.30671E+03 1.84583E+04-1.62632E+02 2.95760E+04-1.20260E+02 6.61871E+01
 -1      2443-7.50432E+03 3.29792E+04-1.15920E+01 2.64433E+04-5.14769E+01 1.86453E+02
 -1      2444-7.79990E+03 4.89109E+04 2.23852E+02 2.14592E+04 6.25772E+01 1.46321E+02
 -1      2445-8.57239E+02-6.47422E+05 1.21223E+03 7.56680E+04-2.07921E+02-6.02695E+02
 -1      2446-1.87189E+03-6.83299E+05-2.07997E+02 7.58801E+04-1.42497E+02-7.98998E+00
 -1      2447-1.06449E+03-6.73180E+05 4.88345E+02 7.85300E+04-3.88810E+02-9.62093E+01
 -1      2448-1.91765E+03-4.37598E+05 3.09502E+01 9.38454E+04-3.77505E+02-5.96648E+02
 -1      2449-3.77450E+03-2.27015E+05 2.80237E+02 9.87872E+04-2.86937E+02-1.46149E+02
 -1      2450-4.30855E+03-2.40036E+05-8.22755E+02 9.70793E+04-3.08220E+02 3.50292E+02
 -1      2451-3.22599E+03-4.23455E+05 1.10592E+02 9.09773E+04-2.04477E+02 5.65646E+02
 -1      2452-7.43688E+02-6.22599E+05 3.45349E+02 7.59154E+04-6.28994E+02-2.74958E+02
 -1      2453-7.41481E+03 1.09241E+03 7.05378E+01 2.38033E+02 2.10693E+01 9.26782E+01
 -1      2454-4.74735E+03 5.54169E+02 8.42360E+01-5.15830E+02 1.20100E+02-1.70957E+01
 -1      2455-4.76519E+03 8.55224E+02-1.93676E+01 2.99240E+02 3.10363E+01-1.41447E+01
 -1      2456-8.13025E+03 1.95699E+03-1.49796E+01 1.65627E+03 3.12494E+01 1.88501E+01
 -1      2457-3.96254E+03 8.25124E+02 6.08338E+01 9.50766E+02 4.11970E+01 4.39785E+00
 -1      2458-5.46680E+03 1.17790E+03 4.49655E+00 1.50761E+03 1.08284E+01 2.29003E+01
 -1      2459-6.73826E+03 1.82738E+03-1.60817E+01 2.07900E+03 3.06782E+01 1.13249E+01
 -1      2460-8.20211E+03 2.24436E+03-6.77504E+01 2.94578E+03 1.07652E+00-3.73209E+00
 -1      2461-5.88958E+03 1.48088E+03-6.91470E+01 2.63266E+03 1.39562E+01-1.74410E+01
 -1      2462-9.11086E+03 8.48088E+05 1.99859E+02 7.61080E+04-8.71062E+02-1.13885E+02
 -1      2463-8.96570E+03 9.37080E+05-6.81675E+02 6.69116E+04-3.73481E+02-5.81052E+02
 -1      2464-7.68131E+03 6.57394E+05-4.41610E+02 8.88262E+04 2.45014E+02-7.27487E+02
 -1      2465-8.63158E+03 5.41607E+05-1.68960E+03 9.34424E+04-3.86856E+02-1.97613E+02
 -1      2466-6.48159E+03 4.51748E+05-4.54227E+02 9.99014E+04-2.15457E+02-5.26783E+02
 -1      2467-7.92303E+03 7.01452E+05-9.77973E+02 9.16322E+04-2.77626E+02 3.23406E+02
 -1      2468-9.87124E+03 8.67550E+05 3.63154E+02 7.83949E+04-2.03140E+02 5.52638E+02
 -1      2469-6.32162E+03 4.58964E+05 2.69934E+02 1.03140E+05-4.03750E+02 4.58258E+02
 -1      2470-7.84162E+03 5.97612E+05 3.72080E+02 9.83622E+04-2.08685E+02 1.82654E+02
 -1      2471-6.80325E+03 2.77277E+05 4.61923E+02 1.05685E+05-1.98867E+02-5.99628E+02
 -1      2472-4.76917E+03-9.78633E+03 4.78432E+01 1.12143E+05 4.03802E+02-5.52597E+02
 -1      2473-7.06466E+03 2.77273E+05 4.36384E+02 1.05648E+05 4.85814E+02 2.95160E+00
 -1      2474-1.58091E+03-5.36799E+05-3.08591E+01 6.80594E+04 2.85534E+02 5.16073E+02
 -1      2475-1.75970E+03-5.66490E+05-2.97777E+02 6.98301E+04-7.75921E+01 3.47438E+02
 -1      2476-2.05830E+03-5.62684E+05 2.50423E+02 7.23608E+04 2.53754E+02 1.48935E+02
 -1      2477-2.84241E+03-3.68947E+05-1.48655E+01 8.52261E+04-2.04279E+02 2.99464E+02
 -1      2478-3.24626E+03-1.94496E+05-8.46903E+01 8.98040E+04-5.06588E+02 7.65997E+00
 -1      2479-3.89057E+03-2.01647E+05-1.34897E+03 8.82942E+04-7.25298E+02 5.39482E+02
 -1      2480-2.73048E+03-3.52460E+05-7.17735E+02 8.31193E+04-3.87673E+02 6.36449E+02
 -1      2481-2.14994E+03-5.17114E+05-2.58414E+02 6.78975E+04 1.69886E+02-2.51803E+01
 -1      2482-1.66025E+03-4.37339E+05 6.02099E+02 6.19365E+04-1.06454E+02-4.20918E+02
 -1      2483-2.45570E+03-4.64525E+05-2.07701E+02 6.25618E+04 2.76777E+02-2.30613E+02
 -1      2484-1.53967E+03-4.60582E+05 4.42868E+02 6.53350E+04 1.67062E+02 1.86495E+02
 -1      2485-1.78749E+03-3.02492E+05 5.52458E+02 7.67723E+04 2.35802E+02 1.51181E+02
 -1      2486-3.66180E+03-1.58982E+05 8.00199E+02 8.12261E+04 6.10812E+02 3.11876E+02
 -1      2487-4.56801E+03-1.65349E+05-3.64916E+02 7.88334E+04 4.04512E+02-6.65560E+01
 -1      2488-1.72318E+03-2.86409E+05 2.26475E+02 7.45639E+04 6.08284E+01 4.61139E+01
 -1      2489-1.63601E+03-4.19083E+05-2.26898E+02 6.22195E+04-2.36229E+02-3.09250E+01
 -1      2490-1.38299E+03-3.47516E+05 7.90398E+02 5.53286E+04-5.82072E+01-4.82276E+02
 -1      2491-2.07427E+03-3.71895E+05 3.06499E+02 5.58428E+04 3.88290E+02-1.89880E+02
 -1      2492-1.45560E+03-3.69861E+05 2.59147E+02 5.85542E+04 2.49432E+02 7.82962E+01
 -1      2493-2.51290E+03-2.42817E+05 9.64691E+01 6.89766E+04-2.58089E+01 1.00694E+02
 -1      2494-3.17801E+03-1.26639E+05 4.76172E+02 7.22793E+04-1.38170E+01 2.62228E+02
 -1      2495-4.39812E+03-1.29167E+05 2.18778E+02 7.02609E+04-1.81780E+02 1.34582E+02
 -1      2496-1.92820E+03-2.27239E+05 4.49253E+02 6.66213E+04 9.20441E+01-3.81415E+01
 -1      2497-1.38385E+03-3.31456E+05 4.63637E+01 5.54666E+04-3.91633E+02-2.86429E+02
 -1      2498-9.76297E+02-2.68286E+05-5.85306E+00 4.77746E+04 3.25057E+02 3.48387E+02
 -1      2499-1.36518E+03-2.89318E+05-2.27520E+02 4.96002E+04-4.10167E+01 2.48589E+02
 -1      2500-1.54965E+03-2.89119E+05 2.50457E+02 5.14490E+04-7.90384E+01 2.05346E+02
 -1      2501-2.73483E+03-1.88495E+05-9.32856E+01 6.04844E+04 1.95530E+02 1.56689E+02
 -1      2502-2.79186E+03-9.69378E+04 4.09533E+02 6.35499E+04 3.70604E+02 3.53336E+02
 -1      2503-4.23938E+03-9.92907E+04-5.18257E+02 6.24191E+04 3.38580E+02-5.17535E+01
 -1      2504-2.46616E+03-1.75297E+05 3.13010E+01 5.87226E+04 1.53906E+02 1.74044E+01
 -1      2505-2.15170E+03-2.56548E+05-3.46624E+02 4.85353E+04 2.77464E+02 3.35523E+01
 -1      2506-1.24047E+03-1.99146E+05-3.29795E+02 4.12447E+04 6.32711E+01-4.17345E+01
 -1      2507-1.91472E+03-2.18105E+05-6.09924E+02 4.29329E+04-6.30670E+00 2.16101E+02
 -1      2508-2.18898E+03-2.18422E+05 1.16248E+02 4.49751E+04-2.28836E+02 7.89971E-02
 -1      2509-2.33478E+03-1.41546E+05-6.85235E+01 5.25690E+04 2.14571E+02-2.68144E+02
 -1      2510-3.21538E+03-7.23087E+04 2.01558E+02 5.49169E+04 1.01139E+02-2.38799E+02
 -1      2511-4.08975E+03-7.23536E+04-7.33718E+02 5.41758E+04 5.62000E+02-3.29752E+02
 -1      2512-3.08476E+03-1.28504E+05-2.27381E+02 5.02330E+04 1.67415E+02-2.09154E+02
 -1      2513-1.84198E+03-1.87529E+05-5.36516E+02 4.18231E+04 1.56019E+02-5.30114E+01
 -1      2514-1.40946E+03-1.40183E+05 3.41023E+02 3.45752E+04 2.90381E+02 2.41215E+02
 -1      2515-1.89223E+03-1.56089E+05-4.26409E+01 3.60543E+04-1.85544E+01 1.67037E+02
 -1      2516-1.48169E+03-1.55284E+05 5.94945E+02 3.82566E+04 2.18328E+02 3.26305E+02
 -1      2517-2.18680E+03-9.98933E+04 3.36994E+02 4.43891E+04 3.67174E+01 3.19398E+02
 -1      2518-3.68994E+03-5.19893E+04-1.07023E+01 4.67596E+04 1.97908E+02 1.99710E+02
 -1      2519-4.21032E+03-5.20543E+04-3.86567E+02 4.49377E+04-3.26357E+02 2.29334E+02
 -1      2520-2.32820E+03-9.02056E+04 1.02411E+02 4.24675E+04-1.17151E+02 3.22199E+02
 -1      2521-2.12930E+03-1.32056E+05-2.47068E+02 3.45399E+04-1.49803E+02 1.78731E+02
 -1      2522-1.75399E+03-9.27882E+04-1.23338E+02 2.86358E+04 4.18511E+01 1.20520E+02
 -1      2523-1.25126E+03-1.03425E+05 1.93549E+02 2.98286E+04 1.00125E+02-1.33542E+02
 -1      2524-1.79963E+03-1.04975E+05 1.54909E+02 3.13310E+04 1.37119E+02 1.57242E+02
 -1      2525-2.57142E+03-6.72534E+04 1.30631E+02 3.63565E+04-6.00138E+01 9.12410E+00
 -1      2526-3.55576E+03-3.44117E+04 1.70535E+02 3.80620E+04 8.05773E+01-1.10043E+02
 -1      2527-3.80675E+03-3.36976E+04-2.09560E+02 3.67079E+04 9.98317E+01 7.48473E+01
 -1      2528-2.52843E+03-5.91822E+04-1.06047E+02 3.41770E+04 1.67209E+01 3.37923E+01
 -1      2529-1.70224E+03-8.48464E+04-2.16885E+02 2.81621E+04 1.41331E+02-1.44256E+02
 -1      2530-1.59274E+03-5.27444E+04 3.13465E+00 2.18494E+04 1.03652E+02-2.55305E+01
 -1      2531-1.78338E+03-6.25601E+04-2.86761E+02 2.28605E+04-1.81017E+01 9.96239E+01
 -1      2532-1.61611E+03-6.34765E+04 1.31151E+02 2.45945E+04-2.08975E+02 3.54316E+01
 -1      2533-2.82835E+03-3.99879E+04-1.58842E+01 2.83274E+04-2.47834E+01 6.15647E+01
 -1      2534-3.62791E+03-1.95363E+04-4.60180E+01 2.91485E+04 8.69672E+01 5.58192E+01
 -1      2535-4.25809E+03-1.98525E+04-2.35240E+02 2.79943E+04 3.29852E+01-5.10112E+01
 -1      2536-2.61851E+03-3.34851E+04-3.77710E+01 2.63123E+04 1.17422E+02-1.12256E+02
 -1      2537-1.87061E+03-4.78551E+04-1.73297E+02 2.14157E+04 2.20509E+02-1.13890E+02
 -1      2538-8.45919E+03 3.18555E+04 1.28531E+02 1.65549E+04-1.37064E+02-1.04766E+02
 -1      2539-8.28085E+03 2.60905E+04-1.07622E+02 1.52391E+04-5.55461E+01 5.56504E+01
 -1      2540-6.95475E+03 2.03614E+04 6.83667E+01 2.03968E+04 2.40968E+01-1.01346E+02
 -1      2541-8.51238E+03 3.26027E+04-9.25313E+01 1.78294E+04 3.34538E+01-9.73194E+01
 -1      2542-5.98827E+03 9.63717E+03 8.43454E+01 1.95323E+04-6.92323E+01-1.14949E+01
 -1      2543-6.29892E+03 1.01170E+04-2.42618E+02 2.10582E+04-1.10879E+02 7.38268E+01
 -1      2544-7.50935E+03 1.63558E+04-8.61205E+01 1.80713E+04-4.70863E+01 9.45662E+01
 -1      2545-8.20190E+03 2.31212E+04-2.22453E+01 1.44983E+04-8.52691E+01 5.24143E+01
 -1      2546-8.70054E+03 9.54040E+03-3.01459E+01 8.15585E+03-5.89504E+01 2.98550E+01
 -1      2547-8.21821E+03 7.26732E+03 7.58805E+01 8.27172E+03-2.35526E+01-1.03696E+01
 -1      2548-8.01543E+03 5.12780E+03-6.69782E+01 7.58911E+03-4.59442E+01-2.00522E+00
 -1      2549-7.27407E+03 5.15179E+03-7.81522E+01 9.46503E+03-4.09906E+01-2.36608E+01
 -1      2550-7.31348E+03 7.99771E+03 5.34814E+01 1.17928E+04-4.05943E+01-6.28922E+01
 -1      2551-8.30468E+03 1.30692E+04 2.36043E+01 1.08246E+04-6.86154E+01-2.99075E+01
 -1      2552-8.59921E+03 1.20188E+04 2.87486E+01 9.41017E+03-7.72689E+01-1.45593E+01
 -1      2553-6.44301E+03 3.47491E+03 1.74155E+01 1.06726E+04-6.18279E+01-3.35684E+01
 -1      2554-6.50638E+03 3.79712E+03 1.91594E+00 1.19010E+04-7.56759E+01 4.67408E+00
 -1      2555-2.96224E+03-2.79188E+05 4.20090E+02 1.06104E+05 6.07260E+02 1.26526E+02
 -1      2556-3.40670E+03-2.77125E+05-2.30626E+02 1.05896E+05 6.55555E+02-4.80410E+02
 -1      2557-4.41912E+03-5.17910E+05-7.55618E+02 1.01397E+05 3.68248E+02-5.19442E+02
 -1      2558-8.52140E+02-7.77301E+05 4.25246E+02 8.10629E+04 2.77124E+02 3.67876E+02
 -1      2559-1.07706E+03-8.02900E+05-7.78863E+02 8.30782E+04 5.74863E+02-4.30936E+02
 -1      2560-1.41053E+03-7.70085E+05-2.68420E+02 8.67856E+04-3.09921E+02-3.19240E+02
 -1      2561-3.48387E+03-4.76377E+05 2.46663E+02 9.99895E+04 3.43124E+02-2.22981E+02
 -1      2562-2.43496E+03-7.06255E+05 2.08853E+01 8.47017E+04 6.76667E+02-1.30845E+02
 -1      2563-1.63211E+04-7.70840E+05-1.91206E+02 8.83125E+04-8.33277E+02 1.99644E+02
 -1      2564 4.60282E+02-4.67653E+05-1.21472E+03 1.04152E+05-5.19914E+02 1.49997E+02
 -1      2565 8.22516E+03-3.14096E+05 9.19461E+02 1.14421E+05-3.91122E+02-1.05993E+03
 -1      2566-1.72371E+03-7.19190E+05 5.06073E+02 1.09016E+05-3.90100E+02-6.28944E+02
 -1      2567-3.58495E+03-1.18687E+06 1.33953E+03 8.77948E+04-9.18760E+01-7.35602E+02
 -1      2568-2.00960E+04-1.21670E+06-6.91272E+02 9.14321E+04 2.52372E+02-4.39833E+02
 -1      2569-3.62901E+04-1.10705E+06-2.01575E+03 8.62318E+04 1.06566E+02 7.21972E+02
 -1      2570-8.21300E+02-1.03234E+06-4.18804E+02 9.80846E+04-6.78032E+02 1.88898E+02
 -1      2571 1.76269E+04 1.22319E+06-7.74220E+02 1.08031E+05-1.99229E+03 3.88278E+02
 -1      2572 1.57000E+04 9.67124E+05 8.79813E+02 1.17519E+05-9.27413E+02-5.00532E+02
 -1      2573 2.17601E+04 5.50704E+05-7.61169E+02 1.23105E+05-4.54936E+02-6.77672E+02
 -1      2574 2.82707E+04 3.97494E+05 6.77345E+02 1.17694E+05-8.06588E+02-3.67326E+02
 -1      2575 4.48982E+04 7.14632E+05 7.46470E+01 1.12951E+05-1.28832E+03 2.89104E+02
 -1      2576 1.36211E+04 9.33591E+04 4.04664E+02 1.18362E+05-2.23502E+02 3.43576E+02
 -1      2577 6.48412E+04 1.06932E+06 1.07663E+03 1.16155E+05-2.28870E+03-1.43657E+03
 -1      2578 4.19537E+04 1.21466E+06-1.45994E+03 1.23191E+05-1.52591E+03-1.30242E+03
 -1      2579-1.53229E+03-7.22999E+05-1.39698E+02 9.89039E+04 3.57216E+02-5.42522E+02
 -1      2580-8.30442E+02-1.01821E+06-3.24060E+02 7.78541E+04 7.46043E+01 2.09307E+02
 -1      2581-1.00071E+03-9.95973E+05 1.05707E+03 8.21818E+04-1.10792E+02-5.94714E+02
 -1      2582-2.97861E+03-4.55676E+05-3.80237E+02 1.09444E+05 5.98625E+02-4.86221E+02
 -1      2583-2.32975E+03-3.27650E+05 4.96343E+02 1.12908E+05-1.11988E+02-3.38556E+02
 -1      2584-5.89322E+03-8.89492E+04-3.19597E+02 1.18534E+05-3.47706E+02-5.33360E+02
 -1      2585-2.88227E+03-6.06362E+05-9.46997E+02 1.08486E+05 2.50853E+02-5.55960E+02
 -1      2586-1.96916E+03-1.01562E+06-5.74246E+01 8.28179E+04 3.13377E+02-4.71144E+01
 -1      2587-4.63004E+02-9.21840E+05 1.12097E+03 9.11391E+04-8.62507E+02-5.94667E+02
 -1      2588-8.94871E+02-8.60276E+05-4.82887E+02 1.02676E+05 5.01479E+02 5.84870E+02
 -1      2589-6.62109E+02-1.08864E+06 5.56055E+02 8.90301E+04-2.01852E+01 5.39299E+01
 -1      2590-2.38819E+03-4.96735E+05-9.59018E+02 1.16828E+05 5.72323E+02-4.53809E+02
 -1      2591-2.12849E+03-6.82841E+05-1.41875E+03 1.14573E+05-1.14359E+02 4.85864E+02
 -1      2592-6.90490E+02-3.69005E+05-4.33526E+01 1.20030E+05 7.26028E+02 2.97811E+02
 -1      2593-3.88866E+03-9.49129E+04-1.21071E+03 1.26227E+05 4.89903E+01-2.07316E+02
 -1      2594-8.19941E+02-1.09077E+06-8.19758E+01 9.04886E+04-1.57751E+02 3.69599E+02
 -1      2595 1.39501E+03-9.96613E+05 9.10515E+02 9.75831E+04-8.00410E+02-1.49282E+02
 -1      2596-8.21905E+03 6.47822E+05-1.47941E+03 1.14194E+05 7.48304E+01-5.53481E+02
 -1      2597-4.79253E+03 2.88035E+05-6.31439E+02 1.22373E+05 2.85375E+02-9.76682E+02
 -1      2598-4.25206E+03 4.01931E+05 1.13544E+02 1.20587E+05-8.08455E+02 2.47712E+02
 -1      2599-1.97251E+03 6.66164E+05 6.73571E+02 1.17008E+05 1.50632E+02 1.36143E+02
 -1      2600-6.58781E+03 1.08962E+06 5.74813E+02 9.27121E+04-1.53849E+02-1.69111E+02
 -1      2601-8.28484E+03 1.05457E+06-9.07645E+02 9.21218E+04 2.02598E+02-5.70827E+02
 -1      2602-6.28050E+03 9.84669E+05-1.22352E+03 1.00979E+05 9.13815E+02-5.24577E+02
 -1      2603-7.05332E+03 9.38873E+05 5.71559E+02 9.67641E+04 5.67078E+01 2.79049E+01
 -1      2604-8.26419E+03 5.43535E+05-5.03889E+02 1.07113E+05-2.39723E+01-3.03976E+02
 -1      2605-5.96460E+03 2.25014E+05 6.10342E+02 1.14854E+05-3.13490E+02-5.20075E+02
 -1      2606-6.47018E+03 3.66993E+05 4.56427E+02 1.12658E+05-9.19674E+02-4.99126E+02
 -1      2607-6.98427E+03 6.54473E+05 6.02212E+02 1.06005E+05-3.32052E+02-7.42906E+01
 -1      2608-8.00014E+03 9.75088E+05 1.37056E+03 8.48569E+04 3.30559E+01 3.37015E+02
 -1      2609-9.35484E+03 9.14571E+05-9.84161E+01 8.58280E+04-3.78228E+02-7.66223E+01
 -1      2610-7.12007E+03 7.72156E+05 1.03518E+03 9.31806E+04 7.40428E+02 5.31664E+02
 -1      2611-8.79437E+03 9.38737E+05-4.64217E+02 8.90679E+04 2.16643E+01-1.76329E+02
 -1      2612 9.67340E+04 9.15713E+05-4.12654E+03 6.34007E+04-1.90849E+03-2.74932E+03
 -1      2613 1.42719E+05 1.37628E+06 1.25369E+03 1.13944E+05-1.74680E+03-2.72885E+03
 -1      2614 1.20442E+05 1.56477E+06 3.62437E+02 1.36767E+05-3.78805E+03-9.78852E+02
 -1      2615 8.61607E+04 1.38897E+06 1.52730E+03 1.20499E+05-3.33587E+03-1.42402E+03
 -1      2616 8.36590E+04 8.74664E+05-1.08527E+03 9.82218E+04 6.72315E+02-2.36729E+03
 -1      2617-5.13599E+04-8.99279E+05 1.22178E+03 7.04330E+04-1.00069E+02-5.92786E+02
 -1      2618-6.31005E+04-1.35261E+06-2.99096E+03 8.47901E+04 1.92770E+03 1.12779E+03
 -1      2619-8.99904E+04-1.48179E+06 3.85638E+02 8.65047E+04 6.60772E+02-1.28657E+03
 -1      2620-1.05615E+05-1.29726E+06 1.35855E+03 6.77310E+04-3.55617E+03-6.20555E+02
 -1      2621-6.22176E+04-8.23390E+05-9.05522E+01 3.42011E+04 2.79942E+03 3.60451E+02
 -1      2622-8.57627E+03 4.73953E+03-6.59185E+00 5.91017E+03-5.42506E+01-5.73910E+00
 -1      2623-8.85834E+03 3.98785E+03 2.29308E+01 4.65085E+03-7.72213E+01 6.21316E+00
 -1      2624-7.48273E+03 2.59179E+03-6.81288E+01 4.25383E+03-2.75546E+01 1.06580E+01
 -1      2625-6.07697E+03 1.52233E+03-7.00723E+01 3.82782E+03 1.74022E+01-4.11628E+01
 -1      2626-8.66678E+03 2.91117E+03-3.33361E+01 3.86139E+03-6.89456E+01-2.51279E+01
 -1      2627-9.69798E+03 3.67313E+05 1.02135E+02 4.58414E+04-5.08187E+01-3.78057E+02
 -1      2628-7.55283E+03 2.52404E+05-5.07731E+02 5.82731E+04 6.40255E+01-8.42562E+01
 -1      2629-8.78133E+03 4.27706E+05-1.98806E+02 4.04445E+04-8.84710E+01 2.98107E+02
 -1      2630-8.65243E+03 4.63452E+05 7.44353E+00 5.32635E+04-1.51271E+02-5.01816E+02
 -1      2631-6.75292E+03 3.13720E+05 3.09187E+01 6.68705E+04 1.88115E+02 3.92982E+02
 -1      2632-9.64755E+03 5.36597E+05-9.03355E+01 4.67700E+04-2.62013E+02-2.11602E+02
 -1      2633-9.08067E+03 2.78885E+05 2.21379E+02 3.98188E+04-2.91759E+02 5.95295E+01
 -1      2634-7.44465E+03 1.96506E+05 1.74562E+02 5.05749E+04-4.03327E+02 1.17210E+02
 -1      2635-8.79216E+03 3.26931E+05 3.46811E+01 3.53962E+04-1.78487E+02 1.58238E+02
 -1      2636-8.33652E+03 2.02981E+05 2.50345E+02 5.23833E+04-2.75556E+02 6.21151E+01
 -1      2637-8.89253E+03 3.03314E+05-1.58590E+01 4.23538E+04-2.49708E+02 3.51554E+02
 -1      2638-9.33004E+03 1.92177E+05 1.43057E+02 3.50981E+04-3.19177E+01-3.79631E+02
 -1      2639-8.72949E+03 2.25496E+05-1.38645E+02 3.22182E+04-1.25794E+02 3.04672E+01
 -1      2640-9.16110E+03 2.13040E+05-5.73036E+02 3.74459E+04-2.28606E+02 1.53261E+02
 -1      2641-9.91795E+03 5.73759E+05-5.04270E+00 5.90725E+04-4.53838E+02 6.39406E+02
 -1      2642-8.00222E+03 3.86455E+05 1.58886E+02 7.53141E+04-2.78648E+02-7.31816E+01
 -1      2643-9.95992E+03 6.62739E+05-7.64643E+02 5.28352E+04-9.50656E+02 3.73405E+02
 -1      2644 1.04108E+02-1.32249E+06-2.37437E+01 8.24822E+04-3.69005E+01 7.70917E+02
 -1      2645 2.43654E+03-8.55670E+05 4.19908E+02 1.04822E+05-5.72601E+02-3.79268E+02
 -1      2646 5.59563E+02-1.45267E+06 1.12160E+01 6.95562E+04 4.47633E+01 1.36852E+02
 -1      2647 3.61270E+02-8.66288E+05 1.75555E+02 1.05372E+05-5.60959E+02 6.00047E+02
 -1      2648 1.66626E+02-1.28050E+06-2.67364E+01 8.22262E+04-6.05710E+00-5.55066E+02
 -1      2649-8.99168E+03 1.31124E+05 3.73787E+02 2.88762E+04-2.21011E+02-1.46062E+02
 -1      2650-8.96892E+03 1.55473E+05-9.74049E+01 2.67321E+04-1.31933E+02 1.50768E+02
 -1      2651-8.89946E+03 1.48234E+05-5.28830E+01 3.12224E+04-1.14004E+02 3.11490E+02
 -1      2652-9.49007E+03 7.03128E+05 1.10614E+03 6.38023E+04-2.24917E+02 3.30691E+02
 -1      2653-7.11444E+03 4.76391E+05 2.29053E+02 8.12916E+04 3.42817E+01-1.03059E+02
 -1      2654-9.37767E+03 8.07541E+05-7.80421E+01 5.68365E+04-2.29451E+02 3.12790E+02
 -1      2655-8.63006E+03 8.12735E+04 1.57165E+02 2.29360E+04-1.40227E+02 8.69717E+01
 -1      2656-9.09984E+03 9.78329E+04-5.01298E+01 2.12983E+04-2.61433E+01 2.24492E+01
 -1      2657-8.96073E+03 9.52968E+04-1.63645E+02 2.46578E+04-2.19235E+02-3.36730E+01
 -1      2658-1.29188E+03-3.62280E+03-7.12677E+01 3.99826E+03-3.31725E+00 3.31175E+01
 -1      2659-9.30497E+02-4.97165E+03 5.44694E+01 4.32082E+03 4.90309E+00 5.93018E+01
 -1      2660-1.20982E+03-6.56787E+03 4.77060E+01 5.76505E+03-4.64338E+00 7.44035E+01
 -1      2661-1.01962E+03-1.83521E+04-1.68076E+02 9.90736E+03 6.51404E+01-4.13417E+01
 -1      2662-8.78887E+02-2.37200E+04-1.80003E+01 9.29212E+03-1.00979E+01-4.62041E+00
 -1      2663-1.06812E+03-2.50572E+04 1.33660E+02 1.15897E+04 4.28086E+01-5.11126E+01
 -1      2664-8.66383E+03 4.30477E+04 1.80682E+02 1.69586E+04-1.40192E+02-1.44804E+02
 -1      2665-8.99960E+03 5.21461E+04-6.54642E+00 1.59499E+04-2.14707E+02 2.12257E+01
 -1      2666-8.87321E+03 5.25466E+04-6.99229E+01 1.87950E+04-1.29772E+02 1.98442E+02
 -1      2667-1.38188E+03-4.20374E+04-2.31233E+02 1.69888E+04 1.01066E+02-7.69741E+01
 -1      2668-9.64660E+02-5.12363E+04 2.48661E+01 1.59361E+04 6.16396E+01-4.69018E+01
 -1      2669-1.05909E+03-5.20228E+04 9.45807E+01 1.85115E+04 1.74929E+02 3.20668E+01
 -1      2670-6.73679E+02-8.22168E+04-1.42234E+02 2.20189E+04 8.50847E+01-1.28574E+02
 -1      2671-8.11301E+02-9.93565E+04 1.95847E-01 2.02436E+04 1.74083E+01 2.69168E+01
 -1      2672-1.30937E+03-9.66242E+04 1.84016E+02 2.36772E+04 1.69139E+02-1.83384E+02
 -1      2673-8.86705E+03 1.79575E+04 1.71452E+02 1.04284E+04-8.79940E+01 4.58056E+01
 -1      2674-9.15366E+03 2.23665E+04-6.43299E+01 1.00217E+04-1.23687E+02 7.10112E+01
 -1      2675-8.98338E+03 2.45172E+04-1.90597E+02 1.21763E+04-8.91524E+01 9.70424E+01
 -1      2676-1.18744E+03-1.32719E+05-3.49943E+02 2.79866E+04 2.06479E+02 1.58571E+02
 -1      2677-1.01435E+03-1.57558E+05 2.28887E+01 2.52699E+04 1.64693E+02 1.58767E+02
 -1      2678-7.59879E+02-1.50320E+05 3.33032E+02 2.99636E+04 3.47832E+02 2.90188E+02
 -1      2679-5.04256E+02-1.95781E+05-2.78128E+01 3.39925E+04 1.22951E+02 3.55712E+02
 -1      2680-1.03804E+03-2.29722E+05-2.14537E+01 3.06917E+04 3.55916E+02 1.62186E+02
 -1      2681-1.85058E+03-2.16536E+05-1.23716E+02 3.57603E+04 1.31883E+02-1.67429E+02
 -1      2682-6.68834E+02-2.70528E+05-5.28075E+01 3.95984E+04 7.12449E+01-4.16837E+02
 -1      2683-1.05113E+03-3.15652E+05 1.03942E+02 3.55063E+04 1.70862E+02 1.18301E+02
 -1      2684-1.05538E+03-2.95454E+05 4.87796E+02 4.18051E+04 2.28474E+02 2.51150E+02
 -1      2685-1.27169E+03-3.50635E+05-1.94051E+02 4.64954E+04 2.56575E+02 2.17168E+02
 -1      2686-6.50304E+02-4.04105E+05 6.98320E+01 4.25471E+04 7.12499E+01 1.30811E+02
 -1      2687-1.87684E+03-3.79603E+05 1.12548E+02 4.81624E+04 1.96179E+02 3.03107E+02
 -1      2688-1.64183E+03-4.48212E+05-7.91958E+02 5.26647E+04 3.22509E+02-3.35004E+02
 -1      2689-8.18455E+02-5.14208E+05-3.62270E+01 4.71480E+04 5.78572E+02 8.52072E+01
 -1      2690-6.80836E+02-4.79565E+05 1.67887E+02 5.45287E+04 2.94650E+02 4.94416E+02
 -1      2691-6.24250E+02-5.56736E+05-7.32719E+02 5.83202E+04 1.97020E+02-3.10690E+02
 -1      2692-1.25846E+03-6.37736E+05-3.43521E+02 5.33783E+04-3.99220E+01-3.37828E+01
 -1      2693-9.08300E+02-5.91866E+05 4.34839E+02 6.04187E+04 4.36478E+02-2.78214E+02
 -1      2694-8.06422E+01-6.76650E+05-1.62406E+02 6.45665E+04 3.77442E+02-3.12755E+02
 -1      2695-8.63753E+02-7.73361E+05 3.88979E+01 5.89775E+04 3.18387E+02 1.35800E+01
 -1      2696-2.53182E+03-7.17804E+05 9.28525E+01 6.62139E+04 3.11752E+02 4.29300E+02
 -1      2697-3.08365E+03-5.97284E+05-3.77758E+02 8.64372E+04-3.00868E+02 3.87862E+02
 -1      2698-1.61210E+03-8.44317E+05-2.98564E+02 6.80659E+04 2.53804E+02 1.98723E+02
 -1      2699-1.23381E+03-9.70636E+05 5.92996E+01 5.94139E+04 2.58352E+01 4.33784E+02
 -1      2700-5.44322E+01-8.84617E+05 1.02692E+03 7.10472E+04 3.75965E+02 4.75941E+02
 -1      2701-2.26904E+03-5.87093E+05 1.01510E+03 8.98165E+04 4.87969E+02 4.89986E+02
 -1      2702-6.78776E+03 9.08994E+05 1.14854E+03 9.26528E+04-7.29029E+02-2.28001E+02
 -1      2703-9.02008E+03 8.64823E+05 8.19239E+01 9.66052E+04-1.91922E+02-3.17811E+02
 -1      2704-1.01366E+04 8.36597E+05-2.63068E+02 6.98109E+04-1.47648E+02-6.78656E+02
 -1      2705-7.14948E+03 5.75579E+05-9.85353E+02 8.82527E+04 1.15994E+02-1.31273E+02
 -1      2706-8.71221E+03 9.57167E+05-2.98057E+02 6.34873E+04-1.56227E+02-2.37698E+02
 -1      2707-4.69286E+02-9.04103E+05-9.05158E+02 8.04395E+04 2.44465E+02-4.99669E+02
 -1      2708-1.25276E+03-1.03431E+06 1.74385E+02 7.33270E+04 3.98294E+02 1.94301E+02
 -1      2709-7.64549E+03 6.24775E+05 2.82867E+02 9.91356E+04-4.95031E+02 2.64078E+02
 -1      2710 2.21753E+04 2.12265E+04 5.51383E+02 4.34166E+04-1.03608E+02 2.12140E+02
 -1      2711 4.11046E+03-2.10469E+04 1.75028E+02 1.31517E+05-6.94704E+02 3.06125E+02
 -1      2712-4.75166E+03-2.75925E+01 6.11851E+00 7.31523E+03 2.01517E+00-1.35493E+01
 -1      2713-5.04860E+03 1.26880E+02 3.76288E-02 1.69814E+04 2.49640E+01 5.49155E+01
 -1      2714-5.02811E+03 2.96022E+02-3.88550E+01 2.57122E+04 4.44578E+01-7.81476E-01
 -1      2715-4.84038E+03-2.55413E+02-6.63437E+01 3.51482E+04-5.38503E+01-3.08214E+01
 -1      2716-4.93252E+03-1.18689E+03 1.25114E+01 4.41942E+04 1.07998E+01 1.20067E+02
 -1      2717-4.92772E+03-2.18801E+03 2.09411E+01 5.32108E+04-3.83173E+01-3.88102E+01
 -1      2718-4.70574E+03-2.23554E+04-9.46451E+01 6.18147E+04-5.78259E+01 9.00472E+01
 -1      2719-4.86056E+03-4.39998E+04 4.52035E+02 7.09127E+04 1.04889E+02 2.43100E+02
 -1      2720-4.51135E+03-5.48432E+04-5.17276E+01 8.03197E+04 1.05575E+02-8.35780E+01
 -1      2721-4.47761E+03-6.80601E+04-1.80066E+01 8.80318E+04 9.16362E+01 1.58670E+00
 -1      2722-4.40034E+03-8.29471E+04 9.32542E+01 9.73109E+04-1.14355E+02-2.98297E+02
 -1      2723-4.90726E+03-1.37253E+04-7.07257E+02 1.25510E+05 2.71850E+02-1.03124E+02
 -1      2724-4.99182E+03-3.76692E+03 3.82704E+00 1.07558E+05 1.25618E+01 3.48081E+02
 -1      2725-5.18926E+03-6.34521E+04 9.49236E+01 1.16231E+05 1.35219E+02 1.33468E+02
 -1      2726 8.23133E+04 8.08894E+05 2.70527E+03-2.80601E+04-5.15450E+02 2.84665E+03
 -1      2727-7.60166E+04-7.70796E+05 1.46905E+03-6.23230E+04-1.22141E+03 5.90384E+02
 -1      2728-2.17114E+03-5.49719E+02-7.56968E+00 2.25826E+03-3.41909E+00-6.07759E+00
 -1      2729-7.03942E+03 4.44424E+05-5.79725E+02 9.13243E+04 5.02640E+02-3.92801E+02
 -1      2730-7.40929E+03 3.68751E+05 1.94107E+02 8.29599E+04 2.11975E+02-6.50396E+01
 -1      2731-7.47608E+03 3.01305E+05-3.46200E+01 7.58909E+04 7.50914E+01 2.96938E+01
 -1      2732-7.42842E+03 2.41102E+05-2.69192E+02 6.61491E+04 2.29975E+02-2.78223E+02
 -1      2733-7.24264E+03 1.79688E+05-2.88741E+02 6.03352E+04 3.64911E+02-2.74112E+02
 -1      2734-7.13819E+03 1.35007E+05-5.26413E+02 5.22724E+04-8.35264E+01 4.06040E+01
 -1      2735-7.54524E+03 9.54638E+04 8.35492E+00 4.35958E+04 1.69911E+02-1.79618E+02
 -1      2736-7.27222E+03 6.38772E+04 1.22989E+02 3.53870E+04-1.68082E+02-2.37431E+01
 -1      2737-2.68274E+03-6.91990E+03 2.05433E+01 1.05843E+04 2.21940E+01 2.33597E+01
 -1      2738-2.50814E+03-1.91401E+04-2.52125E+02 1.88808E+04-8.95555E+01 3.62853E+00
 -1      2739-7.31219E+03 3.74741E+04 9.64419E+00 2.70527E+04-5.45334E+01-9.43630E+01
 -1      2740-2.47389E+03-4.47850E+05 7.85748E+01 9.03268E+04-1.29353E+02 4.53771E+01
 -1      2741-6.36731E+03 1.49448E+03 2.04535E+01 7.61542E+02-2.10433E+01-1.96693E+01
 -1      2742-6.92619E+03 5.67770E+05-9.50211E+02 9.87521E+04 8.60829E+01-3.69853E+01
 -1      2743-2.49213E+03-3.73460E+05 4.76996E+02 8.24119E+04 1.48128E+02-3.49413E+02
 -1      2744-2.11518E+03-3.04227E+05-8.41253E+02 7.53331E+04 1.16271E+02-6.70775E+01
 -1      2745-1.89010E+03-2.42116E+05-9.51083E+02 6.71145E+04-1.08091E+02 1.70935E+00
 -1      2746-2.81273E+03-1.90013E+05 5.85427E+02 5.91235E+04 2.58004E+01-9.42710E+00
 -1      2747-2.62710E+03-1.41868E+05 2.41553E+02 5.07763E+04-2.75926E+02-1.93881E+01
 -1      2748-2.51631E+03-1.00330E+05 3.85316E+01 4.25621E+04 4.38148E+01-5.90552E+01
 -1      2749-2.56036E+03-6.65939E+04 1.57696E+00 3.49841E+04 3.41703E+01 8.32745E-01
 -1      2750-2.54174E+03-3.85931E+04 2.05781E+00 2.72039E+04-5.67061E+01-9.36678E+01
 -1      2751-7.44457E+03 1.90379E+04 1.70554E+01 1.88289E+04-1.85053E+01 1.92308E+01
 -1      2752-7.70501E+03 7.07178E+03 3.42533E+01 1.03842E+04-2.68781E+00-8.43091E+00
 -1      2753-2.24512E+03-5.48537E+05 1.98299E+02 9.73261E+04 1.08237E+02 2.33687E+02
 -1      2754-8.15226E+03-8.76015E+05 1.65093E+01 1.00462E+05-5.86492E+02-1.36319E+02
 -1      2755 3.18776E+04 8.58400E+05 6.53542E+02 1.24244E+05 7.10486E+02-4.75018E+02
 -1      2756-2.50497E+03-7.00190E+05 6.95931E+02 1.03095E+05-8.78523E+02-1.57403E+02
 -1      2757-8.58468E+02-7.75101E+05 4.07392E+02 1.09362E+05-1.90599E+02 2.21818E+02
 -1      2758-6.35426E+03 7.66931E+05 1.18228E+02 1.11485E+05 5.62653E+02-2.10251E+02
 -1      2759-7.87572E+03 6.89727E+05-7.25067E+01 1.01839E+05 2.84593E+02-4.29070E+02
 -1      2760 1.12101E+05 1.19117E+06-3.34290E+03 1.07358E+05 2.09020E+02 2.26238E+03
 -1      2761-7.96370E+04-1.14717E+06-6.43906E+02 6.67199E+04-6.84002E+02-6.74562E+02
 -1      2762-7.95467E+03 3.20151E+03 1.69459E+00 5.31625E+03 5.14382E+00-2.02239E+01
 -1      2763-9.33529E+03 3.34546E+05 4.06515E+02 5.31608E+04 1.54802E+02 2.06379E+02
 -1      2764-8.63570E+03 4.14030E+05-6.20353E+01 6.08422E+04-4.33624E+00-1.51537E+00
 -1      2765-8.44653E+03 2.56710E+05-2.20332E+02 4.59539E+04 1.74060E+02 1.77508E+02
 -1      2766-8.58400E+03 1.69953E+05 7.11194E+00 4.25521E+04 2.34639E+02 5.32192E+01
 -1      2767-8.79082E+03 5.10599E+05-1.00318E+02 6.77924E+04 3.20146E+02-1.30898E+02
 -1      2768 1.05704E+03-1.14757E+06 1.03291E+02 9.11188E+04-7.64395E+01-3.21737E+02
 -1      2769-8.38683E+03 1.17186E+05 6.98317E+01 3.51763E+04 1.97566E+02 9.59936E+01
 -1      2770-7.86837E+03 6.30315E+05-1.35129E+03 7.30148E+04 1.54908E+02-8.23974E+01
 -1      2771-8.34892E+03 7.42150E+04-2.25950E+00 2.70975E+04 1.26379E+02 6.44463E+00
 -1      2772-1.74011E+03-4.19532E+03-1.33551E+01 5.57752E+03-2.96037E+01-6.56138E+00
 -1      2773-1.33589E+03-1.88258E+04-2.99372E+01 1.22658E+04-1.93983E+01 1.18242E+01
 -1      2774-8.24013E+03 3.93013E+04-3.33719E+01 2.06230E+04 4.49274E+01-2.52820E+01
 -1      2775-1.81993E+03-3.85334E+04 4.71925E+01 2.05015E+04-1.27879E+02-1.48011E+01
 -1      2776-1.31221E+03-7.67207E+04-1.84382E+02 2.63521E+04-6.69392E+01 1.44448E+01
 -1      2777-8.40139E+03 1.78678E+04-5.79649E+01 1.31521E+04 2.67196E+01 4.00687E+01
 -1      2778-1.62823E+03-1.22780E+05 1.44022E+02 3.34410E+04-9.18687E+01 6.46103E+01
 -1      2779-1.50460E+03-1.77681E+05 2.09576E+00 3.95271E+04-1.48815E+02-1.30484E+02
 -1      2780-1.16458E+03-2.44832E+05-1.23460E+01 4.70924E+04-1.92752E+02 1.05038E+02
 -1      2781-1.51561E+03-3.09618E+05-5.35130E+01 5.43146E+04-1.95458E+02-7.81476E+01
 -1      2782-1.64244E+03-3.93372E+05 5.70373E+01 6.22708E+04-1.46322E+02-3.59054E+00
 -1      2783-1.68137E+03-4.87172E+05-6.19942E+01 6.80286E+04-2.28017E+02 1.29642E+02
 -1      2784-1.45260E+03-5.91031E+05 1.49912E+02 7.63642E+04-3.08691E+02-1.17293E+02
 -1      2785-9.75544E+02-7.67444E+05-1.72674E+02 7.69649E+04-1.92025E+02 4.69409E+01
 -1      2786-8.95695E+03 1.19674E+06-8.07900E+02 7.85974E+04 4.47560E+02-1.45812E+02
 -1      2787-9.85236E+03 7.43513E+05 2.93166E+02 8.01669E+04 7.75239E+01 3.06828E+02
 -1      2788-1.30763E+03-7.44191E+05-1.77404E+02 9.59086E+04-5.65803E+02-1.82693E+02
 -1      2789-2.10289E+03 1.05911E+06 1.85194E+02 1.10797E+05 2.69471E+02-3.59038E+02
 -1      2790-8.40092E+03 8.42304E+05 7.89976E+02 8.88364E+04 1.03732E+02 3.80161E+02
 -1      2791-1.35546E+03-9.42433E+05-6.49046E+01 9.90367E+04 1.20023E+02-5.87758E+01
 -1      2792 8.58808E+04 1.24651E+06 5.35651E+03 5.65422E+04-2.31213E+04 3.10646E+03
 -1      2793-5.62998E+02-4.71250E+02-1.04638E+01 4.97805E+02 3.72353E+00-1.07235E+01
 -1      2794-3.85292E+03 5.60625E+03-2.59614E+03-1.16445E+05-1.47749E+03 2.63750E+03
 -1      2795-9.61426E+04-1.22189E+06-3.99550E+03 7.27938E+03 1.97062E+04 5.29265E+03
 -1      2796-9.03690E+03 6.82896E+03-1.86114E+01 6.46541E+03-3.06107E+01-2.19638E+01
 -1      2797 1.59067E+05 1.54108E+06-1.06979E+03 1.15641E+05 8.49369E+02-1.04971E+02
 -1      2798 8.25167E+03 3.43197E+04 2.90436E+03-4.67806E+04 2.91185E+01 1.05198E+03
 -1      2799-2.59816E+03 3.18482E+02 3.73930E+00 7.54149E+02 1.70106E+00 4.20194E+00
 -1      2800-5.03819E+03 8.04369E+02 7.80670E+00 4.40640E+03 5.77053E+00-2.53968E+00
 -1      2801-6.26777E+02-2.75925E+03-2.91013E+01 2.53158E+03-4.13943E+00-9.86182E+00
 -1      2802-9.13755E+03 3.98357E+05-2.14475E+01 3.99287E+04-1.36163E+02-7.62200E+01
 -1      2803 1.62358E+04-6.03375E+04-9.77289E+01 1.07608E+05 1.38224E+00 1.76994E+02
 -1      2804-9.13754E+03 5.08879E+05 1.27779E+02 4.45251E+04 1.52134E+01 2.36355E+01
 -1      2805-9.44317E+03 2.99783E+05 3.02285E+02 3.45155E+04 2.44719E+02-1.20979E+02
 -1      2806-9.91030E+03 6.33539E+05 6.86392E+02 5.11520E+04 3.82559E+01 3.58607E+01
 -1      2807-9.22801E+03 7.74958E+05-8.57729E+00 5.58228E+04-1.13447E+02 3.34138E+02
 -1      2808-9.25168E+03 2.13635E+05-1.03067E+02 2.96902E+04-9.59726E+01-7.73602E+01
 -1      2809-1.58555E+05-1.29481E+06 2.40845E+03 3.85870E+05 1.46523E+04-7.84843E+03
 -1      2810-1.93451E+03-1.03183E+03-2.09148E+02-1.31932E+03-8.64101E+01 4.14957E+00
 -1      2811-9.34501E+03 1.43982E+05-2.23559E+02 2.44705E+04 9.05894E+01-1.12989E+02
 -1      2812-9.39069E+03 8.68606E+04 6.91285E+01 1.90725E+04 5.78330E+00 3.55017E+01
 -1      2813-9.31914E+03 4.51009E+04-6.98495E+01 1.35766E+04 6.05072E+01-6.09586E+01
 -1      2814-9.19698E+03 9.25618E+05 3.10796E+02 6.10639E+04-1.16714E+02 1.08558E+02
 -1      2815-9.45417E+03 1.71969E+04 5.95509E+01 8.14354E+03-1.46439E+01-5.49279E+01
 -1      2816-5.44620E+03 4.14020E+04-1.90084E+02 1.19827E+05 1.38466E+02-4.88843E+01
 -1      2817-2.48068E+03 3.52744E+04 4.59439E+02 1.29047E+05-4.00011E+01-1.90812E+02
 -1      2818-6.60735E+02-8.66821E+04 8.03786E+01 1.84440E+04 3.66183E+01-1.09574E+02
 -1      2819-5.28027E+02-1.41590E+05-6.38219E+00 2.37793E+04-2.91713E+00-1.64380E+01
 -1      2820-4.37571E+02-2.11214E+05-2.90580E+02 2.88926E+04-2.24659E+02-1.95061E+01
 -1      2821-5.38492E+02-2.94496E+05 1.57867E+01 3.38263E+04-6.70890E+01-5.33286E+01
 -1      2822-6.68075E+02-1.70310E+04 4.35047E+01 8.09326E+03-4.78035E+01-9.57923E+00
 -1      2823-5.17682E+02-3.89566E+05-1.88025E+02 3.94733E+04-9.86973E+01-3.41816E+01
 -1      2824-7.31738E+02-9.37297E+03-5.88656E+01 5.83464E+03 1.88687E+00-2.98790E+01
 -1      2825-6.98968E+02-4.39989E+04 3.16195E+01 1.36415E+04-5.77508E+01 6.03995E+00
 -1      2826-7.49176E+02-4.99670E+05 2.19111E+02 4.45755E+04-9.88599E+01-8.98428E+00
 -1      2827-6.30278E+02-3.16884E+04 5.58526E+01 1.11825E+04-1.46419E+01-4.56137E+01
 -1      2828-7.80417E+02-6.23848E+05 4.34819E+02 5.03871E+04-4.92442E-01-1.75621E+02
 -1      2829-5.17001E+03 6.98156E+02 5.59580E+01 2.23468E+04 1.78771E+01 2.74340E+01
 -1      2830-5.87495E+02-7.60356E+05-8.36355E+01 5.50874E+04-2.07869E+02-1.72913E+02
 -1      2831-5.17558E+03 4.47042E+02-7.24027E+00 1.33291E+04 1.98029E+01 1.26103E+01
 -1      2832-6.46131E+02-9.19022E+05-1.61431E+02 6.05135E+04 1.24554E+02 2.13704E+02
 -1      2833-5.08247E+03-1.04598E+03 1.08801E+02 3.13509E+04 1.87564E+01-1.93321E+01
 -1      2834-4.99425E+03-2.09861E+03 1.18437E+02 4.10515E+04-8.96331E+01-1.12164E+02
 -1      2835-5.05353E+03-3.02290E+03 1.59457E+02 4.91588E+04 2.11483E+01-1.17654E+02
 -1      2836-4.71647E+03-3.52759E+03-4.53471E+02 5.91394E+04-1.16114E+02 5.49289E+01
 -1      2837-5.09862E+03-5.09336E+03 7.11476E+01 6.74954E+04-1.36794E+02-1.81327E+02
 -1      2838-5.00141E+03-1.06512E+04 1.16710E+02 7.61597E+04 2.83609E+02-1.15148E+02
 -1      2839-4.82897E+03-1.26332E+04-3.35116E+02 8.52996E+04-2.49748E+02-1.30458E+02
 -1      2840-4.75207E+03-1.47888E+04 4.05541E+01 9.38021E+04-1.06432E+02-1.15436E+02
 -1      2841-4.80565E+03-5.17129E+03-2.21764E+01 1.03788E+05-2.80104E+01-3.47785E+02
 -1      2842-4.83007E+03-1.10471E+04 9.30181E+01 1.11964E+05-6.34902E+01 2.81618E+01
 -1      2843-4.91364E+03-3.28216E+04 1.12752E+02 1.00267E+05-4.03340E+02 1.47948E+02
 -1      2844-5.55024E+03-3.07088E+04 7.88393E+02 9.22190E+04 1.09991E+02-6.89062E+01
 -1      2845-8.46758E+02-8.47145E+05-2.61279E+02 5.84534E+04-3.93917E+01-1.42630E+01
 -1      2846-1.08971E+03-1.06106E+06 7.67797E+02 6.79761E+04-2.52008E+02-4.12589E+02
 -1      2847-4.84393E+03-2.34548E+04 1.01349E+02 8.27407E+04-7.14515E+01 7.48956E+01
 -1      2848-4.62997E+03-1.28404E+04-1.95605E+02 7.33922E+04-2.78222E+02 7.28317E+01
 -1      2849-7.80057E+02-7.00840E+05-1.60792E+02 5.45844E+04-1.94992E+02 2.58339E+01
 -1      2850-4.97304E+03-8.11886E+03 1.47096E+01 6.44962E+04-9.85459E+01-2.42833E+01
 -1      2851-4.90038E+03-3.49761E+03 2.66202E+02 5.56380E+04-1.10028E+02 1.37207E+02
 -1      2852-8.80111E+02-5.69832E+05-1.15590E+02 4.76096E+04-1.84703E+02-5.04458E+01
 -1      2853-4.90679E+03-1.83879E+03-5.22451E+01 4.69365E+04 6.98708E+01 1.06611E+02
 -1      2854-5.01539E+03-1.27658E+03 1.11918E+02 3.78378E+04-6.62191E+01 1.44391E+02
 -1      2855-4.98504E+03-1.85657E+02 4.78269E+00 1.97223E+04-7.91589E+00 4.13079E+00
 -1      2856-4.86610E+03-2.01329E+02-2.87259E+01 2.85846E+04 1.10286E+02-5.96399E+01
 -1      2857-8.91205E+02-4.51784E+05-1.56996E+02 4.26571E+04-1.06603E+02 3.43035E+01
 -1      2858-5.07149E+03 1.86443E+01 3.63760E+00 1.03523E+04 9.66252E+00 2.00247E+00
 -1      2859-7.22034E+02-3.49532E+05-1.68883E+02 3.73382E+04-1.01637E+02-4.82706E+01
 -1      2860-1.11060E+03-2.59473E+05 3.50071E+02 3.23006E+04-1.80092E+02 1.54760E+01
 -1      2861-7.25431E+02-1.81026E+05-1.70792E+02 2.68798E+04-1.62545E+02-1.00239E+02
 -1      2862-3.75948E+04-1.55769E+06-1.88960E+03 8.91253E+04-1.12228E+03-5.32332E+02
 -1      2863-7.02108E+02-1.17819E+05-9.58934E+00 2.18205E+04-7.30903E+01-4.64527E+00
 -1      2864-8.43615E+02-6.71756E+04-4.07257E+00 1.67821E+04-9.85215E+01-5.54837E+01
 -1      2865 3.06146E+04 6.25585E+05 2.04786E+04-8.59137E+04-2.21456E+04-1.63085E+02
 -1      2866-9.15970E+03 6.75764E+04 9.26255E+01 1.70011E+04 1.19040E+02 7.04735E+00
 -1      2867 4.82673E+04 1.58936E+06 6.50980E+02 1.31351E+05 3.27247E+02 8.27649E+02
 -1      2868-9.15152E+03 1.18355E+05-8.13719E+01 2.23640E+04 1.77727E+02-9.52493E+01
 -1      2869-5.07185E+02-1.00663E+06-3.43703E+02 6.32813E+04-1.39621E+01-3.24128E+02
 -1      2870-9.14803E+03 1.81455E+05 3.69940E+01 2.74240E+04 3.01477E+01-8.97487E+01
 -1      2871-9.33697E+03 3.22143E+04 1.09676E+02 1.11673E+04 3.55708E+01-6.55105E+01
 -1      2872-2.82837E+03-1.41182E+03 1.82685E+01 4.65969E+03 1.97605E+01 1.68489E+01
 -1      2873-9.17309E+03 2.59190E+05 2.02832E+02 3.31052E+04 7.81119E+01-2.54797E+01
 -1      2874-1.29275E+05-1.43932E+06-1.53386E+03 6.63040E+04-1.48943E+03 1.90717E+03
 -1      2875-9.16617E+03 3.53426E+05 3.21408E+01 3.75543E+04 9.16113E+01-7.36861E+01
 -1      2876 8.60899E+04 6.72104E+05-1.23447E+03 2.75489E+04 7.53915E+02 5.83480E+02
 -1      2877-9.31312E+03 1.13892E+06-1.14293E+02 7.02403E+04 1.17588E+02 1.41755E+02
 -1      2878-9.63654E+03 5.04237E+05-1.07634E+01 3.67184E+04 6.75775E+01-2.25510E+02
 -1      2879-9.51853E+03 6.33462E+05 2.36563E+02 4.17707E+04 1.30056E+02 4.95856E+01
 -1      2880-5.07949E+03-9.06444E+03 6.79057E+01 1.08157E+05-1.69018E+02 3.03795E+02
 -1      2881-9.32717E+03 7.79165E+05-9.01786E+01 4.73171E+04 1.56466E+02-9.99438E+01
 -1      2882-4.56352E+04-6.13878E+05-1.45909E+04-1.04083E+05 2.43198E+04 1.18619E+03
 -1      2883-9.59444E+03 9.39781E+05-6.11972E+01 5.00172E+04 1.74283E+02-2.50043E+02
 -1      2884-8.68784E+02-1.50393E+06-4.29020E+02 7.24036E+04 4.40001E+02-1.47713E+02
 -1      2885 1.14302E+02-1.40741E+06-5.04612E+01 7.14885E+04-6.14512E+00-6.41340E+01
 -1      2886-7.21348E+03 1.35088E+05 5.27400E+01 5.53494E+04 2.03770E+02-1.00896E+02
 -1      2887-2.46863E+04-6.65822E+05 2.42982E+01 7.55368E+04 1.85993E+02 1.25235E+02
 -1      2888-6.88379E+03 1.69244E+05 1.05986E+02 6.46694E+04-1.55677E+02 1.47392E+02
 -1      2889 1.38728E+05 1.35408E+06 3.07852E+04 2.75081E+05-6.74721E+04 6.66780E+03
 -1      2890-7.00429E+03 9.45012E+04-2.13018E+02 4.64982E+04 1.49133E+02 6.86018E+01
 -1      2891-3.87301E+02-1.40400E+06 8.12884E+01 6.50010E+04 1.07854E+02-3.08378E+01
 -1      2892-6.89263E+03 2.15050E+05 1.72102E+02 7.26285E+04 6.27412E+01 6.92748E+01
 -1      2893-7.15531E+03 6.41756E+04-1.03191E+01 3.80188E+04-1.33338E+02-5.73569E+01
 -1      2894-6.99287E+03 2.66322E+05-8.03177E+01 8.03437E+04 2.03077E+01-1.45763E+02
 -1      2895-9.33955E+03 1.04826E+03 8.06899E+01-4.56133E+02-3.97716E+01-1.44680E+02
 -1      2896-7.12916E+03 3.25963E+05-3.07555E+02 8.92967E+04-1.61945E+02 8.05325E+01
 -1      2897-7.05175E+03 3.95172E+04-2.24412E+02 3.02744E+04-9.85797E+01-1.72648E+01
 -1      2898-9.48161E+03 1.13363E+06-1.14559E+02 5.39318E+04 3.26787E+02-1.21358E+02
 -1      2899-9.28237E+03 1.25776E+06-3.47187E+02 6.50540E+04 3.97660E+02 6.72301E+01
 -1      2900-8.77573E+03 1.41279E+06 1.85134E+02 7.45160E+04-7.70574E+01-2.83151E+02
 -1      2901 5.93542E+04 5.67104E+05-1.55751E+02 9.78758E+04 2.67448E+02 3.06152E+02
 -1      2902-9.41170E+03 1.34152E+06 2.00767E+02 7.13262E+04 1.07594E+01 5.49302E+01
 -1      2903-4.69750E+02 1.59397E+06 1.70330E+03 8.83778E+04 1.69561E+02-8.52942E+02
 -1      2904-7.19196E+03 4.07489E+05 1.92093E+02 9.72172E+04-2.61727E+02 2.63875E+02
 -1      2905-3.91439E+02-1.29572E+06-1.20575E+02 5.76472E+04-2.13915E+02-2.54562E+00
 -1      2906-2.82569E+03-4.05271E+05-4.49818E+02 1.00070E+05 9.44371E+01-1.86565E+02
 -1      2907-7.00727E+03 2.16639E+04-2.34666E+02 2.16447E+04 5.71612E+01-4.29341E+01
 -1      2908 2.47613E+05 1.27392E+06 1.87164E+04 4.97533E+05-7.10785E+04-1.56190E+04
 -1      2909-7.21956E+03 8.70882E+03-4.33879E+01 1.32139E+04 9.22116E+00-3.64047E+01
 -1      2910-2.95513E+03-2.08737E+04-3.98240E+00 2.13804E+04-5.90433E+01 6.64644E+01
 -1      2911-2.95197E+03-8.84646E+03 9.66813E+00 1.31494E+04 1.54690E+01-6.02416E+01
 -1      2912-2.13327E+02-8.38183E+02-2.27988E+01 6.72853E+02 4.88796E+00-2.60095E+01
 -1      2913 1.20371E+04 2.44673E+05-3.02775E+02 1.25275E+05-1.65649E+02-8.12823E+01
 -1      2914-2.76897E+03-4.25740E+05-9.06852E+01 9.62357E+04 3.49299E+02 2.30486E+02
 -1      2915-2.72684E+03-3.64748E+05 1.88274E+02 8.53194E+04 1.49742E+02 9.13329E+01
 -1      2916-2.76320E+03-2.99513E+05-1.06228E+02 7.78102E+04 6.02082E+01 8.24919E+01
 -1      2917-2.86836E+03-2.41261E+05-1.98089E+01 6.92232E+04-5.45263E+01 1.11658E+02
 -1      2918-2.62086E+03-1.87801E+05 1.15191E+02 6.20159E+04-6.00539E+00 1.78775E+02
 -1      2919-2.19985E+03-1.40893E+05-6.42679E+02 5.38396E+04-3.84950E+01 7.34892E+01
 -1      2920-3.01163E+03-9.91692E+04-4.86665E+01 4.56640E+04 1.59672E+02-7.30967E+01
 -1      2921-2.73238E+03-6.74489E+04 3.13481E+01 3.74122E+04 2.73125E+01-1.77074E+02
 -1      2922-2.83505E+03-4.12590E+04-5.68392E+01 2.92070E+04-8.78185E+01 3.76944E+01
 -1      2923-4.32635E+04-5.27896E+05 7.09059E+02 8.22392E+03-3.32095E+02 1.03726E+03
 -1      2924-3.05707E+03-4.85471E+05 9.18592E+01 1.03178E+05-3.20818E+02 2.34691E+01
 -1      2925-3.11048E+03-3.99785E+05 1.78102E+02 8.91685E+04 8.55551E+01 7.38513E+01
 -1      2926-2.85530E+03-1.39414E+04-2.68581E+01 1.68680E+04 6.83289E+00-6.84674E+01
 -1      2927-7.07854E+03 4.02655E+05-3.33954E+02 1.09875E+05 1.28865E+02 2.26477E+01
 -1      2928-9.61940E+03 1.18730E+04 1.70985E+01 5.65174E+03-3.46538E+01-4.43085E+01
 -1      2929-2.95325E+03-4.20051E+03 3.29642E+01 8.52398E+03 2.20801E+01 2.06489E+01
 -1      2930-2.38217E+03-3.30663E+05-3.85505E+02 8.24192E+04 1.26260E+02-6.83519E+01
 -1      2931-2.92706E+03-2.68808E+05 1.80453E+02 7.28044E+04-6.75086E+01-2.07033E+02
 -1      2932-2.77254E+03-2.11815E+05 5.96235E-01 6.48365E+04 4.43785E+01-2.50174E+02
 -1      2933 1.28868E+02-5.86846E+05-1.13331E+01 1.17177E+05-7.91329E+01-1.60014E+02
 -1      2934-2.58594E+03-1.62179E+05 1.48202E+01 5.67307E+04-1.99813E+02-1.49536E+02
 -1      2935-2.48589E+03-1.16733E+05 1.41494E+02 4.94422E+04 9.25745E+01 1.58397E+01
 -1      2936-2.82525E+03-8.12732E+04 2.54884E+01 4.11257E+04 1.11957E+02-7.91511E+01
 -1      2937-2.69228E+03-5.23489E+04 8.32857E+01 3.33019E+04 5.77420E+01 1.88478E+02
 -1      2938-2.83183E+03-2.86471E+04 7.38189E+00 2.52993E+04-8.38141E+01-6.03637E+01
 -1      2939 2.99427E+03-5.64490E+05-6.90126E+01 1.15957E+05 5.81742E+01 1.28092E+01
 -1      2940-3.17651E+03-2.22100E+05 4.25102E+02 1.22618E+05-8.23575E+01-1.99283E+02
 -1      2941-4.05302E+03-2.14703E+05 5.01093E+01 1.14213E+05-3.86281E+01 1.45528E+02
 -1      2942-7.54854E+03 6.18569E+05 4.36171E+00 1.08561E+05 3.83744E+01 2.66740E+01
 -1      2943-7.05004E+03 5.35101E+05 1.15649E+02 1.15859E+05 1.69656E+01 1.36263E+02
 -1      2944-1.08430E+05-1.35205E+06-2.67858E+04 1.84630E+05 5.42797E+04 3.67193E+03
 -1      2945 6.24364E+01-2.00080E+02-1.69578E+01 3.75702E+02 6.28138E+01 4.95467E+01
 -1      2946 2.48636E+01 1.00551E+02 1.13104E+01-1.25671E+02 1.54916E+01-1.06272E+01
 -1      2947-6.03423E+01-6.31484E+01-3.95895E+00-3.19877E+00-6.67061E+00-1.12914E+00
 -1      2948-7.11297E+03 1.36076E+04 7.83278E+01 1.70747E+04 2.90552E+01-4.03805E+01
 -1      2949-7.24075E+03 2.87947E+04 6.41475E+00 2.57460E+04-2.81964E+01 2.68975E+01
 -1      2950-2.31096E+03 5.59103E+05 5.64883E+02 1.19817E+05-5.57613E+01 1.90603E+02
 -1      2951-3.02696E+03 3.21830E+02-2.07220E+01-9.33258E+01-3.00304E+01-3.07989E+01
 -1      2952-9.37920E+03 2.10219E+03 7.02402E+01 2.55239E+03 1.91548E+01-3.78790E+01
 -1      2953-7.19170E+03 5.04318E+04 1.96676E+02 3.38592E+04-1.65598E+02-3.34272E+01
 -1      2954 1.37173E+05 1.63233E+06-2.54434E+03 1.99625E+05-3.73890E+03 5.71281E+03
 -1      2955-3.17616E+03-5.10884E+05-1.24542E+02 1.11921E+05-4.52004E+02 2.14650E+02
 -1      2956-7.58920E+02-1.33637E+06-3.40118E+02 6.21510E+04 2.46850E+00 1.72493E+02
 -1      2957-7.01220E+03 7.75019E+04-2.17585E+01 4.16215E+04 5.97280E+01-1.02368E+02
 -1      2958 1.21096E+05 1.91272E+06-9.47165E+03 1.57427E+05-1.11180E+03 3.79693E+03
 -1      2959-7.04432E+03 3.37245E+03 8.68690E+01 8.55301E+03 9.42537E+00-2.65880E+01
 -1      2960-7.08484E+03 1.10301E+05 1.57985E+02 4.99519E+04 3.45165E+01 8.23137E+01
 -1      2961-7.06222E+03 1.50182E+05-2.34295E+02 5.79674E+04 2.32780E+02-1.27697E+02
 -1      2962-9.62557E+03 4.78486E+03 1.79105E+01 3.63742E+03-6.58678E+00-5.83278E+01
 -1      2963 7.13533E+01 3.56235E+02 7.53626E+00 2.20386E+02 4.79266E+01 1.55573E+01
 -1      2964 3.91239E+01 2.12224E+02 1.47977E+00-3.05937E+00 1.07675E+01-3.01254E+00
 -1      2965-1.26804E+05-1.63492E+06 4.33116E+03 1.35536E+05 6.49864E+03 5.89539E+03
 -1      2966-1.19213E+03-1.04122E+02-9.32860E-01 5.35743E+02-7.12698E+00-2.12733E+00
 -1      2967-6.32410E+03 1.37674E+05 9.31148E+01 6.85031E+04-3.89658E+01 1.81745E+02
 -1      2968-9.57105E+03 1.17267E+06 2.50435E+02 5.47700E+04 2.55530E+02-2.31086E+02
 -1      2969-6.66980E+03 1.69162E+05 2.11142E+02 7.68686E+04-3.62713E+01-4.39261E+01
 -1      2970-6.31233E+03 2.08666E+05 3.51169E+02 8.55424E+04 1.40656E+02-9.62409E+01
 -1      2971-6.69233E+03 3.48561E+05-1.89288E+02 1.07978E+05 1.16304E+00 3.29088E+02
 -1      2972-6.35864E+03 2.56160E+05-7.80995E+01 9.43003E+04-2.27373E+02-1.30223E+02
 -1      2973-9.75062E+03 1.16825E+06 2.79733E+01 4.22574E+04 2.45762E+02 2.10166E+02
 -1      2974-4.60186E+03 9.72580E+02-9.89282E+00 2.15135E+03-1.06397E+01-7.40208E-01
 -1      2975-9.26940E+04-1.79091E+06 7.82348E+03 1.05211E+05-1.63918E+03 7.12555E+03
 -1      2976-9.87367E+03 9.88003E+05-2.62719E+02 3.81493E+04 2.19358E+02 8.69800E+01
 -1      2977-9.72394E+03 8.16302E+05 1.96590E+02 3.38660E+04 1.26644E+02-4.79973E+01
 -1      2978-4.02993E+02-1.32343E+06 1.84743E+01 4.80318E+04-3.38303E+02 2.37798E+00
 -1      2979-9.90641E+03 6.60893E+05-1.36481E+02 3.04957E+04 2.99319E+02-2.94623E+02
 -1      2980-9.73172E+03 5.20448E+05 1.82016E+02 2.65356E+04 1.39664E+02 1.11017E+02
 -1      2981-6.94020E+03 1.92049E+03 3.40722E+01 3.20081E+03-7.68272E+00-1.10225E+01
 -1      2982-9.92471E+03 3.96135E+05 3.31219E+02 2.29532E+04 2.72490E+02 6.25238E+01
 -1      2983-6.74056E+03 3.39223E+05 5.62992E+02 1.01211E+05-6.23772E+01 1.83887E+01
 -1      2984-9.67123E+03 2.81104E+05 2.27834E+02 2.15436E+04 1.32703E+02 9.05685E+01
 -1      2985-9.72400E+03 1.92277E+05 1.02867E+02 1.79385E+04 1.61091E+02 1.86127E+02
 -1      2986-2.81323E+02-5.88892E+03-6.84947E+00 2.88366E+03 3.54103E+00-6.66689E-01
 -1      2987-2.28508E+02-2.78256E+04 2.91417E+01 5.95240E+03-4.85831E+01 2.46845E+01
 -1      2988-9.72774E+03 1.21260E+05-1.29240E+01 1.41481E+04 9.83076E+01-3.01507E+01
 -1      2989-2.84473E+02-6.42306E+04 4.86318E+01 1.09518E+04-9.04714E+01-1.03544E+02
 -1      2990-2.47438E+02-1.21169E+05 1.84874E+01 1.29253E+04-1.13662E+02 3.25519E+01
 -1      2991 2.94286E+02-1.75801E+06 9.31857E+01 4.64817E+04-3.35287E+02-1.38238E+02
 -1      2992-9.73756E+03 6.51335E+04 5.17710E+01 1.10659E+04 6.87854E+01 6.03985E+00
 -1      2993-2.07544E+02-1.93061E+05-1.39208E+02 1.66353E+04-1.64048E+02-5.90049E+01
 -1      2994-1.34093E+02-2.80564E+05-1.60844E+02 2.02621E+04-1.67033E+02 4.44114E+01
 -1      2995-9.70053E+03 2.81931E+04 3.90068E+01 6.77451E+03 5.42692E+01-3.47394E+01
 -1      2996-3.07478E+02-3.85423E+05-1.27192E+02 2.36853E+04-1.33047E+02 2.86624E+02
 -1      2997-2.25800E+02-4.99459E+05-8.49594E+01 2.80872E+04-1.90505E+02-9.26934E+01
 -1      2998-2.23008E+02-6.35220E+05-3.24010E+01 3.24310E+04-2.83705E+02-1.81776E+00
 -1      2999 2.06801E+05 1.33545E+06 6.35491E+04 3.26454E+05-1.19921E+05-1.45568E+04
 -1      3000-4.75633E+02-7.86491E+05 2.75477E+02 3.49723E+04-1.73859E+02 1.94227E+02
 -1      3001-2.60173E+02-9.55579E+05-1.53515E+02 3.87542E+04-2.51741E+02-2.44367E+00
 -1      3002-2.38926E+02-1.17238E+06-2.00017E+02 3.89759E+04-1.83251E+02 2.07354E+02
 -1      3003-1.28310E+04-1.95243E+06 1.11043E+03 4.79694E+04-1.25712E+03 9.59305E+02
 -1      3004-3.03196E+04-2.03142E+06 6.17212E+02 7.58874E+04-2.59949E+03-2.97800E+03
 -1      3005-7.62501E+04-2.18428E+06 1.35223E+03 1.86311E+05-2.13539E+02 4.82247E+03
 -1      3006-4.80461E+04-2.17066E+06 5.69568E+03 8.73617E+04-2.20192E+03 8.11751E+02
 -1      3007-7.45840E+04-1.69027E+06-3.54964E+02 1.01165E+05-2.48272E+03 1.14734E+03
 -1      3008-1.17598E+02-8.14188E+02-2.86152E+01 3.64502E+02 2.15090E+00-2.68639E+01
 -1      3009-6.87979E+01-1.80354E+02-3.37467E+01 2.75600E+02-1.95400E+01 1.17252E+00
 -1      3010-1.88979E+01 1.98610E+02-8.60050E+00-1.81190E+01 9.11167E+00 1.60045E+00
 -1      3011-4.03561E+01 1.92775E+02-2.08092E+01 1.59718E+00 1.98736E+01 7.59447E+00
 -1      3012-1.10355E+02-2.85818E+02 2.47894E+01 2.89627E+02-5.71622E+00-3.84910E+00
 -1      3013-2.33559E+05-1.14083E+06-4.55814E+04 4.66783E+05 8.89696E+04-5.03992E+03
 -1      3014 4.95113E+01 1.88422E+02 7.48797E+00 4.94627E+01 2.05883E+01-6.33182E+00
 -1      3015 2.76360E+05 1.11051E+06 4.45972E+04 4.93425E+05-1.07724E+05-2.18505E+04
 -1      3016 9.59862E+01 3.26237E+02 5.41862E+01 3.76664E+01 5.61303E+01 3.22713E+01
 -1      3017-3.05362E+02-7.73956E+02-3.11022E+02-1.53972E+02 1.25727E+02-1.54681E+02
 -1      3018-2.93864E+03-1.40722E+03-2.05389E+02-1.94678E+03-2.09051E+02 1.22695E+02
 -1      3019-1.00229E+04-4.54519E+02 1.21167E+02 4.11558E+02 5.30092E+01 3.32977E+00
 -1      3020-8.25097E+03-5.15320E+02 1.51580E+02-1.17235E+03-1.80759E+02-1.06602E+02
 -1      3021-5.70074E+03 1.75018E+02-4.61954E+01-1.57551E+03 5.07753E+01-1.20344E+02
 -1      3022 1.53121E+04 1.97170E+06 1.64663E+03 7.06718E+04-1.12596E+03 2.51240E+02
 -1      3023 3.19230E+04 2.06435E+06 5.24694E+03 9.77952E+04-4.53172E+02-5.39246E+02
 -1      3024 8.55995E+04 2.28054E+06-1.35682E+03 2.14800E+05-7.24152E+02 4.74860E+03
 -1      3025 5.14536E+04 2.25118E+06-8.44602E+03 1.09557E+05 6.06313E+02 4.40369E+03
 -1      3026 8.19714E+04 1.74243E+06-8.50090E+03 1.47967E+05-1.12742E+03 2.26579E+03
 -1      3027-7.93699E+02-1.87416E+06-7.32047E+02 3.79185E+04 6.97828E+02 6.54637E+02
 -1      3028-8.54492E+01-1.92154E+06-6.30618E+02 3.97219E+04 1.76807E+03-1.07616E+03
 -1      3029-1.41345E+04-1.53861E+06-1.87258E+03 7.99427E+04 9.41790E+02 3.15060E+02
 -1      3030 1.42151E+01-1.95130E+06-8.34587E+01 2.38641E+04-4.51559E+02-5.58704E+02
 -1      3031 5.45465E+02-1.99811E+06 1.10188E+02 2.36548E+04-2.54545E+02 4.39270E+02
 -1      3032-5.65191E+02-1.63334E+06-3.56811E+02 5.89333E+04 1.72495E+02-1.16752E+02
 -1      3033-6.04267E+01-1.72938E+06 1.49798E+02 3.80277E+04-8.59127E+00-3.32145E+02
 -1      3034 8.82527E+02-1.77410E+06 1.31467E+02 3.81554E+04 3.97241E+01-2.53587E+02
 -1      3035 7.09815E+02-1.58075E+06 3.15962E+02 5.88066E+04-4.63834E+01-1.70461E+02
 -1      3036-7.54917E+02-1.68067E+06-3.64634E+01 3.52279E+04-6.51097E+01-1.96613E+02
 -1      3037 5.72105E+02-1.72675E+06-3.81923E+02 3.44564E+04 6.98100E+02 2.88908E+02
 -1      3038-1.46031E+01-1.40705E+06-5.02045E+02 6.92677E+04-1.58905E+02-4.35077E+02
 -1      3039-8.22039E+02-1.59419E+06 3.41517E+02 3.22502E+04 4.29143E+02-2.88301E+02
 -1      3040 5.66435E+02-1.63894E+06 8.40791E+01 3.32119E+04-1.06984E+02 3.03286E+02
 -1      3041 3.37291E+02-1.16932E+06 6.56444E+02 8.25533E+04 1.21120E+02 6.17296E+02
 -1      3042-5.75511E+02-1.44586E+06-1.12916E+02 5.35961E+04 9.25912E+02 7.20759E-02
 -1      3043-2.75991E+03-1.14429E+06-1.22643E+03 8.09415E+04-1.94577E+02-6.02490E+02
 -1      3044-5.22488E+02-1.53031E+06-9.08967E+01 3.06475E+04 1.74080E+02 1.76933E+02
 -1      3045 3.12360E+01-1.57430E+06-2.20475E+02 3.07379E+04-4.74776E+00 1.50520E+02
 -1      3046-4.30902E+01-1.31620E+06 1.07105E+02 6.04362E+04-4.06153E+02-3.80174E+02
 -1      3047-7.53130E+02-1.49984E+06-3.37214E+02 2.49260E+04-1.95980E+02 6.24118E+01
 -1      3048-3.78691E+02-1.54346E+06-1.17245E+02 2.50912E+04-3.06716E+02 2.97312E+02
 -1      3049-8.31547E+02-1.30995E+06-1.29878E+02 5.35924E+04-1.29294E+02-2.03828E+01
 -1      3050-8.93859E+02-1.32490E+06-1.42085E+02 3.59917E+04 5.52586E+01-1.34791E+02
 -1      3051-6.63896E+01-1.36563E+06-3.14754E+02 3.64042E+04 3.44461E+01-8.00334E+01
 -1      3052-4.25391E+02-1.18936E+06 1.58491E+03 5.75105E+04-7.18276E+00 1.65468E+01
 -1      3053-7.37682E+02-1.25572E+06-3.29809E+02 3.39107E+04 4.53472E+01 2.48555E+02
 -1      3054 3.65367E+02-1.29480E+06-3.57436E+02 3.43101E+04 2.45130E+02-1.96666E+01
 -1      3055-1.15462E+03-1.03177E+06 9.30479E+02 6.64412E+04 1.48614E+01-1.01372E+03
 -1      3056-7.96430E+02-1.29665E+06-9.40357E+01 2.02432E+04-2.57237E+02-2.65161E+02
 -1      3057-3.36897E+02-1.33691E+06 1.02532E+02 2.03770E+04-2.19360E+02 6.17057E+02
 -1      3058-1.27259E+03-1.09175E+06-6.42402E+02 5.13275E+04-2.03587E+00 3.17663E+01
 -1      3059-1.02187E+03-1.13093E+06-8.94397E+01 3.13308E+04 2.36070E+02-2.89213E+01
 -1      3060 2.16927E+02-1.16833E+06-1.37684E+02 3.19874E+04 1.54173E+02 5.79201E+00
 -1      3061 1.03579E+03-1.04281E+06 3.76399E+02 4.99966E+04 1.14651E+01 8.77661E+02
 -1      3062-5.56935E+02-1.05558E+06-7.48989E+01 3.12937E+04 7.76487E+01 6.83204E+01
 -1      3063 9.21355E+01-1.09224E+06-4.06479E+02 3.14524E+04 1.62791E+02 6.70337E+01
 -1      3064-2.56236E+02-8.82590E+05 2.74818E+02 5.95155E+04 2.74307E+00-5.69762E+02
 -1      3065-2.84156E+02-1.07148E+06-2.02713E+02 2.03509E+04-1.18340E+01-3.36691E+02
 -1      3066-6.10277E+01-1.10841E+06 2.65707E+01 2.04261E+04-2.43270E+01 3.47071E+02
 -1      3067 1.24754E-01-9.02708E+05-2.20038E+02 4.87042E+04-1.99816E+02-5.45317E+02
 -1      3068-8.09867E+02-9.38219E+05-1.79263E+02 2.92405E+04 2.96051E+02 1.64018E+02
 -1      3069 4.53297E+02-9.72470E+05-1.01214E+02 2.97126E+04 1.38343E+02-1.66100E+02
 -1      3070-8.12123E+02-8.56504E+05 1.40963E+01 4.71373E+04-3.82200E+02 4.68427E+02
 -1      3071-2.70941E+01-8.72258E+05 6.65014E+01 2.87998E+04-2.41755E+02-1.70201E+02
 -1      3072-3.78591E+02-9.05886E+05-1.85018E+02 2.89106E+04-2.90495E+02 1.89010E+02
 -1      3073-7.25210E+02-7.29749E+05 2.90514E+02 5.50038E+04 2.91750E+01 2.91454E+02
 -1      3074-5.99977E+02-8.80752E+05 5.22071E+01 1.83194E+04-1.39512E+02-1.25701E+02
 -1      3075-5.66404E+01-9.14101E+05 2.68953E+02 1.84072E+04-2.06610E+02 3.40598E+01
 -1      3076-8.26801E+02-7.45947E+05-5.55216E+02 4.49610E+04-3.79460E+01-6.29048E+01
 -1      3077-6.20793E+02-7.67024E+05-6.72309E+01 2.64629E+04 7.98866E+01-1.02148E+02
 -1      3078 4.30518E+02-7.97842E+05-1.00251E+02 2.68221E+04 1.77023E+02-1.25648E+02
 -1      3079-4.05830E+02-7.03356E+05 6.70902E+02 4.25650E+04-9.96563E+01 4.76436E+02
 -1      3080-7.11188E+02-7.08057E+05-2.66390E+02 2.56643E+04 5.86542E+01 2.11809E+02
 -1      3081 5.05936E+01-7.37653E+05-2.72423E+02 2.60956E+04 1.81327E+02 2.83572E+01
 -1      3082-1.20673E+03-5.96086E+05 3.85856E+02 4.96126E+04 5.39199E+01-7.05463E+02
 -1      3083-1.87306E+02-7.09353E+05-6.22767E+01 1.67730E+04-3.53674E+02-3.26072E+02
 -1      3084-6.06676E+01-7.39301E+05-3.97851E+01 1.68328E+04-3.14672E+02 3.33099E+02
 -1      3085-6.60212E+02-6.03705E+05 2.22761E+01 4.03031E+04-7.00308E+01 1.19823E+02
 -1      3086-7.08427E+02-6.12885E+05-8.62090E+01 2.36124E+04 8.39579E+01-4.14132E+01
 -1      3087 3.18965E+02-6.40170E+05-5.50789E+00 2.39878E+04 1.18144E+02-2.32534E+02
 -1      3088 7.81385E+01-5.65546E+05 1.05360E+02 3.87258E+04-1.71924E+01-1.18082E+02
 -1      3089-6.44134E+02-5.59994E+05-8.22112E+01 2.28401E+04 4.57192E+01 6.89895E+01
 -1      3090-5.97001E+01-5.86644E+05-2.76037E+02 2.32259E+04 1.42656E+02 4.10456E+01
 -1      3091-1.07001E+03-4.75376E+05 2.85005E+02 4.42261E+04 6.40247E+01-5.46543E+02
 -1      3092-1.36875E+02-5.56088E+05-5.50578E+01 1.48309E+04-6.61536E+01-2.57923E+02
 -1      3093 3.26084E+01-5.82800E+05 1.35592E+01 1.47283E+04-2.69786E+00 2.42709E+02
 -1      3094-3.83050E+02-4.76566E+05-1.31573E+02 3.53526E+04-1.96104E+02-3.92035E+02
 -1      3095-7.35657E+02-4.76044E+05-1.53330E+02 2.07477E+04 2.13727E+02 1.28256E+02
 -1      3096 1.57620E+02-5.00329E+05-1.66903E+02 2.11620E+04 1.23399E+02-6.74501E+01
 -1      3097 4.53780E+02-4.42685E+05 1.78240E+01 3.43402E+04-1.48842E+02 4.12591E+02
 -1      3098-5.36383E+02-4.30562E+05-5.33771E+01 2.00241E+04-5.85251E+01 1.02070E+02
 -1      3099-1.69474E+02-4.53667E+05-5.10859E+01 2.01337E+04-6.51850E+01 1.51101E+01
 -1      3100-6.21032E+02-3.68829E+05 3.15191E+02 3.87134E+04 1.63686E+02 8.33993E+01
 -1      3101-6.50327E+02-4.24535E+05-1.64945E+02 1.21888E+04-7.02615E+01-1.11167E+02
 -1      3102-4.32520E+02-4.47694E+05-4.17679E+00 1.24288E+04-2.06538E+02 3.76388E+02
 -1      3103-5.66387E+02-3.68445E+05-2.67724E+02 3.05399E+04-8.13356E+01 1.59207E+02
 -1      3104-6.65620E+02-3.56858E+05-1.26373E+02 1.77892E+04 1.78289E+02 1.08888E+02
 -1      3105 1.43300E+02-3.78022E+05-1.31136E+01 1.82328E+04 7.62506E+01-9.08717E+01
 -1      3106-4.68267E+02-3.39055E+05 9.08631E+01 2.87481E+04-1.57983E+02 4.02776E+02
 -1      3107-5.69783E+02-3.17264E+05-1.26398E+01 1.71746E+04-2.71087E+01 4.22744E+01
 -1      3108-3.69315E+02-3.37376E+05-7.95014E+01 1.73465E+04-7.24182E+01 5.62112E+01
 -1      3109-9.73430E+02-2.75892E+05 5.68801E+02 3.32033E+04 1.92611E+01 1.16528E+02
 -1      3110-2.93516E+02-3.07576E+05-2.38612E+01 1.05623E+04-1.34682E+02-1.68908E+02
 -1      3111-9.68635E+01-3.27435E+05 1.25246E+00 1.06223E+04-1.68820E+02 2.79708E+02
 -1      3112-4.85084E+02-2.70740E+05 4.20261E+01 2.62851E+04-2.03839E+02-5.04628E+00
 -1      3113-5.93861E+02-2.54274E+05-1.40018E+02 1.51645E+04 1.21151E+02 9.90608E+01
 -1      3114 6.49086E+01-2.72151E+05-9.15569E+01 1.55497E+04 4.12321E+01-6.81225E+01
 -1      3115 2.20413E+02-2.44978E+05-1.26367E+02 2.48218E+04-2.55434E+02 2.66086E+02
 -1      3116-5.44805E+02-2.20964E+05-6.60960E+01 1.43324E+04-5.26432E+01 1.29464E+02
 -1      3117-2.90792E+02-2.37571E+05-1.12940E+02 1.45422E+04-3.93574E+01 2.92840E+01
 -1      3118-6.10503E+02-1.95513E+05 1.56303E+02 2.80913E+04 2.48667E+01 1.34272E+02
 -1      3119-2.78841E+02-2.09611E+05-1.63269E+02 8.63847E+03-2.27951E+02-8.16557E+00
 -1      3120-3.52576E+01-2.26209E+05-3.76380E+01 8.74645E+03-1.80194E+02 1.07967E+02
 -1      3121-6.32752E+02-1.87616E+05-1.61309E+02 2.16952E+04-7.83878E+01-5.42787E+01
 -1      3122-3.35264E+02-1.68846E+05-1.94991E+02 1.26025E+04 1.06475E+02-5.51063E+01
 -1      3123-2.49793E+02-1.83867E+05-2.82642E+02 1.26162E+04 4.99633E+01 1.34507E+02
 -1      3124-1.33134E+02-1.66447E+05 1.84701E+02 2.01359E+04 6.08592E+01-3.15545E+01
 -1      3125-2.09136E+02-1.41466E+05 1.68526E+02 1.14142E+04-3.11266E+01-1.31238E+02
 -1      3126-2.01582E+02-1.55600E+05 1.43444E+02 1.17893E+04 1.05210E+01 1.33809E+01
 -1      3127-5.64568E+02-1.29381E+05 7.79244E+01 2.29424E+04-1.14238E+02-2.54154E+01
 -1      3128-2.84267E+02-1.30056E+05-9.01748E+01 6.75014E+03-1.15284E+02 3.71578E+01
 -1      3129 5.51029E+01-1.43158E+05 6.54602E+01 6.84352E+03-1.16642E+02-2.48028E+01
 -1      3130-4.99218E+02-1.20173E+05-1.73302E+02 1.73944E+04 8.11884E+00 4.56825E+01
 -1      3131-4.03347E+02-1.00933E+05-6.86187E+01 9.65851E+03-5.68019E+00-1.94826E+01
 -1      3132-1.78804E+02-1.12422E+05-9.54348E+01 9.91027E+03 7.76988E+00-3.23827E+01
 -1      3133-5.29492E+02-1.03230E+05 2.88804E+02 1.55973E+04 1.42400E+01 5.27985E+01
 -1      3134-3.77147E+02-8.00547E+04-7.27302E+01 8.91480E+03 2.04398E+00 5.77999E+01
 -1      3135-2.27606E+02-9.04852E+04-1.66452E+02 9.16201E+03 3.24355E+01 5.41053E+00
 -1      3136-5.04999E+02-7.62500E+04 2.67490E+02 1.76623E+04 2.99470E+01-2.31468E+02
 -1      3137-6.10472E+01-6.86122E+04-1.05069E+02 5.67860E+03-8.21913E+01-1.03436E+02
 -1      3138-3.36731E+01-7.82009E+04-7.00106E+01 5.76128E+03-8.10286E+00 6.99521E+01
 -1      3139-6.84973E+02-6.59711E+04 3.90025E+01 1.39327E+04-4.63765E+01-1.89945E+02
 -1      3140-3.55631E+02-5.01544E+04-1.10024E+01 7.10919E+03-3.84152E+01-3.67528E+01
 -1      3141-2.06230E+02-5.81160E+04-6.79031E+01 7.41783E+03-3.88270E+00 3.37266E+01
 -1      3142-3.57813E+02-5.35551E+04 1.33984E+02 1.23900E+04-7.69648E+01-3.82441E+01
 -1      3143-2.17141E+02-3.62046E+04-2.28492E+01 5.85028E+03 5.38679E+01-1.96158E+01
 -1      3144-4.67139E+01-4.31371E+04-2.60041E+01 6.06603E+03 1.12407E+02-4.31245E+01
 -1      3145-6.55178E+02-3.78132E+04-5.81708E+01 1.25468E+04 1.87020E+01-5.29724E+01
 -1      3146-2.29140E+02-2.77161E+04-3.08617E+01 3.09548E+03-4.30478E+01-2.76560E+01
 -1      3147-4.53505E+01-3.38735E+04 2.03705E+01 3.17516E+03-8.85591E+00 1.72466E+01
 -1      3148-4.39558E+02-3.02729E+04-5.93468E+01 8.57886E+03 2.26732E+01-5.40363E+01
 -1      3149-2.98125E+02-1.73756E+04-2.73969E+01 4.11171E+03-9.31937E+00-6.28362E+01
 -1      3150-1.60686E+02-2.20378E+04-4.72425E+01 4.38030E+03 1.50565E+01 2.86268E+01
 -1      3151-4.83636E+02-2.21074E+04 4.81953E+01 7.04621E+03-5.92368E+01 6.89814E+01
 -1      3152-3.22097E+02-9.50567E+03-5.35578E+01 3.00276E+03 4.84927E+01 4.05755E+01
 -1      3153-1.58487E+02-1.31299E+04-4.16013E+01 3.25550E+03 9.14633E+01-2.13344E+01
 -1      3154-6.23362E+02-1.28423E+04 7.64460E+01 7.09876E+03-1.66249E+01-6.49764E+01
 -1      3155-1.58661E+02-4.94643E+03-5.67966E+01 1.42793E+03-1.97487E+01-4.17098E+00
 -1      3156-1.74478E+02-7.59513E+03-6.55159E+01 1.52410E+03-5.01868E+00 4.13377E+01
 -1      3157-5.57357E+02-7.76971E+03-4.86474E+01 4.27185E+03 1.22297E+01 9.68876E+00
 -1      3158-2.37056E+02-1.82051E+03-4.44568E+01 1.15499E+03 4.90992E+00 5.87514E+00
 -1      3159-2.43030E+02-3.28107E+03-4.40712E+01 1.45603E+03 1.27738E+01 6.83275E+00
 -1      3160-3.87758E+02-4.14780E+03 8.32387E+00 2.81608E+03-3.67694E+01 2.47315E+01
 -1      3161-3.86399E+02-1.59019E+03 3.55020E+01 1.52281E+03 7.30081E+00-1.65928E+01
 -1      3162-1.96877E+05-1.38146E+06 1.10096E+04 4.87298E+05 1.13030E+04-1.00276E+04
 -1      3163-2.26029E+05-1.16952E+06 2.88933E+03 4.85822E+05 3.18671E+04-1.85992E+04
 -1      3164-1.54492E+05-1.28100E+06-1.56827E+04 3.78722E+05 5.15474E+04 1.70530E+04
 -1      3165-1.14698E+05-1.70564E+06 2.37837E+03 3.42154E+05 6.90492E+03 3.46831E+03
 -1      3166-1.65029E+05-1.45768E+06 8.98356E+03 3.65786E+05 1.70882E+03 5.26359E+03
 -1      3167-1.49619E+05-1.38158E+06-1.43763E+03 2.69083E+05 4.71022E+03 4.75127E+03
 -1      3168-9.60349E+04-2.07567E+06 1.31382E+04 2.30220E+05 9.88018E+03-6.80235E+02
 -1      3169-1.25894E+05-1.88581E+06 7.43799E+03 3.14601E+05 4.24080E+02-4.95498E+03
 -1      3170-1.12051E+05-1.33017E+06-2.46499E+04 1.08002E+05 4.17642E+04-4.27020E+03
 -1      3171-1.16870E+05-1.66999E+06-6.12757E+01 2.34039E+05-7.16247E+03-1.52049E+03
 -1      3172-1.13276E+05-1.42553E+06-6.89459E+03 6.74534E+04 7.63365E+03 1.24823E+04
 -1      3173-1.29749E+05-1.55345E+06-4.53409E+03 9.90534E+04 4.48043E+02-9.17401E+02
 -1      3174-1.09532E+05-1.98509E+06 6.86625E+02 1.71904E+05-4.50095E+03-2.58405E+03
 -1      3175-1.15809E+05-1.61256E+06 6.08427E+03 8.82779E+04-2.13457E+03 5.44350E+03
 -1      3176 3.34373E+01 2.15033E+02-2.84995E+00 4.41573E+01 1.05488E+01-3.28618E-01
 -1      3177 1.39752E+01 3.30987E+02-6.12626E-01 9.40749E+00 2.38319E+01 1.93599E+00
 -1      3178-1.51267E+01 6.38893E+01 2.17105E+01-7.87288E+01-8.42536E+00-8.43431E+00
 -1      3179-6.92173E+00 2.63509E+02-8.34610E+00-5.68496E+01 1.46653E+01-7.54575E+00
 -1      3180 3.62557E+01 1.64479E+02-3.50163E-01-7.05057E+01 8.44915E+00-1.54064E+01
 -1      3181 5.73819E+01 1.50266E+02 7.68096E+00-4.06160E+00 1.62443E+01-1.29971E+01
 -1      3182-1.73174E+05-1.36026E+06-2.23173E+04 2.66132E+05 7.89407E+04 3.58025E+03
 -1      3183-1.79181E+05-1.25040E+06-1.11096E+05 5.76331E+04 1.43138E+05 1.15407E+03
 -1      3184-1.51208E+05-1.34277E+06-8.57482E+04 1.69845E+05 1.47092E+05-1.11428E+04
 -1      3185-9.60517E+04-5.32365E+05-4.73694E+04-1.43723E+05 5.50440E+04 2.36437E+04
 -1      3186-1.34725E+05-8.57359E+05-9.98077E+04-9.75271E+04 1.08008E+05 2.45409E+03
 -1      3187-7.36556E+04-9.27255E+05-4.96575E+03-5.07899E+04 2.58301E+04 5.01849E+03
 -1      3188-1.32247E+05-1.07849E+06-5.63700E+04-3.02304E+04 1.07941E+05 1.36831E+04
 -1      3189 3.05264E+04 1.84846E+05 3.44102E+04-1.62483E+05-1.92132E+04 1.57958E+04
 -1      3190-6.10228E+04-1.99885E+05-2.74039E+04-1.51165E+05 3.81292E+04 2.76047E+04
 -1      3191-3.06545E+04-3.05157E+05-4.71257E+03-1.07335E+05 1.29099E+04 3.53810E+03
 -1      3192 1.39272E+05 8.69625E+05 9.57735E+04-6.80162E+04-1.22959E+05 2.26973E+03
 -1      3193 4.11526E+04 4.85755E+05 3.43192E+04-1.51247E+05-5.78891E+04 9.55118E+03
 -1      3194 1.47573E+04 3.19720E+05 4.15523E+03-1.06542E+05-1.73334E+04 4.80435E+03
 -1      3195 1.87113E+05 1.39696E+06 1.36686E+05 2.09220E+05-1.91303E+05-1.66886E+04
 -1      3196 1.61620E+05 1.20506E+06 1.11461E+05 7.97721E+04-1.67471E+05-6.80446E+03
 -1      3197 6.34628E+04 9.35000E+05 5.22473E+03-1.16871E+04-2.39924E+04 2.85189E+03
 -1      3198 1.26720E+05 1.09689E+06 6.04485E+04 6.18191E+03-1.20997E+05-7.83110E+02
 -1      3199 1.14543E+05 1.35159E+06 3.66423E+04 1.66218E+05-4.65136E+04-3.27307E+03
 -1      3200 2.63117E+05 1.41299E+06 1.90945E+05 3.91816E+05-2.16643E+05-7.25619E+04
 -1      3201 2.72510E+05 1.50411E+06 2.46936E+05 2.66531E+05-2.46378E+05-4.02773E+04
 -1      3202 1.57449E+05 1.33916E+06 1.08076E+04 2.91317E+05-8.33729E+04 3.28699E+03
 -1      3203 2.94041E+05 1.13210E+06 8.67801E+03 5.36729E+05-5.58693E+04-2.68691E+04
 -1      3204 2.83578E+05 1.25043E+06 8.70842E+04 4.80074E+05-1.27224E+05-4.20093E+04
 -1      3205 2.30831E+05 1.28296E+06 3.68577E+04 4.15255E+05-9.31660E+04-1.29365E+04
 -1      3206 3.34799E+01-1.78414E+01 1.38300E+01-1.45184E+02-1.87521E+00-2.17745E+01
 -1      3207 9.08916E+01 1.28466E+02 4.79852E+01-7.30238E+01 4.47734E+01-2.52190E+01
 -1      3208-7.36934E+02-5.16691E+01 1.53524E+01 2.58933E+02-1.84900E+01 3.02297E+00
 -1      3209-5.69074E+02-1.98626E+02-2.42876E+01 1.42961E+02-2.74396E+01 1.22186E+01
 -1      3210-2.61817E+02-2.42736E+02 2.17450E+01 1.94799E+02-3.64156E+01 2.59960E+00
 -1      3211-8.06157E+01-1.30347E+02-2.21285E+01-8.48032E+01-5.46073E+00-7.93350E+00
 -1      3212-2.21791E+02-2.28643E+02 1.12406E+01 7.68040E+01-1.38913E+01-9.67552E-01
 -1      3213-9.08307E+02-3.39478E+02-3.52292E+01 5.24795E+02 2.39123E+00-5.78102E+00
 -1      3214-1.67885E+03 2.44670E+02 2.03787E+01 3.27091E+02 6.62253E+00 2.18228E+00
 -1      3215-1.46075E+03 1.15695E+02-1.37415E+01 3.00375E+02 4.97391E+00 3.98007E+01
 -1      3216-1.91254E+03 1.32234E+02 1.19821E+01 6.59619E+02-8.68148E-01-9.56754E+00
 -1      3217-1.34771E+03-2.05789E+02 3.95854E+01-1.26972E+02-5.09758E+01-7.40052E+01
 -1      3218-1.82023E+03 1.39396E+02 6.78705E+00-3.62207E+01-4.84004E+01-4.10942E+01
 -1      3219-2.86106E+03 3.70270E+02-8.24538E-01 3.83783E+02-7.67373E+00-9.10899E+00
 -1      3220 1.80157E+02 1.62514E+02 1.26006E+02 3.19776E+02 1.19813E+02 9.39303E+01
 -1      3221-1.80326E+02-3.97368E+02-9.32887E+01 2.40123E+02-5.37710E+01-2.60638E+00
 -1      3222-3.84544E+02-4.93918E+02 1.67219E+02-2.82844E+02-2.16943E+02 8.09391E+00
 -1      3223-7.25542E+02-6.26769E+02 5.52895E+01-3.38759E+02-9.03245E+01 8.02754E+00
 -1      3224-2.93129E+03-2.75715E+02-1.10800E+02-7.27005E+02-8.40395E+01 2.91103E+01
 -1      3225 4.50511E+01 2.30317E+02-2.01965E+01 5.63315E+01 5.65390E+01-2.54827E+00
 -1      3226 7.83351E+01 2.25241E+02 7.88767E-01 2.01480E+02 2.99340E+01 5.68825E+01
 -1      3227 1.21234E+02 1.71642E+02-1.97055E+01 3.52947E+02 6.48893E+01 4.94959E+01
 -1      3228 1.74366E+01 9.52055E+02 1.29861E+01 2.00408E+02 1.18653E+02-3.09099E+01
 -1      3229 1.27326E+00 3.05832E+02-1.43653E+02 3.48251E+02 9.82799E+01 6.71423E+01
 -1      3230-9.80825E+03 2.03872E+03 5.49732E+01 1.67248E+03-2.35659E+01 1.44102E+00
 -1      3231-9.64236E+03 9.33122E+01 1.53065E+02 1.45956E+03 6.99242E+01 5.85429E+01
 -1      3232-9.46184E+03 1.34547E+03-6.65463E+01 1.44600E+03 2.22254E+01-8.27916E+01
 -1      3233-9.89944E+03 6.44701E+03 4.75215E+01 2.07957E+03-1.02468E+00 1.91324E+01
 -1      3234-9.87925E+03 3.37412E+03 4.43962E+01 1.92666E+03 3.48585E+01-1.91858E+01
 -1      3235-9.63263E+03 3.14598E+03-9.76732E+01 3.22627E+03-6.11073E+01-7.66534E+01
 -1      3236-9.95510E+03 1.45848E+04 6.96095E+01 3.00741E+03-9.97266E+01 1.62947E+01
 -1      3237-9.77963E+03 1.06208E+04 6.33658E+01 2.87914E+03 6.59210E+00-3.90040E+01
 -1      3238-9.40275E+03 9.09154E+03-4.14921E+01 6.14218E+03-4.53574E+01-6.42362E+01
 -1      3239-9.70186E+03 7.72292E+03-2.62222E+01 3.57853E+03-6.82907E+01 3.02598E+01
 -1      3240-9.26825E+03 5.96760E+03 2.11612E+01 5.10871E+03-6.84148E+01-9.53340E+01
 -1      3241-9.79927E+03 2.25364E+04 5.80073E+01 4.45593E+03 8.31602E+00 3.26783E+01
 -1      3242-9.71077E+03 1.75425E+04 5.30831E+01 4.17604E+03 2.47556E+01-4.69903E+01
 -1      3243-9.48340E+03 1.45802E+04 8.37300E+01 6.96510E+03-4.06467E+01-7.81431E+01
 -1      3244-9.86944E+03 3.44599E+04 5.72810E+01 3.60046E+03 8.43049E+01 2.98194E+01
 -1      3245-9.82178E+03 2.81141E+04 9.95587E+01 3.47313E+03 1.26333E+02-8.10307E+00
 -1      3246-9.59221E+03 2.22886E+04-4.77678E+01 7.43675E+03-4.02510E+01-7.61196E+01
 -1      3247-9.81698E+03 4.41388E+04 1.02220E+02 6.20415E+03-3.79814E+01-1.37162E+01
 -1      3248-9.65241E+03 3.69585E+04 9.94542E+01 5.95028E+03 1.29260E+01 9.42156E+01
 -1      3249-9.52339E+03 3.02673E+04-6.65478E+01 9.03448E+03-3.08113E+01 2.89045E+01
 -1      3250-9.91094E+03 5.93494E+04 5.42769E+01 7.38587E+03-5.37497E+01-5.85501E+01
 -1      3251-9.58312E+03 5.11838E+04 7.80400E+01 7.08370E+03 1.46235E+00 1.02193E+00
 -1      3252-9.29402E+03 3.83549E+04-1.41271E+02 1.25429E+04-3.44165E+01-1.84207E+02
 -1      3253-9.99360E+03 7.95325E+04 1.97795E+01 5.78861E+03 8.01060E+01 4.13210E+01
 -1      3254-9.82441E+03 6.99295E+04 1.59902E+01 5.67676E+03 6.87871E+01-8.16298E+01
 -1      3255-9.61792E+03 5.45961E+04 5.06234E+01 1.24130E+04-4.69118E+01-8.30562E+01
 -1      3256-9.65607E+03 9.19726E+04 4.16985E+01 9.33017E+03 3.84718E+01 3.91319E+01
 -1      3257-9.64463E+03 8.14064E+04 1.36161E+01 9.10231E+03 1.85151E+01-2.61761E+01
 -1      3258-9.43956E+03 6.69175E+04 1.79116E+02 1.40446E+04 2.34110E+01 1.55250E+02
 -1      3259-9.87436E+03 1.14038E+05 1.13919E+02 1.02769E+04-5.66944E+01-6.58225E+00
 -1      3260-9.46903E+03 1.02437E+05 8.21504E+01 9.90454E+03-8.90178E+01 6.34897E+01
 -1      3261-9.31642E+03 7.69847E+04-9.96362E+01 1.81808E+04-3.24750E+01 6.98468E+01
 -1      3262-9.89216E+03 1.45062E+05 5.86588E+01 7.49244E+03-7.48914E+00 1.40150E+02
 -1      3263-9.83827E+03 1.31656E+05 5.21662E+01 7.43271E+03 4.46845E+01-1.21777E+02
 -1      3264-1.01666E+04 1.02944E+05-1.58214E+02 1.69262E+04 8.11534E+01 2.36145E+02
 -1      3265-9.89308E+03 1.57849E+05 1.61653E+02 1.21959E+04-7.62513E+01-1.28295E+01
 -1      3266-9.60805E+03 1.43985E+05 4.30208E+01 1.19102E+04 2.36283E+00 2.75120E+01
 -1      3267-9.11715E+03 1.20425E+05-7.65355E+01 1.84144E+04 1.16829E+02-2.30156E+02
 -1      3268-1.01017E+04 1.86659E+05 4.23534E+01 1.30583E+04-7.22058E+01-7.33651E+01
 -1      3269-9.57152E+03 1.71850E+05 7.65088E+01 1.27574E+04-1.15255E+01-5.02550E+01
 -1      3270-9.15403E+03 1.30541E+05-2.58467E+02 2.35456E+04 3.68782E+00-3.95475E+02
 -1      3271-9.84835E+03 2.28438E+05 1.65823E+01 9.38103E+03 1.52209E+02 1.62390E+02
 -1      3272-9.54147E+03 2.11774E+05 1.38438E+00 9.22779E+03 6.91987E+01-4.05655E+01
 -1      3273-9.50276E+03 1.67342E+05-2.70678E+02 2.10562E+04 9.29480E+01 2.23301E+02
 -1      3274-9.95126E+03 2.41060E+05 1.37569E+02 1.50235E+04-6.93194E+01 3.36051E+01
 -1      3275-9.80392E+03 2.23782E+05 4.10090E+01 1.48296E+04-8.81421E+01-3.93209E+01
 -1      3276-9.59180E+03 1.87882E+05 5.28249E+02 2.27550E+04 7.42932E+01 2.17467E+02
 -1      3277-9.64995E+03 2.76777E+05 1.50559E+02 1.58934E+04-1.03894E+01-7.40649E+00
 -1      3278-9.37747E+03 2.58214E+05 4.45543E+01 1.55832E+04-1.62904E+01-1.46882E+01
 -1      3279-9.69059E+03 1.96788E+05-4.74270E+02 2.88645E+04-2.74108E+01-3.95241E+02
 -1      3280-9.74549E+03 3.31502E+05 1.31277E+02 1.14061E+04 2.46657E+02 1.55777E+02
 -1      3281-9.52619E+03 3.11310E+05 2.16853E+02 1.11227E+04 2.15847E+02 1.01542E+02
 -1      3282-9.30539E+03 2.46173E+05-4.36640E+02 2.54062E+04-7.65896E+01 1.51965E+02
 -1      3283-9.62587E+03 3.41671E+05 1.46198E+02 1.79794E+04 5.26345E+01 4.48649E+01
 -1      3284-9.33993E+03 3.21410E+05 4.95948E+01 1.77661E+04 2.50592E+01 1.79544E+02
 -1      3285-9.36740E+03 2.70708E+05 3.03593E+02 2.74211E+04 2.56981E+01 1.21891E+02
 -1      3286-9.85360E+03 3.85494E+05 9.65414E+01 1.85722E+04-3.80187E+01-7.16315E+01
 -1      3287-9.30960E+03 3.63873E+05 1.96342E+02 1.83005E+04-8.80933E+01 1.20921E+02
 -1      3288-9.34910E+03 2.78586E+05-2.30872E+02 3.41848E+04-6.04481E+01 1.73190E+02
 -1      3289-1.02159E+04 4.58208E+05-7.62682E+00 1.20286E+04 3.00552E+02 8.59016E+01
 -1      3290-9.55623E+03 4.34329E+05 1.61404E+02 1.19879E+04 2.55299E+02 4.77109E+01
 -1      3291-1.00641E+04 3.46965E+05-7.61179E+01 2.89207E+04 6.73686E+01 3.81730E+01
 -1      3292-1.00748E+04 4.61848E+05 1.77924E+02 2.05259E+04-6.10899E+01 5.07675E+01
 -1      3293-9.72356E+03 4.38032E+05 9.26447E+01 2.03149E+04-1.25367E+02-7.75264E+01
 -1      3294-9.55308E+03 3.75941E+05 6.56009E+02 3.02874E+04 1.24794E+02 2.53475E+02
 -1      3295-9.78417E+03 5.10854E+05 1.83704E+02 2.12674E+04-3.65215E+01 1.41939E+01
 -1      3296-9.24400E+03 4.85720E+05 6.44496E+01 2.09618E+04-7.98194E+01-1.94319E+01
 -1      3297-9.82196E+03 3.75022E+05-5.64305E+02 3.92507E+04-2.31309E+01-5.19077E+02
 -1      3298-9.74318E+03 6.00572E+05 7.22201E+01 1.39624E+04 2.87922E+02 2.82527E+02
 -1      3299-9.40354E+03 5.73213E+05 2.55078E+02 1.37452E+04 1.97315E+02 8.70745E+01
 -1      3300-9.18245E+03 4.57999E+05-3.27388E+02 3.28837E+04-1.69708E+02 2.26173E+02
 -1      3301-9.93202E+03 6.20550E+05 5.20522E+01 1.92891E+04 1.36218E+02 7.17980E+01
 -1      3302-9.64818E+03 5.92914E+05-2.25383E+01 1.94526E+04 1.03513E+02 1.00343E+02
 -1      3303-9.40129E+03 5.12988E+05 3.75643E+02 3.18031E+04 8.12235E+00 9.19759E+00
 -1      3304-1.03681E+04 6.52685E+05-7.73727E+01 2.41289E+04-1.63814E+02-2.72771E+02
 -1      3305-8.99601E+03 6.24999E+05 1.54354E+02 2.37273E+04-3.28424E+02 2.36425E+02
 -1      3306-8.66572E+03 5.07384E+05 2.20427E+02 4.11524E+04 6.65463E+01 8.06828E+01
 -1      3307-1.04129E+04 7.61028E+05 4.35268E+00 1.57304E+04 1.69184E+02 1.34378E+02
 -1      3308-1.02070E+04 7.30291E+05 1.55424E+02 1.59376E+04 1.93355E+02-4.65793E+02
 -1      3309-9.93370E+03 5.83244E+05-3.12206E+02 3.77860E+04 4.90199E+01-1.73539E+02
 -1      3310-1.00526E+04 7.79361E+05 3.30735E+02 2.20159E+04 6.53190E+01 6.42816E+01
 -1      3311-9.66418E+03 7.47965E+05 1.26469E+02 2.19724E+04 2.51900E+01 1.35275E+01
 -1      3312-9.84915E+03 6.47807E+05 5.54079E+01 3.60552E+04 1.64430E+02-4.87413E+02
 -1      3313-1.03627E+04 8.13249E+05 1.47546E+02 2.70894E+04-1.80991E+02-5.14657E+00
 -1      3314-9.23628E+03 7.81428E+05-1.13070E+00 2.68444E+04-2.34890E+02-2.47730E+01
 -1      3315-9.70507E+03 6.34243E+05 5.87342E+02 4.63673E+04 7.21592E+01-5.37152E+02
 -1      3316-9.96731E+03 9.40142E+05 8.59744E+01 1.77910E+04 2.00071E+02 3.22857E+02
 -1      3317-9.70675E+03 9.05783E+05 2.63445E+01 1.78321E+04 1.10151E+02-2.89954E+02
 -1      3318-1.08912E+04 7.23396E+05 3.13988E+02 4.27546E+04 2.21151E+02 6.03274E+02
 -1      3319-9.85730E+03 9.56242E+05 1.15488E+02 2.45595E+04 2.11302E+02 1.80031E+02
 -1      3320-9.52774E+03 9.21806E+05-2.30800E+02 2.46855E+04 1.72319E+02-5.44968E+01
 -1      3321-8.35152E+03 7.99086E+05 1.62133E+02 4.06808E+04 1.09717E+02-5.13124E+02
 -1      3322-1.01978E+04 9.91729E+05 2.43247E+01 2.97222E+04-2.07121E+02 5.75980E+01
 -1      3323-8.72001E+03 9.57250E+05 1.05652E+02 2.93992E+04-3.99237E+02 3.15278E+02
 -1      3324-9.02419E+03 7.77482E+05-1.99119E+02 5.14008E+04-2.04869E+02 3.00419E+02
 -1      3325-9.59628E+03 1.13814E+06-6.66706E+01 1.97573E+04 1.81577E+02 4.96482E+02
 -1      3326-9.31827E+03 1.10030E+06-2.79514E+01 1.97826E+04 1.92293E+02-2.56094E+02
 -1      3327-1.10978E+04 8.78894E+05-6.38988E+02 4.75457E+04 8.74550E+01 8.82907E+02
 -1      3328-1.03392E+04 1.15242E+06 2.86588E+02 2.65362E+04-5.96232E+00-9.60876E+00
 -1      3329-9.80696E+03 1.11440E+06 8.41688E+01 2.65178E+04-7.72296E+01 5.51863E+01
 -1      3330-9.08323E+03 9.65168E+05-2.06764E+00 4.41397E+04 1.13634E+02-1.40347E+02
 -1      3331-1.04492E+04 1.18581E+06 9.82869E+01 3.24984E+04-2.15092E+02 3.48996E+01
 -1      3332-9.02143E+03 1.14750E+06 2.13895E+00 3.22943E+04-3.35118E+02 7.30133E+00
 -1      3333-9.88928E+03 9.33582E+05 1.32232E+02 5.60602E+04 6.00593E+01-8.19521E+02
 -1      3334-9.59405E+03 1.35055E+06 5.16195E+01 2.24307E+04 1.75606E+02 4.64060E+02
 -1      3335-9.27156E+03 1.30937E+06 1.28338E+02 2.21649E+04-1.89651E+00-2.21341E+02
 -1      3336-9.23618E+03 1.04538E+06 2.34608E+02 5.15638E+04 1.67375E+02 9.21921E+02
 -1      3337-9.92092E+03 1.37419E+06 9.32943E+01 2.80811E+04 2.46985E+02 2.82423E+02
 -1      3338-9.65457E+03 1.33324E+06-3.36412E+02 2.82886E+04 1.92093E+02-1.32289E+02
 -1      3339-8.25008E+03 1.15254E+06 1.02302E+02 4.85041E+04 2.69186E+02-5.32720E+02
 -1      3340-1.08678E+04 1.43582E+06-4.07179E+02 3.00087E+04 1.28290E+02 9.66698E+01
 -1      3341-9.54796E+03 1.39427E+06-3.36778E+02 2.95027E+04-4.31396E+02-2.00021E+02
 -1      3342-9.52876E+03 1.15267E+06-1.26655E+02 5.49578E+04 2.25816E+02 3.19572E+02
 -1      3343-9.69312E+03 1.46954E+06 4.36141E+02 3.71654E+04-4.96832E+02 3.44230E+02
 -1      3344-9.01658E+03 1.42675E+06-7.78838E+01 3.72229E+04-2.47081E+02-1.95795E+02
 -1      3345-1.06430E+04 9.88043E+05-3.48028E+02 8.05010E+04 2.36471E+02 9.59390E+02
 -1      3346-9.22927E+03 1.27572E+06 4.78100E+02 4.86477E+04-7.01617E+02 6.64009E+01
 -1      3347-8.66558E+03 1.00954E+06 1.02433E+03 7.14761E+04 1.47095E+02-1.65761E+02
 -1      3348-1.00137E+04 1.57414E+06-9.06016E+01 3.46776E+04-3.47133E+02-1.10889E+02
 -1      3349-9.66686E+03 1.52944E+06-2.62230E+02 3.44867E+04-1.02264E+02-1.01865E+02
 -1      3350-8.97008E+03 1.19761E+06-6.50323E+01 6.79835E+04 4.82364E+02 5.51098E+02
 -1      3351-9.28072E+03 1.59059E+06 3.71849E+02 4.20411E+04 2.99251E+02 1.97599E+02
 -1      3352-1.02730E+04 1.54506E+06-2.97291E+02 4.18211E+04 2.79080E+02-3.08087E+02
 -1      3353-9.37190E+03 1.22796E+06-1.81621E+02 7.27630E+04 2.80935E+02-3.21466E+02
 -1      3354-9.65602E+03 1.71158E+06 4.18966E+02 3.80440E+04-1.68773E+02 5.89817E+01
 -1      3355-9.39474E+03 1.66495E+06 1.12380E+02 3.75518E+04-4.81786E+02 1.55615E+02
 -1      3356-9.38307E+03 1.26759E+06-1.05065E+03 7.54461E+04 2.25540E+02 7.54102E+01
 -1      3357-1.06645E+04 1.79628E+06 1.40135E+02 3.96817E+04-2.85857E+02 2.41955E+02
 -1      3358-9.82398E+03 1.74731E+06-2.54007E+02 3.84630E+04-3.38122E+02-4.37017E+02
 -1      3359-9.74998E+03 1.37595E+06-6.31313E+02 7.33697E+04 9.90885E+01-4.90677E+02
 -1      3360-6.56896E+03 1.95723E+06 3.19286E+03 4.70536E+04-1.64319E+03-6.28427E+01
 -1      3361-5.43296E+03 1.89929E+06 1.72248E+03 4.48226E+04-6.96363E+01-8.89574E+02
 -1      3362-3.52054E+03 1.24158E+06 1.58717E+03 9.31158E+04-1.69664E+02-1.37440E+03
 -1      3363-7.23827E+03 1.62458E+06-2.92067E+02 6.02488E+04-1.04593E+03 3.52635E+02
 -1      3364-3.54947E+03 1.31801E+06-1.60317E+03 9.84687E+04 2.87255E+02-1.35458E+03
 -1      3365 1.48405E+04 1.59093E+06-2.57423E+03 1.08061E+05 1.10641E+03 9.34874E+02
 -1      3366 1.22299E+05 1.97262E+06-1.19901E+04 2.99495E+05 5.44551E+02-5.25061E+02
 -1      3367 1.09629E+05 2.06880E+06-2.74307E+03 2.08604E+05-1.71735E+03 1.70014E+03
 -1      3368 1.52914E+05 1.75236E+06 6.35670E+03 1.43196E+05-2.16226E+03-5.06533E+02
 -1      3369 1.70822E+05 1.80790E+06-5.54145E+03 4.03687E+05-3.22206E+03-2.44422E+03
 -1      3370 1.38087E+05 2.02066E+06-8.11428E+03 3.58639E+05-6.07458E+03-2.46760E+03
 -1      3371 1.60918E+05 1.62089E+06 2.24491E+03 1.57143E+05 4.87445E+03 1.84989E+03
 -1      3372 2.10359E+05 1.38539E+06 2.42289E+03 4.36277E+05-1.79573E+04 2.37437E+03
 -1      3373 1.56009E+05 1.61184E+06-2.54163E+03 4.29938E+05-9.29583E+03 4.99368E+03
 -1      3374 1.44929E+05 1.60971E+06 1.22979E+03 3.10555E+05 4.44261E+03-3.61398E+02
 -1      3375 1.08454E+05 1.42560E+06 3.72012E+03 1.19775E+05-1.01038E+04 1.23825E+04
 -1      3376 2.66420E+05 1.32282E+06 5.54833E+03 5.63592E+05-4.28008E+04-1.41686E+04
 -1      3377 2.00981E+05 1.36819E+06 1.51279E+04 3.71440E+05-4.61426E+04 7.37116E+02
 -1      3378 4.77039E+04 3.48130E+05-3.17227E+02-9.88552E+03-9.70371E+02 6.46054E+02
 -1      3379 1.88295E+04 2.98722E+04 2.09993E+03-2.17581E+03-2.80541E+02 6.82926E+02
 -1      3380 5.22602E+04 3.49015E+05-1.03065E+03 3.45583E+04 5.84144E+02 3.49913E+02
 -1      3381-1.94126E+04-2.46736E+05 2.09037E+03-1.88010E+04 3.08731E+02 6.19375E+02
 -1      3382-7.94098E+03-2.48920E+05 2.56701E+03 2.50406E+04-1.33363E+02-7.62072E+01
 -1      3383-2.63408E+02-3.60128E+05 1.64336E+03 9.08845E+04-3.30770E+02 4.95776E+02
 -1      3384 1.90430E+04-1.77436E+04 8.20510E+02 7.86823E+04-1.50015E+02 2.52743E+02
 -1      3385-4.99289E+03-3.22419E+05-7.21930E+02 6.05661E+04-2.39988E+02 6.53444E+02
 -1      3386 3.48628E+04 2.50732E+05-1.67998E+03 1.00682E+05 3.26660E+02-6.59511E+02
 -1      3387 4.46095E+04 2.94782E+05 1.64797E+03 7.07698E+04-5.14189E+02-4.26520E+02
 -1      3388 7.15176E+04 6.26823E+05 3.45822E+01 6.56925E+04-1.00241E+03 9.97701E+02
 -1      3389-3.62130E+04-5.97824E+05-1.33713E+03 4.38599E+04-1.12117E+03 1.07747E+03
 -1      3390 6.43517E+03 6.55063E+05 1.14671E+03 1.19344E+05 2.08899E+01-1.37980E+02
 -1      3391 8.11609E+03 1.10481E+05-2.83023E+02 1.29331E+05-5.24828E+02 5.80165E+02
 -1      3392 2.51453E+03 5.18114E+05 2.25504E+02 1.23484E+05 5.59335E+02 3.16656E+02
 -1      3393-2.84092E+03 8.05190E+05-7.42355E+02 1.15284E+05 6.40271E+02-2.88132E+02
 -1      3394 8.30114E+02 2.70471E+05-6.52353E+01 1.27186E+05-1.20011E+02-3.08756E+02
 -1      3395-1.44845E+03-2.75415E+05 4.24842E+02 1.23171E+05-3.08038E+02-5.74755E+01
 -1      3396 3.84624E+02 7.69137E+03 7.35170E+01 1.30719E+05-4.52672E+02-2.68411E+02
 -1      3397 1.36433E+03-3.03811E+05 3.93764E+02 1.24158E+05-7.36249E+02-2.54995E+02
 -1      3398-1.95200E+03 2.98338E+05 4.08307E+02 1.23792E+05 3.52200E+01-7.44827E+01
 -1      3399 6.72021E+03-1.59888E+05-3.36567E+02 1.22913E+05-7.03853E+02 3.07666E+01
 -1      3400 4.83647E+03-2.90858E+05 2.61967E+02 1.23975E+05-1.03077E+03 8.09127E+02
 -1      3401 3.80620E+01-5.76967E+05-8.98759E+02 1.18092E+05-3.67370E+02 4.57516E+02
 -1      3402-6.54692E+03 2.04306E+03 1.30996E+01 4.98643E+03 4.32507E+01-9.65754E+00
 -1      3403-6.42331E+03 1.77302E+03-9.21260E+00 6.41958E+03 3.52607E+01-4.29139E+01
 -1      3404-4.85803E+03 5.36875E+02 6.81800E+01 5.87004E+03 2.68829E+01 1.44350E+01
 -1      3405-7.41235E+03 3.52089E+03 1.42604E+02 6.94074E+03 4.59307E+00-3.39872E+01
 -1      3406-5.86371E+03 1.80946E+03 9.49667E+01 7.96253E+03 3.21863E+01-2.39793E+01
 -1      3407-2.30959E+03-2.74801E+03 7.49277E+00 5.15435E+03-1.95376E+00 1.90885E+01
 -1      3408-3.84253E+03-9.13504E+02-1.09529E+01 6.04406E+03 3.78644E+01 2.79890E+01
 -1      3409-3.13606E+03-2.06760E+03 4.32455E+01 6.59999E+03 2.48439E+01 2.57564E+01
 -1      3410-2.41699E+03-4.40716E+03-6.05740E+01 7.09269E+03-2.99700E+01 2.77912E+01
 -1      3411-3.85058E+03-1.94049E+03 5.13162E+01 7.96017E+03 4.22972E+01-2.47398E+01
 -1      3412-3.95130E+03-3.95861E+02-3.05744E+01 4.57832E+03 1.95861E+01 1.48389E+01
 -1      3413-3.96566E+03-2.00164E+03 9.18940E+01 9.54776E+03 5.75166E+01 5.06993E+01
 -1      3414-4.76385E+03-5.34144E+01 4.07319E+01 8.90403E+03 2.50567E+01 3.25606E+01
 -1      3415-6.14208E+03 1.66749E+03 4.93834E+01 9.43448E+03-4.95548E+00-6.68461E-01
 -1      3416-2.02749E+03-1.34996E+04 1.26633E+02 1.28355E+04 5.56444E+00 9.99456E+00
 -1      3417-4.06240E+03-4.91170E+03-1.62853E+02 1.51532E+04 1.03935E+01-3.54135E+01
 -1      3418-3.03416E+03-9.64237E+03-4.06456E+01 1.50690E+04-1.75623E+02 2.81176E+00
 -1      3419-3.84531E+03-6.52061E+03-3.00728E+01 1.70469E+04 8.74722E+00 4.22749E+01
 -1      3420-2.25677E+03-1.71359E+04-3.30876E+02 1.47234E+04-1.43762E+02-2.54228E+01
 -1      3421-6.07641E+03 4.92121E+03 1.05474E+01 1.49916E+04 4.11993E+01-4.69038E+01
 -1      3422-7.83904E+03 1.30460E+04-1.17099E+02 1.32508E+04 1.26270E+01-3.26328E+01
 -1      3423-6.89129E+03 9.02749E+03 5.50133E+01 1.53250E+04 1.54310E+02-1.96241E+01
 -1      3424-7.67758E+03 1.60565E+04 1.00615E+02 1.53721E+04 4.93428E+01 6.27487E+01
 -1      3425-6.15969E+03 6.53078E+03 6.91684E+01 1.69418E+04 6.95425E+01-6.68507E+00
 -1      3426-6.03560E+03 4.95453E+03 1.34139E+02 1.32809E+04-4.85315E+01-5.36616E+01
 -1      3427-5.09279E+03 2.86392E+02 3.07527E+01 1.52229E+04-1.65295E+01-7.83574E-01
 -1      3428-4.06631E+03-4.45837E+03-7.33015E+01 1.34080E+04-5.70743E+01-1.01497E+02
 -1      3429-3.90677E+03-6.80691E+03 5.82630E+01 1.84471E+04-3.44415E+01-2.71934E+01
 -1      3430-5.03967E+03-1.10087E+01-7.73660E+00 1.83887E+04 2.58303E+01 1.54946E+01
 -1      3431-6.11451E+03 6.35912E+03-9.55551E+01 1.84702E+04-4.28613E+01 4.81356E+01
 -1      3432-7.66803E+03 2.99228E+04-2.29195E+02 2.12666E+04 1.37085E+02 3.31546E+01
 -1      3433-6.90205E+03 1.91392E+04-2.16422E+02 2.37085E+04 2.05160E+02-9.04394E+01
 -1      3434-5.97295E+03 1.14071E+04-8.51847E+01 2.38145E+04 6.79298E+01-7.01678E+01
 -1      3435-7.51873E+03 3.47854E+04 7.19994E+01 2.33044E+04 1.18147E+02-5.05672E+01
 -1      3436-6.24991E+03 1.38520E+04 3.49432E+00 2.58782E+04-8.39295E+01-1.50016E+02
 -1      3437-4.11144E+03-1.09043E+04-8.14522E+01 2.38021E+04-2.68427E+01-8.29794E+01
 -1      3438-3.13136E+03-1.86528E+04 1.72243E+02 2.36381E+04-2.18331E+02-7.50316E+01
 -1      3439-2.14608E+03-2.93468E+04 2.22428E+02 2.13013E+04-8.74087E+01-2.14285E+01
 -1      3440-4.22040E+03-1.41140E+04-2.05797E+02 2.55479E+04 7.03033E+01-1.58688E+02
 -1      3441-2.40811E+03-3.39526E+04-8.25322E+01 2.30704E+04-1.30530E+02-6.13595E+01
 -1      3442-6.00738E+03 1.15484E+04-3.32912E+00 2.21254E+04-2.18519E+01-4.66116E+01
 -1      3443-5.07184E+03 5.38014E+02-5.05105E+01 2.43642E+04 1.24643E+01-1.00670E+02
 -1      3444-4.19967E+03-1.06901E+04-1.38607E+02 2.19987E+04-9.06051E+01 2.70543E+01
 -1      3445-3.50064E+03-1.38918E+04 1.76642E+02 2.69515E+04-4.32721E+01-1.37784E+02
 -1      3446-4.79467E+03 8.89515E+01 6.69980E+01 2.72581E+04 7.13196E+01-1.61946E+02
 -1      3447-6.13104E+03 1.42577E+04-1.23886E+02 2.74059E+04-7.78132E+01 3.96075E+01
 -1      3448-5.93323E+03 2.05010E+04-1.60535E+02 3.25633E+04-1.12603E+02 1.23212E+02
 -1      3449-7.95729E+03 5.63234E+04-3.22285E+02 2.88401E+04 6.52568E+01 3.56328E+01
 -1      3450-6.79800E+03 3.66992E+04-1.62454E+02 3.17497E+04 1.85248E+02-4.84698E+01
 -1      3451-7.50933E+03 6.31209E+04 3.75978E+02 3.06769E+04 2.28692E+01-3.63047E+01
 -1      3452-6.00587E+03 2.42072E+04 2.92320E+02 3.44614E+04-3.07308E+02-1.72931E+02
 -1      3453-2.02834E+03-5.88595E+04-2.07625E+02 2.82024E+04 4.54194E+00-1.65481E+02
 -1      3454-4.03450E+03-2.14751E+04-2.92757E+02 3.24892E+04-6.13903E+01-1.10338E+02
 -1      3455-3.23339E+03-3.92749E+04-3.21970E+02 3.16774E+04 2.62150E+02 1.19517E+01
 -1      3456-2.09024E+03-6.52012E+04-2.79088E+02 2.98126E+04 1.92022E+01 1.89102E+02
 -1      3457-3.84857E+03-2.57498E+04 1.68966E+02 3.42635E+04 1.66255E+02-1.55771E+01
 -1      3458-6.22915E+03 1.94134E+04 1.65669E+01 3.09964E+04-1.29215E+02-7.67830E+01
 -1      3459-4.36531E+03-1.92683E+02 1.34738E+02 3.33182E+04-7.62626E+01-1.91595E+02
 -1      3460-4.05093E+03-2.18456E+04-8.86117E+01 3.03793E+04-6.93387E+01-2.54355E+01
 -1      3461-3.88330E+03-2.65341E+04 1.58995E+02 3.57243E+04 1.33975E+01 1.75834E+02
 -1      3462-4.96505E+03-1.00073E+03-1.49685E+00 3.63475E+04-1.41524E+02 2.29680E+02
 -1      3463-5.93964E+03 2.41605E+04 3.57484E+01 3.57718E+04-2.11916E+02 8.84395E+01
 -1      3464-6.21206E+03 3.21468E+04 6.25969E+01 4.11482E+04 6.61359E+01-4.47779E+01
 -1      3465-8.09003E+03 8.97812E+04-3.32607E+02 3.68046E+04 1.16931E+02-4.44600E+01
 -1      3466-6.44130E+03 5.83109E+04 2.26286E+02 4.05410E+04 5.24705E+02 1.52175E+02
 -1      3467-7.32226E+03 9.81957E+04 4.61814E+02 3.87786E+04 1.95149E+02 1.56297E+02
 -1      3468-5.90104E+03 3.72715E+04 1.32701E+02 4.34182E+04 1.47312E+02 3.10810E+02
 -1      3469-2.05668E+03-9.44010E+04 3.87742E+02 3.55673E+04-8.37518E+01-1.29260E+02
 -1      3470-3.66931E+03-3.48311E+04-5.41123E-01 4.06487E+04-9.95002E+01-1.00123E+02
 -1      3471-3.32198E+03-6.20814E+04-1.23776E+02 3.99210E+04-4.75618E+02 1.32257E+02
 -1      3472-2.51692E+03-1.02697E+05-3.04550E+02 3.78315E+04-6.23433E+01 1.47090E+02
 -1      3473-3.90492E+03-4.04828E+04-1.54297E+02 4.31542E+04-1.14358E+02 2.71696E+02
 -1      3474-5.95495E+03 3.16197E+04 3.72924E+02 3.97625E+04 1.36966E+02-3.52932E+01
 -1      3475-4.95737E+03-1.38538E+03 1.23723E+02 4.25426E+04 4.91081E+01 6.45400E+01
 -1      3476-4.00670E+03-3.51461E+04-5.97163E+01 3.93658E+04-2.06182E+02-6.59740E+01
 -1      3477-3.77843E+03-4.10115E+04 9.29608E+01 4.42201E+04-6.29230E+01 5.61635E+01
 -1      3478-4.95033E+03-1.49768E+03-1.49855E+01 4.57182E+04 3.31658E+01 3.71525E+02
 -1      3479-5.83446E+03 3.73877E+04-7.19873E+01 4.45915E+04 1.98930E+02 5.38806E+01
 -1      3480-6.12708E+03 4.69746E+04-2.09766E+02 5.00737E+04 1.30014E+02-1.83958E+02
 -1      3481-8.17753E+03 1.31314E+05-4.34579E+02 4.47911E+04 2.08820E+02-7.04341E+01
 -1      3482-6.92783E+03 8.34284E+04-1.04806E+02 4.89353E+04 5.79198E+02 3.51420E+00
 -1      3483-7.40519E+03 1.41253E+05 4.64479E+02 4.66446E+04 1.59093E+02 1.87632E+02
 -1      3484-5.27048E+03 5.34228E+04 2.03246E+02 5.15744E+04-1.03453E+01 1.68719E+02
 -1      3485-2.63805E+03-1.38064E+05 1.10004E+01 4.28673E+04 8.64006E+01-3.04004E+02
 -1      3486-3.73168E+03-5.21117E+04-2.37399E+02 4.98353E+04 4.05321E+02 1.39238E+02
 -1      3487-3.22327E+03-9.01156E+04-7.47549E+01 4.81494E+04 5.07845E+02-7.27414E+01
 -1      3488-1.75395E+03-1.47862E+05-1.52626E+01 4.46967E+04 2.65156E+01 1.60435E+02
 -1      3489-3.77743E+03-5.78657E+04 3.91051E+02 5.17444E+04 4.17156E+02-2.56845E+02
 -1      3490-5.76086E+03 4.72246E+04 4.49289E+02 4.79774E+04-9.44662E+01-1.63802E+02
 -1      3491-5.71003E+03-2.57164E+03-1.65765E+02 5.13704E+04 1.47523E+02-4.07263E+02
 -1      3492-4.38475E+03-5.23020E+04-5.36006E+02 4.78069E+04 2.73895E+02-1.90618E+02
 -1      3493-3.07437E+03-5.86646E+04 7.30454E+02 5.28194E+04 1.80287E+02 1.32479E+02
 -1      3494-5.20832E+03-2.81100E+03 2.96739E+00 5.45540E+04 5.12693E+01-8.26559E+01
 -1      3495-6.59794E+03 5.21218E+04-2.84207E+02 5.30950E+04 1.09625E+02-9.78924E+01
 -1      3496-1.69626E+03-1.91946E+05-9.64767E+01 5.06230E+04-1.26169E+02 5.82047E+00
 -1      3497-3.29834E+03-8.25490E+04-6.26194E+02 5.78483E+04 4.73896E+01 2.34965E+02
 -1      3498-3.13058E+03-1.34061E+05-3.27046E+01 5.59845E+04 1.65770E+02 1.20934E+02
 -1      3499-2.17489E+03-2.04913E+05-1.70649E+02 5.27899E+04-1.02406E+02 3.08009E+02
 -1      3500-3.58844E+03-9.13439E+04 3.32037E+02 5.99956E+04-1.30527E+02 1.38581E+02
 -1      3501-5.64331E+03 6.59944E+04-3.80001E+01 5.72567E+04 8.55569E+01 1.78221E+02
 -1      3502-6.46863E+03 5.55903E+04-4.71989E+02 5.88408E+04-2.01108E+02 2.15413E+02
 -1      3503-4.77988E+03-1.24381E+04-3.02654E+02 6.07232E+04-2.42338E+02 4.23318E+02
 -1      3504-4.02440E+03-7.37794E+04-9.91878E+02 5.69134E+04-2.87424E+02 1.17768E+02
 -1      3505-3.19509E+03-8.37480E+04 5.07988E+02 6.08324E+04-3.31808E+02-1.14342E+02
 -1      3506-4.78697E+03-1.56410E+04-1.04183E+02 6.40073E+04-5.39340E+01 4.47605E+02
 -1      3507-6.69054E+03 6.98333E+04-4.20947E+02 6.14139E+04 2.36545E+02-6.56612E+01
 -1      3508-5.27821E+03 6.42307E+04 5.14225E+02 6.03210E+04 3.49707E+02 2.75109E+02
 -1      3509-7.95588E+03 1.42460E+05-2.85919E+02 5.71350E+04 2.49311E+02 1.55725E+02
 -1      3510-1.63813E+03-2.47254E+05 2.05033E+02 5.88345E+04-2.91525E+02 2.06370E+02
 -1      3511-3.59594E+03-1.16571E+05 3.72593E+02 6.64449E+04 1.54173E+02 3.08317E+02
 -1      3512-3.46443E+03-1.77445E+05-1.33179E+01 6.38178E+04-3.94372E+02 2.34338E+02
 -1      3513-2.63461E+03-2.61926E+05-5.15930E+02 6.03166E+04-1.50531E+02 1.89729E+01
 -1      3514-3.35828E+03-1.25983E+05 4.20929E+02 6.86095E+04 4.20658E+00 3.45986E+02
 -1      3515-5.49098E+03 8.21588E+04 2.43158E+02 6.60414E+04 3.93445E+01 1.21897E+02
 -1      3516-5.90858E+03 6.31921E+04 3.65123E+01 6.85977E+04 3.58616E+02 6.26280E+01
 -1      3517-5.37068E+03-2.36001E+04 3.51426E+02 6.91472E+04 2.13218E+02-1.60202E+02
 -1      3518-3.77716E+03-9.67659E+04 1.43756E+01 6.52751E+04 7.83406E+01-5.59798E+01
 -1      3519-3.67194E+03-1.11814E+05 8.76653E+01 7.00200E+04-3.94844E+02 7.42356E+01
 -1      3520-4.44259E+03-2.81130E+04 5.79490E+02 7.24796E+04 8.68911E+01 5.63599E+02
 -1      3521-6.40387E+03 6.19717E+04-3.95865E+02 7.08516E+04-1.76439E+02 3.37225E+02
 -1      3522-5.45989E+03 4.74286E+04 7.71647E+02 7.02028E+04 4.36114E+02 4.80956E+02
 -1      3523-5.86584E+03 1.54419E+05 5.10970E+02 6.70283E+04 3.16366E+01 3.91251E+02
 -1      3524-1.85561E+03-3.16133E+05 4.76140E+02 6.63566E+04-1.26851E+02-1.29017E+02
 -1      3525-3.59511E+03-1.49271E+05 9.88822E+01 7.50309E+04-5.11074E+01-4.34890E+02
 -1      3526-3.00722E+03-2.24219E+05 5.64359E+00 7.23968E+04-5.93178E+02-4.22065E+01
 -1      3527-2.63923E+03-3.32310E+05-4.14653E+02 6.80506E+04-2.36017E+02 1.52839E+02
 -1      3528-3.66254E+03-1.60754E+05-1.61515E+02 7.69946E+04-1.05439E+02 3.24181E+02
 -1      3529-5.22221E+03 1.02368E+05 4.44518E+02 7.47324E+04 4.82451E+02 8.30287E+01
 -1      3530-5.59594E+03 8.08197E+04-1.23459E+02 7.74256E+04 4.98716E+02-3.07841E+02
 -1      3531-4.50197E+03-3.13644E+04 1.55561E+02 7.84536E+04 2.18781E+02-4.57077E+02
 -1      3532-4.19290E+03-1.27220E+05-3.69627E+02 7.29996E+04-1.43926E+02-1.13660E+02
 -1      3533-3.32849E+03-1.44697E+05 4.14106E+02 7.79640E+04-3.13864E+02-1.33723E+01
 -1      3534-4.66062E+03-4.01065E+04-5.02425E+01 8.17492E+04 9.49465E+01 2.57802E+02
 -1      3535-6.69993E+03 7.22602E+04-1.16638E+02 7.96954E+04 1.36680E+02-1.20919E+02
 -1      3536-5.56990E+03 5.74736E+04 3.83238E+02 7.90539E+04 2.30551E+02 1.41875E+02
 -1      3537-7.28059E+03 1.93010E+05 8.28340E+01 7.54745E+04 2.15986E+02-2.04659E+02
 -1      3538-1.41720E+03-3.91508E+05 2.97675E+02 7.39115E+04 5.78151E+01-9.38642E+01
 -1      3539-3.23474E+03-1.85401E+05-3.08923E+02 8.36688E+04 5.33435E+02 4.71866E+02
 -1      3540-3.22996E+03-2.78947E+05-3.00262E+02 7.99828E+04 4.13950E+02-2.09114E+02
 -1      3541-2.34956E+03-4.10075E+05-6.14498E+02 7.53282E+04-9.87106E+01-1.97794E+02
 -1      3542-3.07354E+03-1.97116E+05-8.38529E+01 8.60706E+04 5.53012E+02-5.46622E+02
 -1      3543-5.10006E+03 1.27591E+05 1.11678E+02 8.32603E+04-4.69355E+01 2.88251E+02
 -1      3544-6.19817E+03 9.90458E+04-4.86129E+02 8.53623E+04 2.68106E+02 8.60234E+00
 -1      3545-4.13593E+03-3.94043E+04 9.83936E+01 8.71419E+04 3.66809E+01 3.75848E+02
 -1      3546-4.49197E+03-1.57509E+05-6.92487E+02 8.22267E+04 2.91306E+02 9.04888E+01
 -1      3547-3.58024E+03-1.79612E+05 5.35232E+02 8.73801E+04 2.80096E+02-1.78562E+02
 -1      3548-5.02294E+03-4.97067E+04 2.08320E+02 9.02422E+04 1.26489E+02-4.03773E+02
 -1      3549-6.26630E+03 8.92012E+04 3.68672E+02 8.87285E+04 2.86278E+02-2.32340E+02
 -1      3550-4.32122E+03 7.10736E+04 8.18594E+02 8.71438E+04 3.17341E+02-2.28017E+02
 -1      3551-7.12228E+03 2.38327E+05 3.12555E+02 8.35744E+04 2.01082E+02-2.57744E+02
 -1      3552-1.40343E+03-4.76067E+05 9.02622E+02 8.14701E+04-1.27673E+02-3.06826E+02
 -1      3553-3.19147E+03-2.24880E+05 5.53854E+02 9.25608E+04-1.81258E+02-6.38466E+02
 -1      3554-2.32258E+03-3.36157E+05 6.08234E+02 8.87436E+04-9.20523E+02-2.89714E+02
 -1      3555-2.78107E+03-4.97183E+05-4.84256E+02 8.29946E+04-2.16249E+02 1.20535E+02
 -1      3556-4.50148E+03-2.40451E+05 7.08590E+01 9.34903E+04-1.55292E+02 1.67814E+02
 -1      3557-5.21696E+03 1.56110E+05 2.66732E+02 9.17337E+04-3.48156E+02-1.70502E+02
 -1      3558-6.74743E+03 1.21432E+05-9.14252E+02 9.47829E+04-7.90062E+02 1.33613E+02
 -1      3559-3.64279E+03-4.73054E+04 6.27104E+02 9.63037E+04-3.34387E+02-5.38426E+02
 -1      3560-3.70801E+03-1.90650E+05-1.73603E+02 9.09137E+04-4.17727E+02-2.05313E+02
 -1      3561-3.21470E+03-2.14612E+05 9.68919E+02 9.62259E+04-7.58216E+02 1.08589E+02
 -1      3562-3.44466E+03-5.78846E+04 5.38407E+02 9.90709E+04-6.31531E+02-3.11961E+02
 -1      3563-7.04020E+03 1.10783E+05-5.93986E+02 9.71980E+04-4.40557E+02 2.85079E+02
 -1      3564-5.31973E+03 8.69999E+04 1.11074E+02 9.62178E+04-5.53740E+02-2.60305E+02
 -1      3565-7.78869E+03 2.92156E+05-3.18909E+02 9.23026E+04-5.36935E+02 5.31520E+02
 -1      3566-2.62007E+03-5.83964E+05 3.83026E+02 1.11138E+05 3.72686E+02 3.34064E+02
 -1      3567-3.85184E+03-4.78863E+05-8.58325E+02 1.13342E+05 8.87398E+02-4.53584E+01
 -1      3568-2.49151E+03-1.15546E+05 9.20971E+02 1.25193E+05 1.72855E+02 2.58103E+02
 -1      3569-1.56919E+03-7.22492E+05 6.52410E+02 1.05168E+05-2.69642E+02-6.09033E+02
 -1      3570-4.39961E+03-2.64713E+05-1.30556E+03 1.19138E+05-5.21754E+01 8.30042E+00
 -1      3571-5.64514E+03 3.29934E+05 3.95694E+02 1.14950E+05-3.78518E+02-4.35568E+02
 -1      3572-6.06204E+03 3.02420E+05-1.03634E+03 1.17501E+05 7.92368E+02-5.67081E+02
 -1      3573-5.04325E+03 1.50549E+04 4.24911E+01 1.22640E+05 1.99522E+02-9.24708E+02
 -1      3574-4.86328E+03-2.36645E+05-9.93507E+02 1.16039E+05 1.77378E+02-3.66435E+02
 -1      3575-5.32049E+03 1.57327E+05 2.16540E+02 1.21714E+05 1.48527E+02-2.56189E+02
 -1      3576-6.67897E+03 2.57588E+05-1.88922E+02 1.20109E+05 4.91491E+02 3.67840E+02
 -1      3577-8.49135E+03 5.76717E+05-7.81059E+01 1.12950E+05 3.56710E+02-4.82112E+02
 -1      3578-5.89117E+03 2.00859E+05 1.30693E+02 1.00586E+05 1.30268E+02 2.54720E+01
 -1      3579-6.45470E+03 2.01931E+05-5.27295E+02 1.02989E+05 3.65916E+02-2.30726E+01
 -1      3580-5.00887E+03-4.49931E+03-3.90589E+01 1.05681E+05 3.15521E+01-2.39030E+02
 -1      3581-3.95028E+03-2.14955E+05-6.88872E+01 1.00371E+05-1.63235E+02 1.81803E+01
 -1      3582-3.67998E+03-2.14925E+05 5.67111E+02 1.02554E+05-2.75322E+02-2.15864E+01
 -1      3583-3.00853E+03-2.05133E+05 2.33181E+02 1.04379E+05 1.22798E+02 1.24781E+02
 -1      3584-3.98945E+03-2.04141E+05-5.34080E+02 1.04383E+05-2.22958E+02 6.46650E+02
 -1      3585-4.98983E+03-6.25428E+03 1.73762E+02 1.08878E+05-8.00183E+00 6.81088E+02
 -1      3586-7.45819E+03 1.63546E+05-1.76520E+02 1.04847E+05-1.32847E+02 4.06079E+02
 -1      3587-6.15878E+03 1.68274E+05 4.72206E+02 1.04873E+05 1.81636E+02 5.27393E+02
 -1      3588-5.67720E+03 3.75218E+05 7.71731E+02 9.98089E+04-1.24391E+02 5.90773E+02
 -1      3589-4.12204E+03-4.16509E+05-6.13728E+02 9.85992E+04 2.17956E+02 5.89639E+02
 -1      3590-1.02834E+03-6.12836E+05 5.09800E+02 1.00128E+05-5.91734E+02-5.45865E+02
 -1      3591-3.91240E+03-2.75445E+05 4.42506E+02 1.10041E+05-4.04777E+02-2.67184E+02
 -1      3592-3.97849E+03-4.04089E+05-7.77661E+02 1.07703E+05-5.24916E+02 2.16693E+02
 -1      3593-2.46712E+03-4.78590E+05 9.39652E+01 1.05091E+05-1.38164E+02-1.07989E+02
 -1      3594-3.84972E+03-1.37460E+05 4.48719E+02 1.16423E+05-9.09900E+01 5.22971E+02
 -1      3595-4.97285E+03-2.50072E+05-8.22519E+02 1.08031E+05 3.26836E+02-3.41014E+02
 -1      3596-5.16510E+03-3.65449E+04 1.13413E+01 1.14437E+05 2.95689E+02-3.35337E+02
 -1      3597-4.19113E+03 1.69201E+05 5.19919E+02 1.10023E+05 2.57164E+02 4.66532E+02
 -1      3598-6.14619E+03 1.41454E+05-6.67415E+02 1.12557E+05 4.08096E+02 2.66292E+01
 -1      3599-5.71143E+03 9.37273E+04-1.89754E+02 1.14411E+05-5.41170E+02 2.10122E+01
 -1      3600-6.96115E+03 1.67941E+05 6.52400E+01 1.13512E+05 5.00015E+02 6.38787E+02
 -1      3601-7.13207E+03 3.74182E+05-5.95193E+02 1.09881E+05 5.03009E+01 3.91787E+02
 -1      3602 5.32067E+04 7.22311E+05 8.54644E+03-6.45431E+04-9.25106E+03-1.78621E+03
 -1      3603 9.40390E+04 1.04311E+06 4.36963E+03 2.17366E+04-9.04091E+03-7.54725E+02
 -1      3604 1.08530E+05 1.22428E+06 1.78581E+03 6.37826E+04-5.66236E+03-3.15860E+02
 -1      3605-1.75330E+03 2.43067E+04 1.08197E+03-9.04936E+04-3.69311E+02 1.23856E+02
 -1      3606 4.30089E+04 4.21943E+05-2.31818E+02-4.37627E+04-1.77557E+03 1.67866E+02
 -1      3607 3.95136E+04 4.10138E+05 2.18547E+03-8.19710E+04-4.72449E+03 3.18805E+03
 -1      3608 1.17647E+05 1.10499E+06 2.18695E+03 6.53518E+04 3.79635E+03-1.92432E+03
 -1      3609 1.13748E+05 1.15840E+06-2.93650E+01 4.98134E+04-3.78890E+03-9.37515E+02
 -1      3610 9.01797E+04 7.47224E+05 4.42681E+03-2.10751E+03 1.28329E+02 5.04455E+02
 -1      3611-3.87297E+04-3.83181E+05-3.39143E+03-9.61748E+04-1.17198E+03-7.58895E+02
 -1      3612-3.37362E+04-3.68582E+05 3.16701E+03-5.72711E+04-2.84952E+03 7.91807E+02
 -1      3613-6.87834E+04-7.01950E+05-6.03999E+03-9.07298E+04 7.33335E+03-2.16601E+03
 -1      3614-9.58494E+04-1.01900E+06-4.15621E+03-2.07624E+04 9.84333E+03-8.60345E+02
 -1      3615-1.02269E+05-1.21320E+06-2.68402E+03 2.20833E+04 5.40806E+03 2.45916E+03
 -1      3616-6.31243E+04-6.61719E+05-6.36705E+01-2.75668E+04-1.52566E+03 2.29181E+03
 -1      3617-8.61412E+04-9.81106E+05 2.63164E+02 2.65162E+04 1.65970E+03 2.72505E+03
 -1      3618-9.66788E+04-1.08443E+06 3.26733E+03 2.09220E+03 1.30794E+03 2.95506E+03
 -1      3619-4.46766E+02-6.54804E+02-2.44223E+01 6.05552E+02 2.44108E+01-2.52120E+01
 -1      3620-1.32134E+03-5.83274E+02-1.13501E+01 1.31984E+03 1.32912E+01-6.05559E+00
 -1      3621-1.07409E+03-7.64527E+02 2.76159E+01 1.46572E+03 6.46441E+00 1.16510E+01
 -1      3622-1.71359E+03-2.20117E+02 1.71568E+01 1.28553E+03-1.08989E+01 6.32451E+00
 -1      3623-2.46596E+03-4.90183E+00 5.22273E+00 1.52905E+03-6.13858E+00-1.07667E+01
 -1      3624-3.64767E+03 5.93308E+02-2.61392E+01 1.47987E+03 3.88891E+00-3.80061E+00
 -1      3625-3.38940E+03 2.07632E+02-6.62735E+00 2.24011E+03 2.46477E+00-1.00267E+01
 -1      3626-2.53984E+03-9.15567E+02 3.29803E+00 3.44629E+03 1.24592E+01 1.49131E+01
 -1      3627-3.62740E+03 8.95267E+01 2.00416E+00 3.29043E+03 6.35733E-01 1.59052E+00
 -1      3628-4.74951E+03 9.64502E+02 5.23742E+01 3.30041E+03 5.90496E+00-6.28162E+00
 -1      3629-1.67728E+03-2.05190E+03 3.97402E+01 3.64153E+03 2.79579E+01 1.97802E+01
 -1      3630-1.47525E+03-1.62744E+03-3.79165E+01 2.49880E+03 1.76704E+01-3.65133E+00
 -1      3631-8.20541E+03 7.82352E+05-1.48865E+03 6.18808E+04 4.69348E+02 1.37677E+02
 -1      3632-8.99783E+03 6.89520E+05-1.43214E+03 7.32032E+04 1.34589E+03-5.23398E+02
 -1      3633-7.99039E+03 5.38450E+05-9.87315E+02 8.25078E+04 3.73815E+02-8.59873E+02
 -1      3634-7.14636E+03 4.43338E+05-9.25040E+02 8.53726E+04-4.40822E+02-2.18310E+02
 -1      3635-7.40524E+03 3.46871E+05-8.25264E+02 9.35133E+04 3.37912E+02-9.81518E+02
 -1      3636-7.71041E+03 6.82595E+05-2.64848E+02 7.61084E+04 5.68054E+02 2.08069E+02
 -1      3637-8.04133E+03 6.66519E+05 8.76580E+00 8.09366E+04 2.97486E+02 9.11656E+00
 -1      3638-8.04139E+03 4.26786E+05-8.72298E+01 9.41774E+04 1.04387E+02-4.79703E+02
 -1      3639-4.81293E+03-1.99849E+04-6.01289E+01 1.03064E+05-2.62803E+02-8.13841E+02
 -1      3640-5.17561E+03 2.06426E+05 1.98087E+02 9.68813E+04-2.09419E+02-5.92868E+02
 -1      3641-5.83028E+03 2.19963E+05-6.87490E+02 9.87134E+04 6.26159E+02-8.53731E+02
 -1      3642-9.73460E+03 6.42208E+05-6.53509E+01 5.77589E+04 1.72767E+02-3.25797E+02
 -1      3643-8.47307E+03 5.73199E+05-4.48082E+02 6.67165E+04-1.33041E+02 3.81373E+02
 -1      3644-9.33725E+03 4.41169E+05 1.07813E+01 7.54531E+04-1.56520E+02 4.60553E+02
 -1      3645-7.96759E+03 3.58546E+05-4.17882E+02 7.89632E+04-5.06219E+02-3.45666E+01
 -1      3646-5.13837E+03 2.88489E+05 5.17858E+02 8.42345E+04 1.05631E+02-6.45033E+02
 -1      3647-7.81505E+03 5.69870E+05-9.69080E-01 6.93977E+04-5.20613E+01-2.68371E+02
 -1      3648-8.58666E+03 5.49307E+05-9.01083E+02 7.44795E+04-6.94172E+02 5.06591E+02
 -1      3649-8.61085E+03 3.48203E+05-1.19728E+02 8.66061E+04-2.00460E+02 7.85574E+02
 -1      3650-5.65407E+03-2.23061E+04 3.68341E+02 9.36944E+04 2.13511E+00 2.84598E+02
 -1      3651-6.18162E+03 1.69362E+05 7.23869E+02 8.88634E+04-4.56596E+02-8.38026E+01
 -1      3652-6.18805E+03 1.77305E+05-3.49270E+02 9.01811E+04-3.09133E+02 3.17133E+02
 -1      3653-7.85197E+03 5.23015E+05 5.48867E+01 5.13736E+04 4.16688E+02 3.98125E+02
 -1      3654-8.56753E+03 4.66518E+05-5.21390E+02 6.01215E+04 7.29953E+02-1.33650E+02
 -1      3655-7.79767E+03 3.59919E+05 2.04468E+01 6.83730E+04 1.33883E+02-4.43908E+02
 -1      3656-8.07919E+03 2.91123E+05-3.07681E+02 7.04436E+04 1.23064E+02-3.33767E+02
 -1      3657-7.02432E+03 2.33859E+05-1.57149E+01 7.66190E+04 8.87523E+00-4.70157E+02
 -1      3658-9.00683E+03 4.65611E+05 5.60382E+02 6.32608E+04 3.27898E+02 3.63771E+02
 -1      3659-9.24562E+03 4.48263E+05-9.40400E+01 6.72453E+04-1.45710E+02 3.52703E+02
 -1      3660-7.04897E+03 2.85052E+05 1.66901E+01 7.90581E+04 2.33566E+01 7.03028E+02
 -1      3661-4.58335E+03-1.77430E+04 1.34862E+02 8.44416E+04-1.73982E+01 2.80944E+02
 -1      3662-5.76245E+03 1.39471E+05 7.78872E+02 8.02196E+04-4.29130E+02-1.40326E+02
 -1      3663-6.09283E+03 1.44815E+05-5.12161E+02 8.14834E+04-5.20236E+02 2.39563E+02
 -1      3664-9.41622E+03 4.18128E+05 5.12484E+02 4.55239E+04 4.62677E+02 4.84694E+02
 -1      3665-8.93810E+03 3.72306E+05-4.40791E+02 5.29736E+04 6.46894E+02 3.21987E+01
 -1      3666-7.57534E+03 2.90144E+05 5.74350E+02 5.99424E+04 2.25704E+02 6.28015E+02
 -1      3667-8.01898E+03 2.35379E+05-6.08562E+01 6.16324E+04-2.72574E+02 3.68189E+02
 -1      3668-6.89913E+03 1.88219E+05-3.41667E+02 6.75016E+04 2.75598E+02 3.22029E+02
 -1      3669-8.25027E+03 3.73365E+05-3.72929E+02 5.58882E+04 4.81204E+02 1.30858E+02
 -1      3670-8.10198E+03 3.61742E+05-1.52173E+02 6.05467E+04 4.71614E+02-1.87449E+02
 -1      3671-7.77962E+03 2.28592E+05-4.24118E+01 7.00176E+04 3.75949E+02-5.22226E+02
 -1      3672-5.15831E+03-1.26635E+04-5.52655E+02 7.56393E+04-1.16471E+02 3.52591E+02
 -1      3673-5.27290E+03 1.14081E+05 2.06400E+02 7.09125E+04 2.71406E+02 3.28106E+02
 -1      3674-6.47962E+03 1.15354E+05-2.06012E+02 7.23288E+04 5.95859E+02-3.74126E+02
 -1      3675-7.96536E+03 2.87978E+05-4.95704E+01 5.04765E+04 4.62960E+02 4.72955E+01
 -1      3676-8.24677E+03 2.66270E+05-7.43679E+02 4.96996E+04 7.06987E+02-4.99349E+02
 -1      3677-7.91974E+03 2.84195E+05 1.08408E+01 5.34016E+04 2.40335E+02-3.99454E+01
 -1      3678-7.59796E+03 1.75081E+05 7.00819E+01 6.23754E+04 1.04038E+02-3.08573E+02
 -1      3679-5.76012E+03-6.88411E+03-2.11835E+02 6.64871E+04-2.65067E+01-4.47069E+02
 -1      3680-5.44863E+03 8.63659E+04 3.31368E+02 6.28705E+04-2.19331E+01-4.33550E+02
 -1      3681-6.37728E+03 8.68627E+04-6.00241E+02 6.46819E+04 3.73118E+02-3.71408E+02
 -1      3682-7.43608E+03 1.64456E+05-4.14564E+02 6.00205E+04 4.08255E+02-5.12275E+02
 -1      3683-7.29316E+03 2.52598E+05 1.49463E+02 4.86547E+04 4.63749E+02 3.78209E+01
 -1      3684-8.23613E+03 2.16906E+05-1.65473E+01 4.34709E+04 3.40169E+02 1.70051E+02
 -1      3685-8.28554E+03 1.96820E+05-3.93794E+02 4.28733E+04-5.23863E+01 1.45325E+02
 -1      3686-8.94875E+03 2.16382E+05-3.50367E+02 4.56722E+04 1.83429E+01 2.06376E+02
 -1      3687-7.33820E+03 1.34978E+05-4.65831E+02 5.44385E+04-1.18939E+02 4.38146E+02
 -1      3688-4.42875E+03-3.38528E+03-1.52280E+01 5.75769E+04-8.96912E+01-1.72611E+02
 -1      3689-6.02205E+03 6.53700E+04 6.24090E+01 5.46171E+04-3.21254E+02-1.09679E+02
 -1      3690-6.40389E+03 6.51016E+04-9.24411E+02 5.60512E+04-3.12150E+02 1.77965E+02
 -1      3691-7.08696E+03 1.22463E+05-2.73905E+02 5.15761E+04-8.63231E+01-2.00832E+02
 -1      3692-8.02516E+03 1.84278E+05 3.07445E+02 4.25157E+04-1.24153E+02 2.17363E+02
 -1      3693-8.13714E+03 1.54220E+05 1.86292E+02 3.69718E+04 2.93877E+02 1.26515E+02
 -1      3694-8.30985E+03 1.38676E+05-3.68569E+02 3.60357E+04 4.10421E+02-3.64511E+02
 -1      3695-8.47740E+03 1.53111E+05-4.94518E+02 3.88622E+04 2.91702E+02-1.36531E+02
 -1      3696-6.96790E+03 9.56738E+04 1.05160E+02 4.55025E+04 2.22206E+02-1.35702E+02
 -1      3697-4.82620E+03-2.32271E+03 4.35626E+00 4.86459E+04 7.79620E+01 1.70415E+02
 -1      3698-5.85228E+03 4.68805E+04 3.97538E+02 4.57698E+04 2.78412E+02 1.10223E+02
 -1      3699-6.84340E+03 4.55998E+04-1.72969E+02 4.67580E+04 2.42667E+02-1.43980E+02
 -1      3700-7.87800E+03 8.60126E+04-2.29082E+02 4.29875E+04 2.32848E+02-3.32096E+02
 -1      3701-7.83607E+03 1.30021E+05 1.61444E+02 3.52114E+04 2.36298E+02-5.99974E+01
 -1      3702-8.29176E+03 1.03542E+05-4.45164E+01 3.01678E+04-1.94741E+01-1.46973E+02
 -1      3703-8.45735E+03 9.04721E+04-2.27926E+02 2.87166E+04 2.05804E+02-1.95110E+02
 -1      3704-8.46183E+03 1.03417E+05-3.90199E+02 3.18032E+04 9.55259E+01-1.81165E+02
 -1      3705-7.35746E+03 6.40437E+04-3.05532E+01 3.69576E+04-4.89663E+01-1.94901E+02
 -1      3706-4.83359E+03-1.45790E+03 1.33555E+02 3.98497E+04-1.05740E+02-3.39922E+01
 -1      3707-5.83805E+03 3.16021E+04 3.53700E+02 3.70769E+04-2.61920E+02 8.32431E+00
 -1      3708-6.49311E+03 3.08947E+04-1.98157E+02 3.84715E+04 5.28123E+01-2.47719E+02
 -1      3709-7.21118E+03 5.68028E+04 7.72918E+01 3.49775E+04-1.49858E+02-2.13736E+02
 -1      3710-7.79610E+03 8.50281E+04 2.55975E+02 2.83449E+04-1.08980E+02-8.35223E+01
 -1      3711-1.69959E+03-8.10371E+03-2.75078E+01 8.15315E+03-2.28694E+01-1.84516E+01
 -1      3712-1.78396E+03-1.20987E+04-4.58062E+01 9.47619E+03 4.68738E+01-4.85638E+01
 -1      3713-1.83414E+03-1.29844E+04 8.89401E+01 1.07480E+04-3.37121E+01-4.21335E+01
 -1      3714-2.82923E+03-7.84388E+03 2.29591E+01 1.18945E+04 4.23271E-01-7.28018E+00
 -1      3715-1.86721E+03-6.90265E+03-3.51736E+01 7.32162E+03-1.80664E+01 2.28626E+01
 -1      3716-2.72749E+03-5.39987E+03 6.38721E+01 9.66265E+03 1.51179E+01 2.44580E+01
 -1      3717-5.05337E+03 2.25533E+02-1.69764E+00 1.19266E+04-3.81032E+00-2.14276E+01
 -1      3718-3.91945E+03-3.36590E+03 5.26788E+01 1.21640E+04-2.90743E+01-1.09160E+01
 -1      3719-4.01445E+03-3.55733E+03-4.90677E+01 1.05951E+04 5.56001E+01-1.96260E-01
 -1      3720-1.53541E+03-2.56134E+04-1.12381E+02 1.49324E+04-1.17584E+02-5.46152E+01
 -1      3721-1.70941E+03-3.19241E+04-2.47842E+02 1.64017E+04 3.63198E+01-3.80194E+01
 -1      3722-1.84834E+03-3.27506E+04 1.38339E+01 1.79030E+04 3.49103E+01-2.55271E+01
 -1      3723-2.75301E+03-2.01755E+04-2.34867E+02 2.03429E+04-3.77139E+01 1.05127E+02
 -1      3724-1.74107E+03-2.33337E+04-9.35144E+01 1.42702E+04-9.41626E+01-1.85357E+01
 -1      3725-2.81661E+03-1.66903E+04-9.52708E+01 1.79563E+04-7.74697E+01-2.42584E+01
 -1      3726-5.27571E+03 1.40544E+02-7.70534E+01 2.11190E+04-6.06920E+01 9.66879E+01
 -1      3727-3.69401E+03-9.15850E+03-3.22483E+01 2.07953E+04-1.64244E+01 8.48339E+01
 -1      3728-3.81522E+03-9.81800E+03-1.64422E+02 1.95238E+04-1.18985E+02 4.04483E+00
 -1      3729-8.24535E+03 6.20679E+04 1.32020E+02 2.32757E+04-2.64543E+01-5.02025E+01
 -1      3730-8.41251E+03 5.27070E+04 2.19325E+01 2.21838E+04 3.17798E+01 3.80375E+01
 -1      3731-8.45943E+03 6.27417E+04-2.77041E+02 2.51052E+04-2.01438E+02 4.18325E+01
 -1      3732-7.12404E+03 3.85157E+04-3.62374E+01 2.87580E+04-1.14607E+02-8.50058E+01
 -1      3733-4.85212E+03-4.51348E+02 1.88604E+02 3.00931E+04-1.32166E+01-1.30308E+02
 -1      3734-5.82721E+03 1.85937E+04 1.43237E+02 2.82599E+04-1.53545E+02-1.31897E+02
 -1      3735-6.46558E+03 1.82081E+04-1.32278E+02 2.95355E+04-1.14068E+02-2.20736E+01
 -1      3736-7.44728E+03 3.29970E+04-6.41745E+01 2.66133E+04-3.59765E+01 6.99704E+01
 -1      3737-8.33407E+03 4.80288E+04 8.83824E+01 2.17813E+04 1.24823E+02 7.08971E+01
 -1      3738-9.21624E+02-6.47525E+05 4.48965E+02 7.46961E+04-4.88025E+02-3.68876E+02
 -1      3739-2.49875E+03-6.83678E+05-6.01799E+02 7.59450E+04-5.14404E+02 3.03726E+02
 -1      3740-1.43159E+03-6.72801E+05 3.60854E+02 7.95370E+04-2.98860E+02-5.41990E+01
 -1      3741-1.47609E+03-4.37252E+05 2.27688E+02 9.38675E+04-1.61817E+02-4.56298E+02
 -1      3742-3.48806E+03-2.26784E+05 5.60729E+02 9.89283E+04-6.84131E+02-6.84077E+02
 -1      3743-4.74634E+03-2.40601E+05-2.42238E+02 9.62876E+04-6.47838E+02 2.95029E+02
 -1      3744-2.68639E+03-4.23159E+05 2.31537E+02 9.06133E+04-2.66929E+02 2.55584E+02
 -1      3745-2.60215E+03-6.24212E+05-6.24616E+02 7.52412E+04-2.47832E+02 4.89506E+02
 -1      3746-7.45997E+03 1.20396E+03 4.29450E+01 8.70549E+01-4.34136E+01-1.05426E+02
 -1      3747-4.56804E+03 5.53881E+02-7.58972E-01-4.39039E+02-3.44773E+01-2.78506E+01
 -1      3748-4.79586E+03 8.37684E+02-6.12789E+01 2.56944E+02-1.43901E+01-4.62531E+01
 -1      3749-8.01781E+03 1.97209E+03 7.24146E+01 1.65931E+03 8.60967E+01-3.36986E+01
 -1      3750-3.89965E+03 8.55011E+02 2.74266E+01 9.84212E+02 1.05189E+01-2.04004E+01
 -1      3751-5.46865E+03 1.20714E+03-8.02258E+00 1.48857E+03-3.50681E+00 2.18417E+00
 -1      3752-8.20440E+03 2.14389E+03 6.84830E+01 2.90400E+03 7.97800E+00-6.69148E+01
 -1      3753-6.71891E+03 1.87013E+03 4.80879E+01 2.06917E+03 3.26013E+01 1.41723E+01
 -1      3754-5.83243E+03 1.50536E+03-1.14292E+01 2.67432E+03 1.62989E+00-8.08450E+00
 -1      3755-1.01907E+04 9.37103E+05 2.84934E+01 6.74245E+04 2.58443E+02-4.03897E+02
 -1      3756-8.96057E+03 8.49191E+05-1.06776E+03 7.74033E+04-9.14615E+01 1.78349E+02
 -1      3757-7.60009E+03 6.57982E+05-1.70694E+01 8.91741E+04 2.67963E+02-4.30324E+02
 -1      3758-8.52819E+03 5.41308E+05 1.06120E+02 9.23341E+04-4.36382E+02 2.01858E+02
 -1      3759-7.30267E+03 4.50211E+05-7.99970E+02 1.00387E+05 2.96130E+02-8.14215E+02
 -1      3760-7.87669E+03 7.00709E+05-8.82944E+02 9.25135E+04-8.32853E+01 1.02513E+03
 -1      3761-8.43515E+03 8.69584E+05-2.78344E+02 7.77449E+04 6.23738E+02 1.97136E+02
 -1      3762-7.79188E+03 5.95137E+05 3.45330E+02 9.86037E+04-1.98898E+02 4.82715E+02
 -1      3763-6.49176E+03 4.59663E+05-4.26666E+02 1.03206E+05 1.31000E+02 4.47768E+02
 -1      3764-6.33919E+03-1.11944E+04-6.81416E+02 1.11471E+05 1.64875E+02-4.52629E+02
 -1      3765-5.38538E+03 2.79879E+05 2.27685E+01 1.04672E+05-2.99150E+02-2.77148E+02
 -1      3766-6.85668E+03 2.77442E+05-1.21532E+03 1.06641E+05 4.77359E+02-2.13844E+02
 -1      3767-1.57383E+03-5.37583E+05 3.87057E+02 6.88350E+04 1.84676E+02 2.69058E+02
 -1      3768-1.81155E+03-5.66952E+05-2.06880E+02 6.91960E+04-2.78246E+02 2.64721E+02
 -1      3769-1.55558E+03-5.61382E+05 4.80104E+02 7.11091E+04 3.43391E+02-1.35163E+02
 -1      3770-3.38128E+03-3.69863E+05 1.91577E+01 8.47436E+04-1.08523E+02 2.40488E+02
 -1      3771-2.75758E+03-1.93594E+05 7.87069E+02 8.91979E+04-2.79893E+02-2.02122E+02
 -1      3772-4.46388E+03-2.02272E+05 3.61341E+01 8.78154E+04-1.58857E+02 4.55118E+01
 -1      3773-1.85617E+03-3.51854E+05 1.89462E+02 8.28204E+04 1.58463E+01 8.56281E+00
 -1      3774-1.82238E+03-5.16161E+05-5.10363E+02 6.89673E+04 3.17315E+02-3.25126E+01
 -1      3775-1.63863E+03-4.37091E+05-2.96176E+02 6.14553E+04-3.12143E+02-3.47205E+02
 -1      3776-1.70710E+03-4.63745E+05-3.80204E+02 6.31209E+04 8.91466E+01-2.26598E+02
 -1      3777-2.15333E+03-4.62121E+05 3.47040E+02 6.50927E+04 2.14872E+02-7.83113E+01
 -1      3778-2.10462E+03-3.02532E+05-4.41845E+02 7.68128E+04 2.32948E+02 3.38990E+02
 -1      3779-3.87424E+03-1.59392E+05-1.75328E+02 8.14602E+04 4.57556E+02 1.54363E+02
 -1      3780-4.28292E+03-1.64804E+05-1.49766E+03 7.95766E+04 3.93455E+02-4.28794E+02
 -1      3781-2.89830E+03-2.87040E+05-7.10435E+02 7.50238E+04 1.80308E+02-5.18017E+02
 -1      3782-2.19222E+03-4.20301E+05-2.45070E+02 6.13025E+04-2.15431E+02-1.28642E+01
 -1      3783-1.33984E+03-3.47134E+05-3.59554E+02 5.47636E+04-3.01465E+02-2.75952E+02
 -1      3784-1.53560E+03-3.71289E+05-4.33859E+02 5.63962E+04 3.18693E+01-1.63119E+01
 -1      3785-2.03209E+03-3.70894E+05 2.05526E+02 5.82380E+04 1.63006E+02 4.05686E+00
 -1      3786-2.43457E+03-2.42425E+05-8.15571E+02 6.87689E+04-6.64450E+01 3.09448E+02
 -1      3787-3.29107E+03-1.26465E+05-3.13982E+02 7.20593E+04 2.65523E+01 1.36514E+02
 -1      3788-4.06015E+03-1.28427E+05-1.05646E+03 7.10480E+04-5.09610E+02 7.69127E+01
 -1      3789-2.18468E+03-2.27079E+05-6.04650E+02 6.64190E+04-7.65600E+01-3.03208E+02
 -1      3790-1.89549E+03-3.32652E+05-3.61915E+02 5.44757E+04-1.46714E+02-4.16314E+01
 -1      3791-1.72345E+03-2.69377E+05 4.85861E+02 4.83913E+04 4.71814E+01 8.24305E+01
 -1      3792-1.71559E+03-2.89350E+05 1.21189E+02 4.94402E+04-3.49918E+02 1.68888E+02
 -1      3793-1.43626E+03-2.88051E+05 2.99879E+02 5.13212E+04-1.81434E+02 5.42086E+01
 -1      3794-2.32636E+03-1.88480E+05 5.90063E+02 6.09046E+04 1.07830E+02 4.70357E+02
 -1      3795-3.39057E+03-9.78156E+04 9.34375E+02 6.41786E+04 2.83727E+02 2.35486E+02
 -1      3796-3.88760E+03-9.89799E+04-7.90760E+01 6.26973E+04 1.87395E+02-1.91424E+02
 -1      3797-2.87784E+03-1.76053E+05 2.93098E+02 5.83669E+04-4.91951E+00-2.96050E+02
 -1      3798-1.43387E+03-2.55195E+05-2.65222E+01 4.82684E+04 1.18163E+02 1.08869E+02
 -1      3799-1.41086E+03-1.99686E+05 9.41341E+02 4.17096E+04-4.31123E+02-1.60243E+02
 -1      3800-1.84319E+03-2.17447E+05-8.94586E+01 4.27262E+04-4.56329E+02 1.55449E+02
 -1      3801-1.38760E+03-2.17350E+05-1.72254E+02 4.45212E+04-2.44905E+02-1.01906E+02
 -1      3802-2.35970E+03-1.42044E+05-4.30663E+02 5.24310E+04-8.54352E+01-6.95938E+01
 -1      3803-3.80540E+03-7.32965E+04-9.16150E+00 5.54135E+04-3.49713E+02-1.42225E+02
 -1      3804-4.28666E+03-7.31646E+04-1.77484E+02 5.37419E+04 7.57020E+01-1.98677E+02
 -1      3805-2.06213E+03-1.27749E+05 6.26291E+02 5.07158E+04-1.02401E+02-2.94877E+02
 -1      3806-2.07555E+03-1.88312E+05 2.48753E+02 4.14693E+04 1.09937E+02-4.15136E+01
 -1      3807-1.52964E+03-1.40530E+05 1.15845E+02 3.48530E+04 2.36553E+01 4.69221E+01
 -1      3808-1.78211E+03-1.56126E+05-3.99105E+02 3.58230E+04-3.43212E+02 1.68101E+02
 -1      3809-1.24707E+03-1.54307E+05 1.72098E+02 3.77884E+04 5.63128E+01 1.29127E+02
 -1      3810-2.65856E+03-1.00407E+05-1.00094E+01 4.47851E+04 1.24538E+02 3.33354E+02
 -1      3811-3.24427E+03-5.12234E+04 3.23731E+02 4.64943E+04 2.04987E+02 7.73384E+01
 -1      3812-4.02619E+03-5.13123E+04-4.64988E+02 4.55229E+04-2.30090E+02 1.57436E+02
 -1      3813-2.94027E+03-9.06238E+04-1.06116E+01 4.21353E+04-2.74164E+01 4.85171E+01
 -1      3814-1.91306E+03-1.31443E+05-2.32590E+02 3.46691E+04-1.80385E+02 7.84954E+01
 -1      3815-1.81006E+03-9.26194E+04-1.53376E+02 2.85867E+04 1.50404E+01-1.17492E+02
 -1      3816-1.37250E+03-1.03691E+05 1.58522E+02 2.97786E+04-5.02120E+01 9.19083E+01
 -1      3817-1.49797E+03-1.04240E+05 1.91091E+02 3.13640E+04 9.61553E+01-9.02017E+01
 -1      3818-2.65089E+03-6.71576E+04 1.07205E+02 3.66075E+04 1.12216E+02 4.54051E+01
 -1      3819-3.70730E+03-3.44970E+04 1.88005E+02 3.80167E+04-1.79104E+02 6.82244E+01
 -1      3820-3.92707E+03-3.38140E+04-1.96602E+02 3.67959E+04-5.31077E+01-1.38652E+02
 -1      3821-2.58225E+03-5.91107E+04-6.35066E+01 3.42938E+04 9.71404E+01 3.98950E+01
 -1      3822-1.73663E+03-8.52212E+04-1.33282E+02 2.81223E+04 1.55341E+02 9.21651E+01
 -1      3823-1.86385E+03-5.30969E+04 7.25072E+01 2.19075E+04-2.05293E+02-2.18842E+02
 -1      3824-1.50588E+03-6.22091E+04-1.47391E+02 2.31125E+04-1.89126E+02 4.04676E+01
 -1      3825-1.65566E+03-6.33385E+04 1.09859E+02 2.42996E+04-1.49944E+02-4.75960E+01
 -1      3826-2.71671E+03-3.99078E+04 2.90376E+01 2.84580E+04-9.11393E+01 5.48313E+01
 -1      3827-3.64760E+03-1.97307E+04 2.83583E+02 2.94410E+04 5.68824E+01 2.16184E+01
 -1      3828-3.68373E+03-1.93342E+04-1.41936E+02 2.81523E+04 1.47696E+02-1.63311E+02
 -1      3829-2.57645E+03-3.34443E+04 2.06245E+01 2.63879E+04-3.23905E+01-2.10920E+02
 -1      3830-2.21856E+03-4.85512E+04-2.38149E+02 2.13308E+04-2.82702E+00-1.22178E+02
 -1      3831-8.26511E+03 3.21004E+04-1.46534E+01 1.64664E+04 7.35103E+00-6.52653E+01
 -1      3832-8.43077E+03 2.56224E+04 4.18340E+01 1.50270E+04 1.55526E+01-7.83580E+00
 -1      3833-8.24252E+03 3.32249E+04-3.09719E+02 1.80683E+04 1.62558E+02-1.38143E+02
 -1      3834-7.26045E+03 2.00467E+04-1.99999E+02 2.04955E+04 5.41195E+01-1.24375E+02
 -1      3835-6.03121E+03 9.53029E+03 1.52960E+02 1.94489E+04-2.87290E+01-6.56041E+00
 -1      3836-6.54093E+03 9.86747E+03-1.16262E+02 2.08321E+04-8.26231E+01 8.40966E+01
 -1      3837-7.43121E+03 1.63861E+04 8.71670E+00 1.81164E+04-3.04830E+01 2.68472E+01
 -1      3838-8.21770E+03 2.29230E+04 1.31072E+02 1.44945E+04-6.98947E+01 3.27570E+01
 -1      3839-8.72827E+03 9.36143E+03-4.45678E+01 8.16251E+03-2.39759E+01-5.20606E+01
 -1      3840-8.19284E+03 7.32726E+03 1.39039E+02 8.32807E+03-4.98871E+01-7.08459E+01
 -1      3841-8.00870E+03 5.25352E+03 3.55394E+01 7.59158E+03-3.88086E+01-1.63765E+01
 -1      3842-7.35406E+03 5.08139E+03 3.46313E+01 9.52650E+03-8.86449E+00-6.71812E+01
 -1      3843-8.34131E+03 1.30351E+04 2.36342E+01 1.09456E+04-7.38995E+01-5.17569E+01
 -1      3844-7.33172E+03 8.03319E+03 1.31139E+02 1.18654E+04-2.15255E+01-2.44741E+01
 -1      3845-8.58207E+03 1.20176E+04 1.21565E+02 9.47501E+03-1.03663E+02-1.16980E+02
 -1      3846-6.36886E+03 3.68538E+03 9.25762E+01 1.06105E+04-8.54596E+01-3.48756E+01
 -1      3847-6.49227E+03 3.86980E+03-3.89145E+00 1.18807E+04-1.45951E+01 2.59780E+01
 -1      3848-2.16224E+03-2.79860E+05 9.00563E+02 1.06261E+05 2.51139E+02 2.67113E+02
 -1      3849-3.84563E+03-2.78875E+05-5.29365E+02 1.05353E+05 5.98362E+02-2.13260E+02
 -1      3850-2.90563E+03-5.17293E+05 1.47738E+02 1.01789E+05-6.23186E+01-3.89277E+02
 -1      3851-1.21197E+03-7.76471E+05 2.73420E+02 8.04658E+04 4.18636E+01-1.17607E+02
 -1      3852-1.52448E+03-8.03371E+05 5.45323E+02 8.28951E+04-3.22209E+02-3.01321E+02
 -1      3853-1.93510E+03-7.71973E+05 6.42820E+02 8.69847E+04-7.50379E+02-3.55302E+02
 -1      3854-2.41169E+03-7.05391E+05-7.12288E+02 8.37741E+04 3.94516E+02 8.33453E+01
 -1      3855-3.31939E+03-4.76007E+05-1.00542E+01 9.98185E+04 4.96260E+02-4.37600E+02
 -1      3856-1.49089E+04-7.71347E+05 1.89728E+02 8.91427E+04-1.87164E+02-5.61632E+02
 -1      3857-1.67736E+03-4.69672E+05-1.77880E+03 1.05505E+05-8.00649E+02 1.43421E+02
 -1      3858 9.56237E+03-3.13633E+05 1.10128E+01 1.13415E+05-6.25949E+02-6.41061E+02
 -1      3859-2.63383E+03-7.19018E+05 5.41915E+02 1.08134E+05-2.30150E+01-5.81139E+02
 -1      3860-4.23283E+03-1.18959E+06 1.44007E+03 8.92581E+04-1.33685E+03-1.20085E+03
 -1      3861-1.95592E+04-1.21524E+06-6.97951E+02 9.23499E+04-1.54195E+03 2.61203E+02
 -1      3862-3.67737E+04-1.10761E+06-1.99658E+03 8.64405E+04 2.51885E+02-1.94446E+03
 -1      3863-2.65468E+02-1.03199E+06-8.99726E+01 9.72741E+04-7.29189E+02-2.85491E+02
 -1      3864 1.66039E+04 1.22015E+06-1.76806E+03 1.08925E+05 4.41111E+02 2.31188E+02
 -1      3865 1.61102E+04 9.67154E+05 2.67177E+03 1.17965E+05 3.25380E+02-1.10412E+03
 -1      3866 2.12604E+04 5.51546E+05 1.00693E+03 1.24323E+05 6.05085E+01-9.06582E+02
 -1      3867 3.01536E+04 3.99202E+05 2.16741E+03 1.17265E+05-1.09010E+03-7.58606E+02
 -1      3868 4.91522E+04 7.16615E+05 2.73949E+03 1.14248E+05-6.57834E+02 5.82173E+02
 -1      3869 1.57350E+04 9.27960E+04 3.90119E+02 1.18532E+05-1.03584E+03 3.80789E+02
 -1      3870 6.25240E+04 1.06666E+06-6.32965E+02 1.16849E+05-1.87168E+03-6.74983E+02
 -1      3871 4.14248E+04 1.22139E+06 1.19358E+02 1.23433E+05 1.02942E+03-6.75592E+02
 -1      3872-1.93566E+03-1.01810E+06 3.76456E+01 7.69511E+04-1.04100E+03 4.47268E+02
 -1      3873-1.81451E+03-7.22781E+05 7.75065E+02 9.96891E+04-9.31746E+02-5.96332E+02
 -1      3874-9.47289E+01-9.94942E+05 1.96197E+03 8.20201E+04-1.58002E+03-3.94186E+02
 -1      3875-3.60816E+03-4.56621E+05 4.88695E+02 1.09066E+05-3.91307E+02-2.18314E+02
 -1      3876-5.37702E+03-8.93431E+04-3.98227E+02 1.18437E+05 2.68682E+02-7.26359E+02
 -1      3877-2.75419E+03-3.27628E+05 9.01973E+02 1.13140E+05-9.20064E+02-3.37546E+02
 -1      3878-4.38847E+03-6.08666E+05-7.40859E+02 1.08495E+05-5.68118E+02-2.15331E+02
 -1      3879-1.13311E+03-1.01533E+06 6.84854E+02 8.30813E+04-1.21422E+03 5.13980E+02
 -1      3880-1.00385E+03-9.21666E+05 5.02849E+02 9.02151E+04-1.02851E+03-2.29177E+02
 -1      3881-1.25186E+03-8.61389E+05-1.78742E+02 1.03195E+05-2.92182E+02 7.87615E+02
 -1      3882-1.52231E+03-1.08973E+06 1.54260E+02 8.85646E+04-7.96474E+02-5.96770E+01
 -1      3883-2.47239E+03-4.98782E+05 3.63791E+02 1.16242E+05 2.63347E+02-8.22350E+00
 -1      3884-5.19236E+02-6.81458E+05 1.83195E+02 1.14525E+05 5.04944E+01 5.10562E+02
 -1      3885 4.00858E+01-3.67662E+05 1.96488E+03 1.21245E+05 8.17895E+02 3.80990E+02
 -1      3886-4.06430E+03-9.60919E+04-3.48555E+02 1.26356E+05 3.39921E+02-5.99085E+02
 -1      3887-3.18155E+02-1.08983E+06-3.05711E+02 9.14452E+04-7.70976E+02 2.83207E+02
 -1      3888 3.36666E+02-9.98329E+05-4.47505E+01 9.67826E+04-5.76964E+02-2.41700E+02
 -1      3889-3.71757E+03 2.88533E+05 7.45925E+02 1.22377E+05 1.87391E+02-5.58836E+02
 -1      3890-7.88562E+03 6.48959E+05-4.83724E+02 1.13825E+05 1.35867E+02-6.59131E+02
 -1      3891-4.43500E+03 4.01239E+05-2.35517E+02 1.21794E+05-1.61533E+02 5.15410E+01
 -1      3892-2.89875E+03 6.65638E+05 8.46437E+02 1.17117E+05-5.90542E+01 2.07889E+02
 -1      3893-8.03824E+03 1.08768E+06 3.03454E+02 9.41782E+04 9.56120E+02 3.27161E+02
 -1      3894-8.10556E+03 1.05548E+06-2.86281E+02 9.22169E+04 1.03114E+03-5.49223E+02
 -1      3895-6.12964E+03 9.84728E+05 1.67103E+02 1.00136E+05 5.91521E+02 1.81301E+01
 -1      3896-7.10308E+03 9.37582E+05 5.16874E+02 9.58669E+04 7.83763E+02-2.39489E+01
 -1      3897-5.10565E+03 2.25199E+05 6.84240E+02 1.15263E+05 1.76567E+02-3.00910E+02
 -1      3898-8.66029E+03 5.43859E+05-4.63467E+02 1.06856E+05-2.07641E+01-5.39879E+02
 -1      3899-6.96128E+03 3.64609E+05-5.18756E+02 1.12364E+05 5.14040E+01-3.17834E+02
 -1      3900-7.24879E+03 6.55213E+05 3.55469E+02 1.06214E+05 4.81253E+01-9.96532E+02
 -1      3901-8.31292E+03 9.74748E+05 2.78093E+02 8.37819E+04 6.44147E+02-6.38727E+01
 -1      3902-8.51148E+03 9.16230E+05-5.54735E+02 8.68508E+04 1.03319E+03-5.94831E+02
 -1      3903-7.38122E+03 7.71721E+05 1.07743E+02 9.20276E+04 8.23855E+02 3.51182E+00
 -1      3904-1.01065E+04 9.36886E+05-1.33814E+03 8.80711E+04 1.11369E+03-5.21510E+02
 -1      3905 9.99272E+04 9.16188E+05-5.76420E+03 6.56980E+04-4.76703E+02 1.43722E+03
 -1      3906 1.41593E+05 1.37778E+06 4.38675E+03 1.13613E+05 1.01156E+03 1.26991E+03
 -1      3907 1.18201E+05 1.56253E+06-9.49274E+02 1.36343E+05 3.88974E+03 2.08441E+02
 -1      3908 8.49039E+04 1.38866E+06-1.14941E+03 1.20638E+05 1.24473E+03 1.79946E+03
 -1      3909 8.28184E+04 8.72602E+05-4.84271E+03 1.00095E+05-1.34237E+03 2.50900E+02
 -1      3910-5.06856E+04-9.00952E+05 1.29511E+03 7.20150E+04 5.33874E+01-3.99429E+01
 -1      3911-6.15880E+04-1.35345E+06-1.78747E+03 8.40956E+04-1.63579E+03-1.21372E+03
 -1      3912-9.13226E+04-1.48399E+06 7.67697E+02 8.64159E+04-3.86819E+02 1.48389E+03
 -1      3913-1.08407E+05-1.29811E+06 9.26519E+02 6.37895E+04 4.15490E+03 8.72790E+02
 -1      3914-6.23229E+04-8.30490E+05-3.03906E+02 3.69745E+04-1.01179E+03 1.17214E+02
 -1      3915-8.61542E+03 4.74731E+03-2.53161E+01 5.89146E+03-4.63373E+01-4.68871E+01
 -1      3916-8.87077E+03 3.87044E+03-3.24961E+01 4.63252E+03-2.09961E+01-4.46529E+01
 -1      3917-6.08190E+03 1.37878E+03-2.86898E+01 3.80885E+03 5.48094E-01-3.51220E+01
 -1      3918-7.47004E+03 2.54377E+03-1.93809E-01 4.28192E+03 5.98687E+00-5.09005E+01
 -1      3919-8.57810E+03 2.88643E+03 7.07201E+01 3.85622E+03 2.67210E+01-6.21026E+01
 -1      3920-9.55512E+03 3.67728E+05 3.98717E+02 4.62881E+04 2.92357E+02-1.08732E+02
 -1      3921-7.92899E+03 2.51570E+05 4.32991E+02 5.89170E+04 8.14733E+01 3.69810E+02
 -1      3922-9.67458E+03 4.27055E+05 1.72444E+02 4.12434E+04 4.74910E+02 2.64679E+02
 -1      3923-9.73144E+03 4.62840E+05 1.03135E+02 5.28061E+04 3.75644E+02-5.65812E+02
 -1      3924-6.85247E+03 3.13617E+05 3.48543E+02 6.67397E+04 1.83657E+02 4.15340E+02
 -1      3925-8.62214E+03 5.37076E+05-9.03139E+01 4.72304E+04 8.41200E+02-1.23387E+02
 -1      3926-8.70305E+03 2.79747E+05 4.93915E+02 4.02632E+04 5.28803E+02 3.87090E+02
 -1      3927-7.61424E+03 1.95927E+05-2.15506E+01 5.06941E+04 1.07060E+02-8.00093E+01
 -1      3928-9.12672E+03 3.26531E+05 2.86998E+01 3.54632E+04 3.87420E+02 2.04461E+02
 -1      3929-7.97074E+03 2.03010E+05-6.54156E+02 5.27115E+04-3.59621E+01 3.98391E+02
 -1      3930-9.41863E+03 3.03005E+05-4.16241E+02 4.22544E+04 3.95753E+02 1.67028E+02
 -1      3931-8.95534E+03 1.93252E+05-1.20592E+01 3.55532E+04 2.36452E+02-1.28992E+02
 -1      3932-9.38480E+03 2.25131E+05-4.49864E+01 3.25173E+04 3.80371E+02 1.46436E+02
 -1      3933-9.14815E+03 2.12702E+05-1.42743E+02 3.73302E+04 2.79583E+02 3.49060E+02
 -1      3934-8.19704E+03 5.75478E+05 8.46286E+02 5.94572E+04 4.73926E+02 5.71871E+02
 -1      3935-7.13582E+03 3.87718E+05-1.71487E+02 7.42185E+04-1.27117E+02-5.76929E+02
 -1      3936-9.39349E+03 6.63142E+05-2.80183E+01 5.18910E+04 2.97774E+02-9.95419E+01
 -1      3937-1.49280E+03-1.32375E+06-1.10621E+02 8.22306E+04-6.78157E+02 3.49068E+02
 -1      3938 2.44999E+03-8.55990E+05 2.56444E+02 1.04666E+05-4.03809E+02-1.04141E+01
 -1      3939 9.61438E+02-1.45301E+06 2.41847E+02 7.08006E+04-7.69776E+02-3.08897E+02
 -1      3940 2.41247E+02-8.66944E+05-8.93368E+02 1.05848E+05-5.21460E+02 6.02615E+01
 -1      3941 1.08007E+03-1.27990E+06-2.22468E+02 8.19193E+04-7.43134E+02-8.09213E+02
 -1      3942-8.71673E+03 1.31792E+05 8.89632E+01 2.91987E+04 1.92805E+02-1.30186E+02
 -1      3943-9.42161E+03 1.54825E+05-3.11361E+01 2.69321E+04 3.56835E+02 3.11494E+01
 -1      3944-9.12723E+03 1.47695E+05-1.72665E+02 3.12530E+04 3.70332E+02 1.78386E+02
 -1      3945-8.44215E+03 7.03289E+05-1.87979E+02 6.44145E+04 4.29238E+02 7.61355E+02
 -1      3946-6.87356E+03 4.76134E+05-1.15243E+03 8.13016E+04-1.84654E+02-1.57267E+02
 -1      3947-9.64461E+03 8.08376E+05-1.19547E+03 5.69941E+04 6.98947E+02 4.43843E+01
 -1      3948-8.70122E+03 8.13034E+04 8.51932E+01 2.29676E+04 1.05453E+02 2.28128E+02
 -1      3949-9.10046E+03 9.76333E+04-4.52890E+01 2.09730E+04 2.77546E+02-2.38427E+01
 -1      3950-9.07765E+03 9.51070E+04-2.43598E+02 2.47013E+04 2.56273E+02-2.12502E+02
 -1      3951-1.23377E+03-3.60956E+03-3.57526E+01 4.00463E+03-3.85255E+01 2.30491E+01
 -1      3952-9.52948E+02-5.05081E+03 1.47885E+01 4.31641E+03-5.03228E+01-1.32278E+01
 -1      3953-1.20119E+03-6.65845E+03-2.36317E+01 5.79710E+03-7.35925E+01 9.41377E+00
 -1      3954-1.04539E+03-1.84922E+04-1.57802E+02 9.93977E+03-1.96603E+01-3.25627E+00
 -1      3955-7.00931E+02-2.33298E+04 1.85152E+01 9.18584E+03-6.68667E+01-4.71484E+01
 -1      3956-8.80584E+02-2.48559E+04 1.39320E+02 1.16827E+04-4.48241E+01-1.33310E+02
 -1      3957-8.90987E+03 4.25925E+04 4.35987E+01 1.68350E+04 8.52924E+01-1.11294E+02
 -1      3958-9.06671E+03 5.22752E+04-8.20166E+00 1.61759E+04 2.87011E+01-7.50668E+01
 -1      3959-8.44036E+03 5.29744E+04-6.18338E+01 1.85627E+04 1.60561E+02 7.93398E+01
 -1      3960-1.45501E+03-4.20647E+04-3.40091E+01 1.69693E+04-1.11672E+02-1.59785E+02
 -1      3961-9.50055E+02-5.08727E+04 2.01802E+02 1.59232E+04-2.24399E+02-1.60154E+02
 -1      3962-1.15529E+03-5.19988E+04 1.07802E+02 1.86155E+04-1.57041E+02-2.06664E+02
 -1      3963-1.26759E+03-8.29836E+04-2.69950E+02 2.23394E+04-9.71182E+01-7.65084E+01
 -1      3964-5.49089E+02-9.86325E+04 4.87920E+01 2.00980E+04-2.02639E+02-4.95794E+01
 -1      3965-9.63892E+02-9.63201E+04 9.25908E+00 2.38925E+04-1.26879E+02-1.67153E+01
 -1      3966-8.94922E+03 1.79030E+04 1.02965E+02 1.03500E+04 2.09789E+01 3.66995E+01
 -1      3967-9.00776E+03 2.28422E+04-7.12009E+01 1.01283E+04-3.18521E+01 2.94710E+01
 -1      3968-8.89983E+03 2.45296E+04-1.10789E+02 1.20914E+04 4.22056E+01 4.41987E+01
 -1      3969-1.22960E+03-1.33479E+05-1.32075E+02 2.81272E+04-1.36766E+02 4.11865E+01
 -1      3970-1.06299E+03-1.57927E+05 5.35829E+01 2.51990E+04-2.24400E+02 1.08598E+02
 -1      3971-7.66454E+02-1.49885E+05 4.02555E+02 2.99474E+04-1.96107E+02 1.86762E+02
 -1      3972-1.32783E+03-1.96268E+05-4.88123E+02 3.42726E+04-3.44651E+02 2.09300E+02
 -1      3973-5.03522E+02-2.29040E+05-4.52553E+01 3.04215E+04-1.95374E+02 3.98333E+01
 -1      3974-1.56582E+03-2.16831E+05 5.45309E+02 3.55130E+04-2.49765E+02-2.44411E+02
 -1      3975-9.65339E+02-2.71142E+05-5.31550E+01 4.02154E+04-3.69285E+02-1.48887E+02
 -1      3976-2.47424E+02-3.15082E+05 5.00479E+01 3.59524E+04-4.40993E+02 1.19523E+02
 -1      3977-5.79518E+02-2.95400E+05 8.65243E+01 4.19271E+04-3.32081E+02 3.67865E+02
 -1      3978-1.87301E+03-3.51316E+05-7.29999E+02 4.65793E+04-3.71436E+02 1.88575E+02
 -1      3979-1.39363E+03-4.05472E+05-4.37258E+02 4.19579E+04-5.39505E+02 1.37210E+02
 -1      3980-5.32454E+02-3.78350E+05 5.10646E+01 4.85988E+04-4.23334E+02 2.22076E+02
 -1      3981-1.52836E+03-4.47937E+05-2.85296E+02 5.25037E+04-1.85742E+02-1.94434E+02
 -1      3982-8.59245E+02-5.14143E+05 6.62683E+01 4.78948E+04 1.80472E+01-3.41231E+01
 -1      3983-7.17909E+02-4.79509E+05 4.33436E+02 5.43547E+04-3.99824E+02 1.29200E+02
 -1      3984-1.56839E+03-5.57263E+05 1.31776E+02 5.88957E+04-1.95282E+02-1.73147E+02
 -1      3985-2.76745E+02-6.35992E+05 4.22454E+02 5.28706E+04-5.65923E+02-1.89217E+02
 -1      3986-1.04459E+03-5.91939E+05-5.44957E+01 6.08491E+04-2.87013E+02-5.22392E+02
 -1      3987-1.60313E+03-6.78415E+05-3.60035E+01 6.48809E+04-4.56026E+02-5.43133E+02
 -1      3988-7.33900E+02-7.73292E+05 1.17275E+02 5.85385E+04-7.63374E+02-1.16219E+02
 -1      3989-9.35322E+02-7.16184E+05 2.11617E+01 6.69659E+04-5.03759E+02 3.89494E+02
 -1      3990-2.01909E+03-5.96695E+05-6.42544E+02 8.70532E+04-1.63207E+02 5.08978E+02
 -1      3991-2.14126E+03-8.44775E+05-6.99105E+02 6.88719E+04-3.37969E+02 6.11881E+02
 -1      3992-6.36577E+02-9.70755E+05-3.54514E+02 5.94745E+04-6.07311E+02 3.65036E+02
 -1      3993-4.22242E+02-8.84634E+05-4.82931E+01 7.06821E+04-2.92775E+02 4.99049E+02
 -1      3994-1.01875E+03-5.86301E+05 4.68692E+02 8.94153E+04 5.00005E+02 5.22702E+02
 -1      3995-7.58006E+03 9.08413E+05 1.18010E+02 9.26961E+04 3.73367E+01-4.03678E+02
 -1      3996-8.52337E+03 8.65414E+05-1.23972E+03 9.76988E+04 7.89625E+02-2.26969E+02
 -1      3997-9.66418E+03 8.36977E+05 8.90964E+02 7.03269E+04 5.01080E+02-1.58387E+02
 -1      3998-8.52314E+03 5.74119E+05 4.15585E+02 8.91149E+04 6.66108E+01 7.05990E+02
 -1      3999-1.06466E+04 9.53916E+05-3.51311E+02 6.27022E+04 7.20829E+02-1.21429E+01
 -1      4000-1.04827E+03-9.05390E+05 1.68976E+02 8.12926E+04-7.13945E+02-6.83488E+02
 -1      4001 2.38580E+02-1.03257E+06 4.69608E+02 7.41902E+04-1.49805E+03-4.57342E+01
 -1      4002-6.68223E+03 6.24997E+05 4.06767E+02 9.87945E+04 2.11963E+02 6.55699E+02
 -1      4003-3.38461E+03-6.61984E+04 5.50766E+02-1.48327E+04 2.98272E+02 2.84697E+01
 -1      4004 1.87163E+04 1.21375E+05-1.88803E+02 4.69240E+04-1.32916E+02-1.19806E+02
 -1      4005 5.95926E+03 1.43162E+05 1.23477E+02 2.80807E+04-1.67843E+02 2.32085E+01
 -1      4006-1.68712E+04-8.46065E+04-5.71059E+01-3.59631E+04 3.92630E+02 4.93893E+01
 -1      4007-1.07677E+02-5.21198E+04 6.93842E+02-2.90344E+03 4.64378E+02 7.26616E+01
 -1      4008 4.30432E+04 1.06625E+05-1.63903E+03 6.71317E+04-1.36305E+02-1.59276E+02
 -1      4009 9.50235E+02 1.62929E+05-1.19367E+02 2.11765E+03-5.57096E+01 1.02624E+01
 -1      4010-4.17224E+04-9.67767E+04-8.68808E+02-6.39437E+04 3.30079E+02 2.43397E+02
 -1      4011 7.90902E+04 9.75603E+04-1.67647E+04 8.93987E+04-5.22113E+02 1.43784E+02
 -1      4012-4.58765E+02-4.86844E+04 3.72611E+02 5.87553E+03 1.83102E+02-8.52812E+01
 -1      4013 5.45405E+03 1.75928E+05-2.84842E+02-2.80353E+04-1.88170E+02 3.98187E+01
 -1      4014-8.09733E+04-9.22119E+04-1.11644E+03-8.26674E+04 1.32017E+02 1.68302E+02
 -1      4015-5.65393E+03-5.66704E+04 2.53250E+02 1.71645E+04 9.82388E+01 1.58888E+01
 -1      4016-1.22866E+05-7.10736E+04 3.95750E+02-9.18823E+04-2.12362E+01-7.19671E+01
 -1      4017 2.16107E+04 1.76095E+05-1.75518E+03-5.89559E+04-1.70543E+02 9.52024E+01
 -1      4018-1.71237E+04-7.10546E+04 8.12975E+01 3.51806E+04 2.08891E+02-3.91293E+02
 -1      4019-1.59949E+05-4.58630E+04 2.41120E+03-8.33228E+04-2.58228E+02-2.89202E+02
 -1      4020 4.66587E+04 1.62929E+05-3.15871E+03-8.62374E+04-1.06448E+02 2.55029E+02
 -1      4021-3.81917E+04-8.53588E+04 3.40530E+03 5.90287E+04-1.24769E+02 1.59819E+02
 -1      4022-1.91326E+05-1.46895E+04-4.75765E+03-5.82580E+04 2.82650E+02-2.44481E+03
 -1      4023 8.45635E+04 1.32076E+05 5.80361E+03-1.08080E+05 1.17568E+03-2.01671E+03
 -1      4024-8.68244E+04-1.07559E+05 1.91422E+04 1.02360E+05-1.89915E+02 2.55598E+02
 -1      4025 1.15895E+04 1.31451E+05-2.86786E+02 3.82903E+04-1.45377E+02-6.51234E+01
 -1      4026-8.19505E+03-7.62090E+04 3.84562E+02-2.45518E+04 2.90165E+02 3.20322E+01
 -1      4027-1.33185E+03-5.81052E+04 8.52415E+02-7.59053E+03 1.38431E+02-1.76481E+02
 -1      4028 3.05553E+04 1.12723E+05-8.63827E+01 5.98332E+04-6.92613E+02-2.52835E+02
 -1      4029 2.35379E+03 1.51928E+05-4.48281E+01 1.50818E+04-4.27107E+01-6.19317E+01
 -1      4030-2.71496E+04-9.15818E+04 2.35999E+02-4.94200E+04 4.04595E+02 1.46182E+02
 -1      4031 6.09097E+04 1.01540E+05-5.65393E+03 7.99392E+04-4.61766E+02 1.05847E+02
 -1      4032 9.33380E+01-4.89462E+04 6.38631E+02 1.86400E+03 9.63096E+01-6.22151E+01
 -1      4033-5.98669E+04-9.35909E+04-6.88406E+02-7.36372E+04 1.88670E+02 2.03394E+02
 -1      4034 2.14187E+03 1.72397E+05 2.11494E+02-1.24799E+04-3.26195E+02 5.35143E+01
 -1      4035-2.35151E+03-5.22870E+04 3.92344E+02 1.15703E+04 4.64155E+01-1.05312E+02
 -1      4036 1.55348E+05 1.33805E+05-3.72083E+04 1.54317E+05 8.67784E+02 5.86883E+02
 -1      4037 1.37483E+04 1.78376E+05-5.32553E+02-4.28423E+04-2.19283E+02 3.34637E+00
 -1      4038-1.01760E+05-8.20809E+04-3.99715E+02-8.92252E+04 1.14913E+01 8.66036E+01
 -1      4039-1.13290E+04-6.35178E+04-1.69927E+02 2.56845E+04 9.80797E+01 4.15482E+01
 -1      4040-1.42352E+05-5.87589E+04 1.23624E+03-8.92338E+04-1.42813E+02-1.32139E+02
 -1      4041 3.24216E+04 1.71013E+05-2.86859E+03-7.26430E+04-4.75390E+01 5.31493E+01
 -1      4042-1.78164E+05-2.94478E+04 2.50869E+03-7.35099E+04-1.95236E+02-2.14056E+02
 -1      4043-2.69636E+04-7.95529E+04 2.97642E+02 4.80757E+04 2.21867E+01-1.37510E+02
 -1      4044 6.45462E+04 1.48355E+05-1.63999E+03-9.75270E+04 6.73416E+01-4.99754E+02
 -1      4045-6.41986E+04-9.68695E+04 6.42036E+03 8.19192E+04-1.55542E+02 1.96834E+02
 -1      4046-1.96453E+05-7.27460E+03-2.10018E+04-4.61187E+04 7.52000E+02 8.58605E+03
 -1      4047 1.00857E+05 1.14583E+05 2.15108E+04-1.11265E+05-6.55006E+03 7.60765E+03
 -1      4048-1.65667E+05-1.75533E+05 3.81847E+04 1.83417E+05-1.06347E+02 1.36083E+02
 -1      4049-1.98406E+05-3.52145E+03-3.70057E+04-3.81357E+04-1.63660E+03-8.48383E+03
 -1      4050 1.09923E+05 1.08366E+05 4.01084E+04-1.12679E+05 6.16016E+03-5.97434E+03
 -1      4051 2.03463E+05 1.64357E+05-3.30588E+04 1.92016E+05-3.56718E+04-3.74734E+04
 -1      4052 2.06752E+05 1.69066E+05-3.16281E+04 2.10681E+05 3.57552E+04 3.76022E+04
 -1      4053-2.10866E+05-2.15852E+05 2.96727E+04 2.17779E+05 3.47321E+04-2.73057E+04
 -1      4054-2.10852E+05-2.16138E+05 2.98090E+04 2.17895E+05-3.44653E+04 2.74021E+04
 -1      4055-1.91099E+05-1.84979E+04-1.72971E+02-6.09406E+04-1.12893E+03 1.11486E+03
 -1      4056 8.09396E+04 1.35330E+05-3.43906E+03-1.07008E+05 1.54700E+02-3.14888E+02
 -1      4057-2.90290E+05-3.76424E+05 8.49645E+03 3.19672E+05-3.25647E+04 3.10644E+04
 -1      4058-2.60792E+05-2.93984E+05 1.19631E+04 2.62658E+05-5.79591E+04 3.63325E+04
 -1      4059-2.88945E+05-1.36530E+05-3.53425E+03 2.05619E+05-6.72248E+04 9.52415E+04
 -1      4060-2.38474E+05-1.60169E+05-7.17648E+04 1.92583E+05-1.50826E+05 1.66072E+05
 -1      4061-2.45625E+05-1.83559E+05-1.46207E+04 2.31120E+05-6.18614E+04 6.67134E+04
 -1      4062-1.92950E+05-1.67376E+05 5.47518E+03 1.80846E+05-4.72424E+04 4.55446E+04
 -1      4063-1.66965E+05-1.46051E+05 1.96516E+04 1.62777E+05-1.80920E+04 2.28158E+04
 -1      4064-2.90226E+05-3.76302E+05 8.27711E+03 3.19692E+05 3.28137E+04-3.10272E+04
 -1      4065-2.60703E+05-2.93817E+05 1.18635E+04 2.62337E+05 5.83710E+04-3.64571E+04
 -1      4066-2.38564E+05-1.54664E+05-6.79163E+04 1.91567E+05 1.51716E+05-1.64198E+05
 -1      4067-2.92082E+05-1.39629E+05-6.02323E+03 2.06653E+05 6.69480E+04-9.48941E+04
 -1      4068-2.44372E+05-1.82375E+05-1.46550E+04 2.30119E+05 6.19923E+04-6.69005E+04
 -1      4069-1.92749E+05-1.66820E+05 5.28670E+03 1.80571E+05 4.72806E+04-4.56591E+04
 -1      4070-1.66893E+05-1.45691E+05 1.96550E+04 1.62652E+05 1.80962E+04-2.27428E+04
 -1      4071 2.59142E+05 1.73666E+05 6.51422E+04 1.88700E+05 1.61517E+05 1.60110E+05
 -1      4072 2.65983E+05 1.29033E+05 1.38591E+04 2.00068E+05 7.83621E+04 9.25923E+04
 -1      4073 2.36273E+05 1.70083E+05 5.95268E+03 1.99720E+05 6.28936E+04 6.87603E+04
 -1      4074 1.79008E+05 1.20272E+05-1.95800E+04 1.65576E+05 2.59245E+04 3.64183E+04
 -1      4075 2.69306E+05 2.33746E+05-8.45079E+03 2.57366E+05 7.42973E+04 6.74852E+04
 -1      4076 2.91114E+05 3.11756E+05-1.98475E+04 3.07553E+05 1.37568E+04 2.05529E+04
 -1      4077 2.58078E+05 1.24501E+05 1.16784E+04 2.00480E+05-7.58660E+04-9.36778E+04
 -1      4078 2.62857E+05 1.69190E+05 7.14510E+04 1.93477E+05-1.64434E+05-1.66108E+05
 -1      4079 2.28271E+05 1.60948E+05 7.77605E+03 2.02099E+05-6.28485E+04-7.52376E+04
 -1      4080 1.85353E+05 1.18836E+05-2.23675E+04 1.65952E+05-3.21124E+04-3.82942E+04
 -1      4081 2.93336E+05 2.67530E+05 1.95634E+03 2.49593E+05-6.58919E+04-5.97935E+04
 -1      4082 2.96766E+05 3.10484E+05-1.59589E+04 2.86398E+05-2.07335E+04-2.37906E+04
 -1      4083 1.21100E+05 1.33412E+05 6.37220E+04-1.21121E+05 4.23099E+03-6.11250E+03
 -1      4084 1.21757E+05 1.30624E+05 5.37522E+04-1.19849E+05 1.29956E+04-1.91341E+04
 -1      4085 1.02804E+05 1.13160E+05 1.04198E+04-1.09908E+05 3.31551E+03-2.48721E+03
 -1      4086 1.12084E+05 1.28188E+05 5.04905E+04-1.17875E+05-6.19502E+03 7.47513E+03
 -1      4087 1.16265E+05 1.28529E+05 3.86859E+04-1.18148E+05-1.30698E+04 1.89498E+04
 -1      4088 1.02261E+05 1.13855E+05 2.37463E+03-1.09013E+05-5.28244E+02 3.67026E+03
 -1      4089-1.98872E+05-1.20200E+04-7.34929E+03-4.66116E+04 8.01470E+01 3.21223E+03
 -1      4090-2.13099E+05-1.32835E+04-3.51129E+04-4.67978E+04-3.17419E+02 2.11257E+04
 -1      4091-2.09384E+05-1.17455E+04-4.61449E+04-4.80232E+04 7.01892E+02 8.61765E+03
 -1      4092-2.19649E+05-1.53726E+04-5.87628E+04-4.69971E+04-1.00993E+02-7.25664E+03
 -1      4093-2.17751E+05-1.47758E+04-4.93039E+04-4.51597E+04-2.22682E+02-2.18815E+04
 -1      4094-1.95056E+05-7.49353E+03-9.48218E+03-4.20100E+04-1.03057E+03-4.21694E+03
 -1      4095-1.86485E+05-1.89395E+05 3.66902E+04 2.00299E+05 1.96109E+04-1.80885E+04
 -1      4096-2.41589E+05-3.16360E+05 3.35342E+04 2.92668E+05-8.76067E+00 5.10068E+01
 -1      4097-1.86451E+05-1.89585E+05 3.68205E+04 2.00358E+05-1.95594E+04 1.82349E+04
 -1      4098-2.14001E+05-1.50081E+05-1.23271E+05 1.45440E+05-1.90669E+05 1.54438E+05
 -1      4099-1.72541E+05-1.59114E+05-1.22518E+05 1.27789E+05-1.76778E+05 1.56191E+05
 -1      4100-1.31047E+05-4.75553E+04-1.41037E+05 5.01899E+04-9.88432E+04 6.85884E+04
 -1      4101-5.95812E+04-1.01573E+05-1.28241E+05 2.24303E+04-1.23101E+05 3.50593E+04
 -1      4102-5.00147E+04-2.69713E+04-7.85823E+04-3.55608E+03-5.05767E+04-1.82644E+04
 -1      4103-2.39954E+04-4.06543E+04-6.07291E+04-1.94837E+04-5.03237E+04-4.64593E+04
 -1      4104-5.60141E+03 2.51968E+04 1.87592E+04-1.87665E+04 3.93884E+04-5.20399E+04
 -1      4105 7.28415E+03 2.46713E+04 3.73976E+04-2.23326E+04 3.97798E+04-5.12072E+04
 -1      4106 2.62573E+04 2.37324E+04 9.60352E+04 7.52235E+03 7.98090E+04 2.34145E+04
 -1      4107 4.30841E+04 8.27204E+04 1.23885E+05 6.26946E+03 1.23772E+05 3.76301E+04
 -1      4108 9.47624E+04 1.05669E+05 1.56032E+05 8.04745E+04 1.79562E+05 1.12144E+05
 -1      4109 1.34053E+05 1.42827E+05 1.37653E+05 8.18296E+04 1.82736E+05 1.23317E+05
 -1      4110 2.10456E+05 9.44304E+04 9.51246E+04 1.61005E+05 1.49144E+05 1.83707E+05
 -1      4111-2.19326E+05-1.58284E+05-1.28732E+05 1.50991E+05 1.93133E+05-1.58657E+05
 -1      4112-1.34812E+05-5.53500E+04-1.48739E+05 5.10620E+04 1.03591E+05-6.78898E+04
 -1      4113-1.73051E+05-1.58958E+05-1.26949E+05 1.27208E+05 1.85083E+05-1.58785E+05
 -1      4114-4.85402E+04-2.91606E+04-8.12770E+04-1.54759E+03 5.14159E+04 1.88992E+04
 -1      4115-6.06373E+04-1.08452E+05-1.35150E+05 2.13517E+04 1.31527E+05-3.24651E+04
 -1      4116-7.27948E+03 2.25540E+04 1.96511E+04-1.98506E+04-3.86540E+04 5.38632E+04
 -1      4117-2.60015E+04-4.37487E+04-6.12310E+04-1.62549E+04 5.18467E+04 4.58675E+04
 -1      4118 2.88002E+04 1.68174E+04 1.00625E+05 1.10576E+04-8.00467E+04-2.00833E+04
 -1      4119 9.27905E+03 2.43512E+04 3.99167E+04-2.28823E+04-4.21258E+04 5.38901E+04
 -1      4120 9.82542E+04 1.04899E+05 1.60894E+05 7.67822E+04-1.82117E+05-1.09216E+05
 -1      4121 4.08871E+04 7.23728E+04 1.26532E+05 8.19037E+03-1.20787E+05-3.45033E+04
 -1      4122 2.05313E+05 8.60376E+04 9.33360E+04 1.58761E+05-1.46940E+05-1.85830E+05
 -1      4123 1.30272E+05 1.46317E+05 1.41483E+05 8.10228E+04-1.86544E+05-1.21014E+05
 -1      4124 1.21875E+05 1.29732E+05 6.60860E+04-1.20983E+05 1.09769E+03 6.68674E+02
 -1      4125 1.06080E+05 1.08189E+05 3.41779E+04-1.11360E+05-5.96498E+02 1.50847E+03
 -1      4126 6.99813E+04 1.42228E+05-1.10105E+03-9.84963E+04 4.40979E+02-3.69161E+02
 -1      4127 8.57761E+04 1.27635E+05-7.03108E+03-1.07935E+05-2.57146E+03-4.37071E+03
 -1      4128 9.04006E+04 1.24442E+05 7.83254E+03-1.09003E+05-3.82511E+03 4.49399E+03
 -1      4129 3.93225E+04 1.66877E+05-1.69434E+03-7.94408E+04 1.06108E+03-5.27846E+02
 -1      4130 5.19653E+04 1.56134E+05-2.70950E+03-9.01159E+04 1.02899E+03-9.06943E+02
 -1      4131 6.18112E+04 1.48723E+05-2.02677E+03-9.50628E+04 1.08024E+03-1.65097E+03
 -1      4132 5.51889E+04 1.55398E+05-2.59121E+03-9.17164E+04 2.11189E+02-2.50979E+02
 -1      4133 7.11949E+04 1.41327E+05-9.04418E+02-1.00842E+05-1.01537E+02 2.30898E+02
 -1      4134 2.56008E+04 1.73158E+05-1.41245E+03-6.65785E+04 7.45716E+02-5.45240E+02
 -1      4135 1.63960E+04 1.77389E+05-9.40593E+02-5.14273E+04 6.41648E+02-4.43546E+02
 -1      4136 3.17340E+04 1.71096E+05-1.53796E+03-7.32896E+04 6.96340E+02-4.22845E+02
 -1      4137 2.74485E+04 1.74405E+05-2.40816E+03-6.55054E+04-1.25833E+02 1.15384E+02
 -1      4138 3.94148E+04 1.67170E+05-2.83658E+03-7.99821E+04-3.79405E+01 7.62402E+01
 -1      4139 2.76042E+03 1.75294E+05-1.44920E+02-2.05483E+04 9.69579E+02 4.25296E+01
 -1      4140 7.38089E+03 1.77390E+05-5.27139E+02-3.68744E+04 1.07776E+03-9.17200E+01
 -1      4141 1.17952E+04 1.78189E+05-5.85005E+02-4.36818E+04 6.34049E+02-3.29868E+02
 -1      4142 1.05845E+04 1.78411E+05-1.92936E+02-3.52751E+04-1.59354E+02-7.36417E+01
 -1      4143 1.83076E+04 1.77154E+05-6.36484E+02-5.09122E+04-2.08762E+02 4.15735E+01
 -1      4144 7.98191E+02 1.67778E+05 1.71159E+01-5.61596E+03 8.85866E+02-6.85319E+01
 -1      4145 1.29395E+03 1.58980E+05-8.78866E+01 9.38909E+03 1.17267E+03-2.35338E+02
 -1      4146 1.38527E+03 1.72000E+05-1.29301E+02-1.29238E+04 7.16536E+02-8.62760E+00
 -1      4147 1.86469E+03 1.68537E+05 3.92659E+01-4.65383E+03-4.22031E+02 9.14958E+01
 -1      4148 3.24610E+03 1.75871E+05 6.77645E+02-2.02480E+04-2.82154E+02 6.65477E+01
 -1      4149 8.48495E+03 1.38702E+05-9.13571E+01 3.28995E+04 1.21646E+03 1.21271E+02
 -1      4150 2.81580E+03 1.49078E+05-3.36969E+02 2.17895E+04 1.09829E+03 2.41144E+02
 -1      4151 1.56412E+03 1.52625E+05-8.22394E+02 1.52774E+04 1.13597E+03 1.72619E+01
 -1      4152 3.44447E+03 1.47582E+05 3.24329E+02 2.16828E+04-2.85344E+02-1.66138E+01
 -1      4153 3.17245E+03 1.58370E+05 9.82688E+02 9.49045E+03-6.90647E+01-2.39539E+02
 -1      4154 1.41062E+04 1.27776E+05-4.44665E+02 4.26180E+04 1.59780E+03 4.61828E+02
 -1      4155 2.33510E+04 1.21290E+05 1.46016E+02 5.28964E+04 1.53621E+03 4.65743E+02
 -1      4156 1.06507E+04 1.33313E+05-5.10940E+02 3.79746E+04 1.50811E+03 4.43661E+02
 -1      4157 1.47608E+04 1.25727E+05-3.12142E+02 4.29526E+04-1.61158E+02-1.13142E+02
 -1      4158 9.78579E+03 1.38002E+05 4.20663E+01 3.36120E+04-1.69662E+02 1.00362E+01
 -1      4159 5.01788E+04 1.07491E+05-1.10955E+03 7.50821E+04 1.57835E+03 7.07992E+02
 -1      4160 3.41466E+04 1.12415E+05-1.09565E+03 6.16387E+04 1.92915E+03 5.77767E+02
 -1      4161 2.84324E+04 1.17329E+05-2.87033E+02 5.80886E+04 1.65079E+03 1.13402E+03
 -1      4162 2.32629E+04 1.17173E+05-8.26764E+02 5.26098E+04-1.20064E+02-1.24918E+02
 -1      4163 3.78240E+04 1.10514E+05-1.82181E+02 6.35143E+04-6.84253E+01-2.62428E+02
 -1      4164 6.89526E+04 1.01288E+05-7.03758E+03 8.56374E+04-5.18719E+01 3.22167E+02
 -1      4165 9.41539E+04 1.00093E+05-1.14415E+04 9.88914E+04-4.08355E+03-3.87882E+03
 -1      4166 5.83174E+04 1.02341E+05-3.51332E+03 7.95866E+04 7.08631E+02 1.37400E+03
 -1      4167 5.32690E+04 1.03623E+05-3.24570E+03 7.35231E+04-5.27598E+02 3.15584E+01
 -1      4168 6.96346E+04 1.01080E+05-9.54056E+03 8.43999E+04-6.75855E+02-6.12393E+01
 -1      4169 1.48773E+05 1.22418E+05-2.19567E+04 1.42359E+05-1.38558E+04-2.19089E+04
 -1      4170 1.29111E+05 1.16348E+05-1.94703E+04 1.23910E+05-6.42367E+03-6.30105E+03
 -1      4171 1.06859E+05 1.15001E+05-2.88992E+04 1.14578E+05-1.16611E+03 4.42878E+02
 -1      4172 1.74201E+05 1.43685E+05-3.82960E+04 1.74166E+05-1.70181E+04-1.87053E+04
 -1      4173-1.06572E+05-1.07386E+05 1.52118E+04 1.12511E+05 7.60383E+03-6.69605E+03
 -1      4174-7.51873E+04-1.01196E+05 8.74825E+03 8.93599E+04 5.23684E+02-1.49928E+03
 -1      4175-1.45606E+05-1.35448E+05 2.35958E+04 1.41602E+05 1.24396E+04-1.05176E+04
 -1      4176-1.19507E+05-1.36289E+05 2.89942E+04 1.32292E+05-1.25003E+02 2.23392E+02
 -1      4177-5.14648E+04-9.21063E+04 2.70162E+03 6.96086E+04-6.25740E+02 2.84149E+02
 -1      4178-3.32436E+04-8.45532E+04 1.43783E+03 5.28984E+04-1.37869E+03 7.40869E+01
 -1      4179-6.63792E+04-9.92442E+04 2.98473E+03 8.01499E+04 6.83194E+01 4.68984E+02
 -1      4180-4.86358E+04-8.97342E+04 6.13716E+03 6.94359E+04-8.74460E+01-4.85950E+01
 -1      4181-7.31276E+04-1.03298E+05 1.20297E+04 9.10286E+04-2.38420E+02 3.20929E+02
 -1      4182-1.37230E+04-6.89460E+04-2.86635E+02 2.99876E+04-4.94749E+02 2.43504E+01
 -1      4183-2.16047E+04-7.81285E+04 8.29129E+01 4.18220E+04-7.51193E+02 3.76453E+02
 -1      4184-2.72323E+04-8.20582E+04 6.08099E+02 4.76749E+04-8.21145E+02 5.97649E+02
 -1      4185-2.12712E+04-7.57447E+04 3.41516E+02 4.22489E+04 2.19766E+02-5.01186E+02
 -1      4186-3.11734E+04-8.22325E+04 1.99595E+03 5.19348E+04-9.32476E+01 1.81326E+02
 -1      4187-3.82555E+03-5.41888E+04 3.65408E+02 1.37670E+04-1.35570E+02-8.52564E+01
 -1      4188-6.47104E+03-6.02925E+04 7.28368E+02 2.10466E+04-3.05142E+02 1.10040E+02
 -1      4189-1.04659E+04-6.46346E+04-1.20975E+02 2.62517E+04-1.59176E+02 3.30181E+02
 -1      4190-7.53326E+03-6.04798E+04 1.76374E+02 2.13627E+04 2.24952E+02 1.45900E+00
 -1      4191-1.45421E+04-6.69969E+04 1.17636E+01 3.00400E+04 2.04616E+02-3.59471E+02
 -1      4192-3.71522E+02-4.83908E+04 4.36641E+02 3.81018E+03-2.13859E+02-6.37618E+01
 -1      4193-1.11451E+03-5.08190E+04 2.64355E+02 8.32737E+03-3.54352E+00-2.85519E+01
 -1      4194-2.08911E+03-5.22144E+04 4.89207E+02 1.11105E+04-3.35639E+01-2.51226E+01
 -1      4195-7.27282E+02-5.05533E+04 5.45794E+02 8.82021E+03 1.09827E+02-9.43655E+01
 -1      4196-4.76928E+03-5.39640E+04 3.08336E+02 1.40645E+04 6.41132E+01-5.02406E+01
 -1      4197 1.79839E+02-5.46034E+04 4.99669E+02-5.04942E+03-5.72454E+02 3.72024E+01
 -1      4198-3.18126E+02-4.99512E+04 2.54554E+02-3.46735E+02-4.35316E+02-1.20190E+02
 -1      4199 1.34902E+02-4.90756E+04 5.22810E+02 1.67873E+03-3.74577E+02-5.72102E+00
 -1      4200-2.12586E+00-5.00573E+04 6.23861E+02-2.15157E+01 1.53735E+02-7.45871E+01
 -1      4201 1.02031E+02-4.84533E+04 6.39198E+02 3.86395E+03 2.12886E+02 3.42562E+00
 -1      4202-2.54273E+03-6.15378E+04 4.42849E+02-1.12836E+04-7.36985E+02-3.01708E+02
 -1      4203-5.02687E+03-7.10679E+04 5.55948E+02-2.00631E+04-1.04682E+03-1.47284E+02
 -1      4204-8.71428E+02-5.86760E+04 5.23326E+02-8.06055E+03-8.60750E+02-2.31642E+01
 -1      4205-3.26842E+03-6.24153E+04 5.45561E+02-1.05815E+04 2.29962E+02-5.69508E+01
 -1      4206 1.35931E+02-5.51232E+04 1.18597E+03-5.21623E+03 4.98025E+02-1.03112E+02
 -1      4207-2.01494E+04-8.82456E+04 5.71819E+02-4.34645E+04-1.17491E+03-5.77560E+02
 -1      4208-1.24473E+04-8.04250E+04 3.19087E+01-3.03930E+04-1.02856E+03-7.02470E+02
 -1      4209-8.03411E+03-7.60045E+04 3.32507E+02-2.52430E+04-1.34589E+03-4.12666E+02
 -1      4210-3.58770E+03-7.11876E+04 7.40374E+02-1.97304E+04 3.08132E+02 4.20750E+01
 -1      4211-1.46651E+04-8.14958E+04-5.58584E+02-2.93788E+04 3.62351E+02 2.82156E+01
 -1      4212-3.42777E+04-9.54293E+04-4.31277E+02-5.63017E+04-8.18549E+02-8.06542E+02
 -1      4213-5.03890E+04-9.65944E+04-2.27046E+02-7.10509E+04-1.06641E+03-2.99479E+02
 -1      4214-2.70017E+04-9.16944E+04 2.47148E+02-4.94791E+04-1.15115E+03-7.99442E+02
 -1      4215-2.04541E+04-8.79449E+04 1.85830E+02-4.27917E+04 4.05113E+02 5.77150E+01
 -1      4216-3.44977E+04-9.60861E+04-6.84362E+02-5.58251E+04 3.71894E+02 2.07714E+02
 -1      4217-7.06442E+04-9.51016E+04-8.44463E+02-7.92377E+04-5.61021E+02-1.24512E+03
 -1      4218-9.04514E+04-8.64705E+04 9.19354E+01-8.82762E+04-4.29814E+02-6.57211E+02
 -1      4219-5.95056E+04-9.46507E+04-3.98348E+00-7.55647E+04-1.33057E+03-8.75971E+02
 -1      4220-4.92078E+04-9.60041E+04-1.02888E+03-7.19941E+04 2.73448E+02 2.55208E+02
 -1      4221-7.22709E+04-9.63852E+04-2.22037E+03-7.64075E+04 1.70232E+02 1.77924E+02
 -1      4222-1.32082E+05-6.45972E+04 6.79310E+02-9.27691E+04-6.02530E+02-5.29579E+02
 -1      4223-1.12459E+05-7.70123E+04 1.72310E+02-9.29420E+04-4.71398E+02-2.73318E+02
 -1      4224-1.01043E+05-8.09705E+04 5.22854E+02-9.07969E+04-2.59049E+02-6.14295E+02
 -1      4225-9.08136E+04-8.76626E+04-8.59940E+02-8.63422E+04 6.03273E+01 1.15013E+02
 -1      4226-1.13629E+05-7.95846E+04-1.06610E+03-9.11831E+04 1.33806E+01 2.22659E+01
 -1      4227-1.50182E+05-5.22899E+04 1.60536E+03-8.73767E+04-4.53992E+02-8.66083E+02
 -1      4228-1.64320E+05-3.99183E+04 1.84987E+03-7.95258E+04-1.78196E+02-9.51039E+02
 -1      4229-1.40471E+05-5.82321E+04 1.40137E+03-9.02957E+04-2.78131E+02-8.35482E+02
 -1      4230-1.34208E+05-6.58166E+04 1.86958E+01-9.08503E+04-6.58976E+01-1.21434E+02
 -1      4231-1.51732E+05-5.30998E+04 1.36502E+03-8.62194E+04-1.96981E+02-1.89127E+02
 -1      4232-1.79111E+05-2.62204E+04 7.22953E+02-6.84717E+04-4.13049E+02-4.81597E+01
 -1      4233-1.86498E+05-1.61940E+04 2.36055E+03-5.56724E+04 1.80148E+03-3.49662E+01
 -1      4234-1.72463E+05-3.20591E+04 1.73815E+03-7.37643E+04 1.14731E+01-1.58282E+03
 -1      4235-1.67986E+05-3.81796E+04 2.11695E+03-7.75046E+04-2.92938E+02-4.21951E+02
 -1      4236-1.84713E+05-2.40803E+04 6.90526E+02-6.75338E+04-4.58826E+02-2.18653E+02
 -1      4237-1.92540E+05-1.30781E+04-1.03076E+04-5.40349E+04-3.40501E+02 4.83128E+03
 -1      4238-2.18888E+05-1.35505E+04-6.09029E+04-4.51121E+04-1.22731E+03-3.02770E+02
 -1      4239-1.96251E+05-3.96051E+03-3.19508E+04-3.95744E+04-4.68072E+02 1.09531E+03
 -1      4240 7.34200E+04 1.42478E+05 1.67262E+03-9.98054E+04-6.52014E+02-7.78463E+02
 -1      4241 9.20029E+04 1.28465E+05 3.62224E+03-1.07721E+05 2.46978E+03-6.18462E+02
 -1      4242 9.58340E+04 1.18711E+05 2.09006E+04-1.09818E+05 3.39389E+03-2.99245E+03
 -1      4243 5.20794E+04 1.56345E+05-2.47947E+03-8.99178E+04-1.27268E+03 1.25741E+03
 -1      4244 3.92073E+04 1.67131E+05-1.80628E+03-7.95755E+04-1.21107E+03 6.56267E+02
 -1      4245 6.14641E+04 1.49118E+05-2.10012E+03-9.51709E+04-1.32454E+03 1.21549E+03
 -1      4246 7.40624E+04 1.40932E+05 2.33678E+03-1.01668E+05-2.21997E+02-7.49210E+02
 -1      4247 1.64351E+04 1.77582E+05-9.11578E+02-5.12991E+04-9.44839E+02 5.99539E+02
 -1      4248 2.57032E+04 1.73346E+05-1.38122E+03-6.66617E+04-1.06876E+03 6.46087E+02
 -1      4249 3.19119E+04 1.71240E+05-1.48873E+03-7.33893E+04-8.79699E+02 5.49310E+02
 -1      4250 7.55003E+03 1.77188E+05-4.43893E+02-3.68409E+04-1.30940E+03 1.32860E+02
 -1      4251 2.52815E+03 1.75350E+05 2.78451E+01-2.07266E+04-1.19186E+03 7.21999E+00
 -1      4252 1.17875E+04 1.78230E+05-6.01883E+02-4.34956E+04-9.68122E+02 4.04455E+02
 -1      4253 1.90308E+03 1.58715E+05-4.05180E+02 1.07296E+04-1.00572E+03 2.27102E+02
 -1      4254 5.77625E+02 1.67357E+05-4.43388E+02-4.96814E+03-1.06666E+03 1.98187E+01
 -1      4255 1.30835E+03 1.71957E+05-8.33310E+01-1.27237E+04-9.59401E+02-1.26151E+01
 -1      4256 3.17478E+03 1.50351E+05 1.15341E+02 2.25424E+04-1.15532E+03-1.67445E+02
 -1      4257 8.58512E+03 1.38847E+05 4.56698E+00 3.28983E+04-1.45477E+03-1.69595E+02
 -1      4258 2.52664E+03 1.52784E+05-1.58138E+02 1.64587E+04-8.84697E+02-2.97495E+02
 -1      4259 2.32604E+04 1.21286E+05-8.10073E+01 5.29011E+04-1.71738E+03-5.73191E+02
 -1      4260 1.41182E+04 1.27884E+05-4.75222E+02 4.25867E+04-1.81346E+03-5.87135E+02
 -1      4261 1.06399E+04 1.33426E+05-4.70400E+02 3.79939E+04-1.70939E+03-5.45942E+02
 -1      4262 3.42243E+04 1.13282E+05-1.20882E+03 6.14765E+04-1.99599E+03-5.86287E+02
 -1      4263 4.81224E+04 1.04659E+05-3.10354E+03 7.24814E+04-2.17683E+03-8.10937E+02
 -1      4264 2.85700E+04 1.17672E+05-5.09696E+02 5.80523E+04-1.87304E+03-1.13906E+03
 -1      4265 9.56397E+04 9.96046E+04-1.08338E+04 9.94417E+04 3.43600E+03 4.20541E+03
 -1      4266 7.04030E+04 9.80171E+04-8.01742E+03 8.64725E+04 5.18431E+02 5.54517E+02
 -1      4267 5.96888E+04 1.03233E+05-3.64860E+03 8.26333E+04-9.34879E+02-4.70518E+02
 -1      4268 1.47634E+05 1.19395E+05-2.31954E+04 1.40354E+05 1.29714E+04 2.53875E+04
 -1      4269 1.28641E+05 1.17208E+05-1.96268E+04 1.23669E+05 6.23336E+03 6.70257E+03
 -1      4270 1.71951E+05 1.41702E+05-4.37702E+04 1.74406E+05 2.04662E+04 1.82495E+04
 -1      4271-7.51051E+04-1.01248E+05 8.85323E+03 8.94470E+04-6.79625E+02 1.70504E+03
 -1      4272-1.06690E+05-1.07600E+05 1.51870E+04 1.12582E+05-7.76361E+03 6.92631E+03
 -1      4273-1.45617E+05-1.35517E+05 2.36478E+04 1.41737E+05-1.25146E+04 1.06565E+04
 -1      4274-3.43975E+04-8.53313E+04 6.27900E+02 5.35613E+04 9.53347E+02 2.86918E+01
 -1      4275-5.14139E+04-9.22420E+04 2.48363E+03 6.96094E+04 4.91864E+02-7.62072E+01
 -1      4276-6.64097E+04-9.94859E+04 3.17217E+03 8.03151E+04-2.33072E+02-2.93854E+02
 -1      4277-2.08566E+04-7.56994E+04 1.00798E+03 4.17653E+04 6.85779E+02-1.66816E+02
 -1      4278-1.34783E+04-6.81619E+04 1.40511E+02 2.97424E+04 4.97776E+02-3.04183E+01
 -1      4279-2.81784E+04-8.08480E+04 1.83163E+02 4.90613E+04 5.55427E+02-4.62454E+02
 -1      4280-7.08938E+03-6.14940E+04 2.09562E+02 2.11719E+04 3.57062E+02-6.54782E+01
 -1      4281-3.72171E+03-5.42313E+04 2.91830E+02 1.35945E+04 2.40705E+02 1.18668E+02
 -1      4282-9.88413E+03-6.52265E+04 1.98720E+02 2.56351E+04 3.19162E+02-1.77554E+02
 -1      4283-1.16511E+03-5.07174E+04 1.76347E+02 8.36883E+03 1.74443E+02-7.53299E+01
 -1      4284-2.58586E+01-4.82425E+04 4.08472E+02 4.29534E+03 4.32012E+02-1.80407E+02
 -1      4285-2.18693E+03-5.23299E+04 3.54721E+02 1.10653E+04 5.71130E+01-5.51209E+01
 -1      4286 2.57975E+02-5.04816E+04 6.46487E+02 2.66397E+01 5.54401E+02 8.16228E+01
 -1      4287-1.83148E+02-5.50211E+04 5.59550E+02-5.37875E+03 1.18923E+03 1.03899E+02
 -1      4288 3.58732E+02-4.80929E+04 6.92906E+02 2.42375E+03 4.27514E+02-1.12591E+02
 -1      4289-4.84163E+03-7.05196E+04 6.55040E+02-1.99464E+04 1.46258E+03 2.77197E+02
 -1      4290-2.67687E+03-6.11518E+04 3.83710E+02-1.11068E+04 1.02176E+03 2.79805E+02
 -1      4291-1.05285E+03-5.70142E+04 8.23590E+02-7.78257E+03 9.98665E+02-1.49390E+01
 -1      4292-1.25525E+04-7.99962E+04 7.35203E+01-3.02272E+04 1.49891E+03 7.85280E+02
 -1      4293-2.01342E+04-8.75701E+04 6.49133E+02-4.30783E+04 1.68051E+03 7.02038E+02
 -1      4294-8.08818E+03-7.55727E+04 3.80775E+02-2.51193E+04 1.75209E+03 4.81046E+02
 -1      4295-5.01386E+04-9.61537E+04-3.17883E+02-7.07330E+04 1.49226E+03 5.97255E+02
 -1      4296-3.39770E+04-9.48111E+04-3.76590E+02-5.59688E+04 1.26183E+03 1.12644E+03
 -1      4297-2.69323E+04-9.11385E+04 3.08693E+02-4.90843E+04 1.66801E+03 1.03824E+03
 -1      4298-9.00670E+04-8.61512E+04-4.68529E+00-8.79432E+04 5.97636E+02 8.53923E+02
 -1      4299-7.04132E+04-9.46518E+04-9.57405E+02-7.89041E+04 8.22654E+02 1.49119E+03
 -1      4300-5.92070E+04-9.40819E+04-9.63854E+01-7.52498E+04 1.66979E+03 1.15090E+03
 -1      4301-1.12187E+05-7.66346E+04 9.48566E+01-9.25484E+04 5.08722E+02 2.73433E+02
 -1      4302-1.31621E+05-6.44277E+04 6.01027E+02-9.24846E+04 5.69033E+02 4.06887E+02
 -1      4303-1.00666E+05-8.05837E+04 5.19078E+02-9.04772E+04 3.19512E+02 7.31377E+02
 -1      4304-1.64366E+05-4.01300E+04 1.74218E+03-7.97630E+04-1.49480E+02 5.61369E+02
 -1      4305-1.49808E+05-5.23112E+04 1.40600E+03-8.72978E+04 1.93396E+02 5.64849E+02
 -1      4306-1.39880E+05-5.80824E+04 1.36130E+03-9.00519E+04 1.41871E+02 6.93022E+02
 -1      4307-1.80943E+05-2.61637E+04-1.59813E+03-6.69444E+04 5.45438E+02-1.33208E+03
 -1      4308-1.94448E+05-1.52684E+04-2.71801E+03-5.35599E+04-2.45721E+03-2.33661E+03
 -1      4309-1.71793E+05-3.14502E+04 1.93139E+03-7.41833E+04-2.50362E+02 1.07898E+03
 -1      4310-1.84882E+05-2.24346E+04-1.76346E+03-6.61750E+04 3.41586E+02-8.10174E+02
 -1      4311-1.93548E+05-8.86703E+03-1.97280E+04-4.82031E+04-1.24909E+03-4.83138E+03
 -1      4312 2.39434E+05 2.42355E+05-4.10874E+04 2.41944E+05-3.06545E+03 1.45676E+03
 -1      4313-1.90216E+05-1.74177E+04-6.65973E+03-5.87468E+04-1.19684E+03-5.20417E+02
 -1      4314-1.94271E+05-1.30019E+04-1.59811E+04-5.15741E+04 7.85553E+02 2.10217E+03
 -1      4315 8.36119E+04 1.35740E+05 8.01872E+03-1.06704E+05 5.93870E+02 1.26724E+02
 -1      4316 9.35152E+04 1.25347E+05 1.65296E+04-1.08948E+05-1.53043E+03 1.49554E+03
 -1      4317-1.01880E+02-1.35452E+01-3.81106E+00 2.31738E+01-3.07913E-01 5.80294E-01
 -1      4318-1.03009E+02-1.55731E+01-3.33412E+00 3.67128E+01-8.13490E-01 9.12244E-01
 -1      4319-1.08477E+02-7.13677E+00-7.49638E+00-2.59505E+01 1.75627E+00 3.18678E+00
 -1      4320-7.87716E+00-1.75891E+01 9.39918E-01-1.16549E+01-3.23899E+00-3.02784E+00
 -1      4321 1.27515E+01 2.92654E+02 2.89567E+01-5.80870E+01 6.15137E-01 3.74187E+00
 -1      4322 9.07325E+00 5.99804E+01-8.32675E-01 2.21996E+01-4.26689E+00-1.38712E+00
 -1      4323 1.32244E+01 2.91470E+02 2.89370E+01-5.71966E+01-4.34052E-01-3.42721E+00
 -1      4324 2.13006E+01 1.25179E+02 8.79797E+00 4.76720E+01-6.53127E+00-5.85054E+00
 -1      4325 1.53619E+01 7.63549E+01 3.92119E+00-3.11609E+01-3.21347E+00 1.81358E+00
 -1      4326-1.17000E+02-7.78756E+00-1.82772E+01-4.44943E+01-1.19805E+00-8.82985E-01
 -1      4327 6.82933E+00 2.26704E+01-1.42202E+00-1.36141E+01-3.53696E+00 1.70863E+00
 -1      4328 5.16295E+00 3.00023E+01-1.07262E+00-1.53052E+01 5.94695E+00-2.11253E+00
 -1      4329-2.82305E+00 1.77047E+02 1.32923E+01-3.59499E+01-7.95252E+00 4.00748E+00
 -1      4330 9.92442E+00 1.78815E+01 8.95607E-01 1.54044E+01-5.24368E+00-3.48070E+00
 -1      4331-9.06909E+01-1.11260E+01-9.30159E-01-2.16146E+01-2.08199E-01-3.00333E+00
 -1      4332-1.67351E+02-1.80413E+00-1.28034E+01-3.88761E+01-1.99325E+00 4.94285E-01
 -1      4333-1.19715E+02-1.50812E+01-1.09232E+01-4.20669E+01 5.39426E-01-5.37050E-01
 -1      4334-1.00195E+02-3.91649E+01-1.62237E+01 7.40340E+01-5.99296E+00-8.82284E-01
 -1      4335-3.06743E+01-3.90486E+01-4.07569E+00 3.22743E+01 3.65150E+00-3.42919E+00
 -1      4336-7.33191E+01-3.70672E+01-1.26909E+01-5.91605E+01 4.23005E+00-6.92046E-01
 -1      4337-2.16845E+01-3.10661E+01-7.68590E-01 2.42830E+01-1.99259E+00 2.27942E+00
 -1      4338-1.40483E+01-1.82509E+01-8.18826E-01 1.61397E+01 3.08835E+00-2.49008E+00
 -1      4339 4.32236E+00 4.63509E+01 1.51302E-01-1.80496E+01-5.17823E+00 7.53802E-01
 -1      4340 1.81859E+01 1.95145E+02 1.08456E+01-4.67529E+01-1.81932E+00 2.67126E-01
 -1      4341 1.37922E+02 3.04045E+02 8.60174E+01-2.26104E+02-1.16778E-01-5.84885E-02
 -1      4342 1.77446E+01 2.00951E+02 5.47234E+00-5.35565E+01 5.75424E+00 2.64193E+00
 -1      4343 1.83262E+01 1.98696E+02 5.10602E+00-5.49095E+01-4.72301E+00-3.68549E+00
 -1      4344-1.14617E+02-1.38392E+01-1.02489E+01 3.55434E+01 1.18532E+00-1.35229E+00
 -1      4345 2.98720E+00-4.38645E+00-2.65721E+00-9.78292E-01 1.58555E+00-4.64650E-01
 -1      4346 8.17622E+00 1.31797E+01 1.07283E+00 1.13153E+01 4.05889E+00 3.00832E+00
 -1      4347-1.13042E+01-2.14750E+01-9.37483E-01 1.44843E+01-8.37609E-01 7.51824E-01
 -1      4348 1.69424E+01 1.92081E+02 9.17531E+00 3.53755E+01-1.28083E+00 7.79562E-01
 -1      4349 1.64109E+00-1.11796E+01-4.70322E-02-4.07006E+00 3.61516E-02 3.40117E-01
 -1      4350-1.94752E+02 1.10070E+01-3.31690E+01-6.11139E+00-6.95466E-01-8.68550E-01
 -1      4351 1.40046E+01 1.77435E+02 4.96479E+00 4.31891E+01 4.34141E+00-1.61631E+00
 -1      4352-2.55187E+01-4.91342E+01-6.18668E+00 3.47945E+01-3.62169E-01-1.80858E+00
 -1      4353 2.58716E+00 1.95490E+02 1.23313E+01 4.37535E+01-5.98276E+00 4.66891E-01
 -1      4354 1.23903E+01 1.98501E+02 1.21670E+00 3.56347E+01-3.91854E+00 4.30257E+00
 -1      4355-1.85647E+02 7.62017E+00-2.17735E+01 2.09635E+01-1.08393E+00 6.81208E-01
 -1      4356-3.57801E+01-5.26526E+01-1.39413E+01-4.52471E+01 9.79151E-01 1.14464E-01
 -1      4357-7.89576E+01-3.51682E+01-1.24308E+01-6.08068E+01-4.68860E+00-3.56431E-01
 -1      4358-6.04358E+00-1.49269E+01-2.08158E+00 1.33804E+01-4.68705E+00 3.83398E+00
 -1      4359-1.02876E+00-1.29094E+01-2.38744E+00 6.93871E+00 5.45272E+00-3.53022E+00
 -1      4360-8.90716E+01-8.72166E+00 4.63945E+00-2.62032E+01-1.00161E+00 2.03369E+00
 -1      4361 7.96415E+00 4.25452E+01 3.07028E+00 2.17821E+01 7.61469E-02-7.42566E-02
 -1      4362-9.95211E+01-1.86009E+01-7.03073E+00-3.34081E+01-1.61106E-01 9.56501E-01
 -1      4363 6.78753E+00 3.27069E+01-6.13812E-01-1.65675E+01 2.05609E+00 3.99344E-01
 -1      4364-4.44744E+01-5.81776E+01-1.44834E+01 5.29431E+01-5.24172E-01-9.53775E-02
 -1      4365-1.20935E+02-8.19119E+00-1.36785E+01 2.89788E+01-2.49843E-01 9.88355E-01
 -1      4366-2.34908E+01-4.38484E+01-7.96178E+00-3.45114E+01-1.73032E+00-1.62067E+00
 -1      4367-1.27855E+01 2.12670E+02 2.84118E+01 3.63838E-01 6.66720E-01-8.35632E-01
 -1      4368-1.11530E+02-2.56462E+01-1.69927E+01 6.43611E+01 1.68965E+00-2.78667E-01
 -1      4369-1.90838E+02 1.17895E+01-2.14849E+01 1.42600E+01 5.27927E+00 2.21211E+00
 -1      4370 2.13001E+01 3.48807E+02 4.42147E+01 1.26732E+02-2.58903E+00 1.44979E+00
 -1      4371 1.43144E+01 8.53029E+01 6.34412E+00-3.28065E+01 2.79069E+00-4.11883E+00
 -1      4372 1.28699E+01 6.57796E+01 1.04537E+00-2.39326E+01-3.63911E+00 1.28977E+00
 -1      4373 1.18983E+02 2.99570E+02 7.05623E+01 2.09965E+02 1.01687E-01 1.43231E+00
 -1      4374 1.62755E+01 2.92516E+02 2.61613E+01 6.96905E+01 4.58660E+00-3.66351E+00
 -1      4375 6.01515E+00 6.03885E+01-1.75738E+00 2.12921E+01 4.12938E+00 4.98530E-01
 -1      4376 1.90319E+01 1.10062E+02 9.94912E+00 4.04053E+01 1.11273E+00 1.88238E+00
 -1      4377-2.62887E+00 1.71809E+02 2.07176E+01-3.90435E+01-2.02751E+00 5.51843E-01
 -1      4378 1.42886E+02 2.46940E+02 3.24531E+01 2.09411E+02 9.86091E+00-1.55884E+00
 -1      4379 1.61061E+02 2.75280E+02 4.24068E+01-2.23510E+02 1.04952E+00 5.17630E+00
 -1      4380 1.52974E+02 2.64768E+02 3.61947E+01-2.18567E+02-4.99115E+00-5.18204E+00
 -1      4381-1.03014E+01 2.05984E+02 2.22494E+01-3.07946E+00 5.60907E+00-1.72809E+00
 -1      4382-1.33564E+01-2.16032E+01-9.06235E-01-1.57705E+01 2.66153E+00 2.70046E+00
 -1      4383 1.26527E+01 1.20433E+02 6.84258E+00 3.49633E+01 5.96614E+00 4.52176E+00
 -1      4384 1.67402E+02 2.45145E+02 6.42606E+01 1.93770E+02 1.12337E+00 6.93157E-01
 -1      4385 1.50341E+02 2.29029E+02 5.06526E+01 1.80326E+02-8.32114E+00-3.11733E+00
 -1      4386 1.08544E+02 5.55648E+01 4.10350E+01 6.45820E+01-6.89352E+00 3.14548E+01
 -1      4387 1.11675E+02 9.07443E+01 1.39660E+01 1.02981E+02-7.75199E+00 2.61874E+00
 -1      4388 1.27804E+02 2.60855E+02 2.31034E+01 1.73718E+02-6.85141E-01 3.39147E+00
 -1      4389 1.38340E+02 1.38637E+02 1.49756E+01 1.35987E+02-3.42612E+00 3.06264E+00
 -1      4390 1.19131E+02 2.76021E+02 4.36507E+01 1.59101E+02-5.48943E+00 9.88656E-02
 -1      4391 7.16696E+01 3.35621E+02 3.13965E+01 1.50991E+02-6.15476E+00-4.49833E+00
 -1      4392 4.18890E+01 3.29028E+02 5.38209E+01 1.70519E+02 1.02548E+01-2.31456E+00
 -1      4393 1.30040E+02 2.32286E+02 4.83073E+01 1.78018E+02 1.04268E+01-8.13998E-01
 -1      4394 1.16333E+02 9.19905E+01 1.72310E+01 1.02388E+02 7.67936E+00-2.21226E+00
 -1      4395 1.07781E+02 5.47267E+01 4.10726E+01 6.41909E+01 6.29041E+00-3.13203E+01
 -1      4396 1.21057E+02 1.38008E+02 1.61955E+01 1.33693E+02 6.68006E+00-6.41610E+00
 -1      4397 1.62534E+02 2.03286E+02 3.74888E+01 1.77648E+02 1.06488E+01-9.05725E+00
 -1      4398 1.42883E+02 2.03774E+02 1.02147E+01 1.66648E+02-3.53056E+00-2.93965E-01
 -1      4399 1.26297E+02 2.73778E+02 5.19510E+01 2.08380E+02 6.50896E+00-1.87352E+00
 -1      4400 1.24130E+02 8.06728E+01 3.08954E+01-9.53402E+01 7.57965E-01-1.25263E+01
 -1      4401 1.33528E+02 1.29324E+01 9.50662E+01 4.26653E-01-2.69518E+01-8.20793E+01
 -1      4402 1.27363E+02 1.54992E+02 1.89721E+01-1.46978E+02-2.16550E+00-1.22966E+01
 -1      4403 1.68118E+02 2.10702E+02 4.07155E+01-1.84152E+02-4.08229E+00-1.69560E+01
 -1      4404 1.54692E+02 2.18840E+02 1.20123E+01-1.77188E+02 6.11445E+00-1.70893E+00
 -1      4405 1.66148E+02 2.50760E+02 7.14815E+01-2.02607E+02 4.34323E-02-1.69183E-01
 -1      4406 1.32798E+02 2.42675E+02 5.82346E+01-1.87148E+02-8.75547E+00-3.19346E+00
 -1      4407 1.33504E+02 2.92289E+02 6.42411E+01-2.19920E+02-9.86822E-01-4.97132E+00
 -1      4408 1.30807E+02 1.34043E+01 9.60057E+01-2.30808E+00 2.86158E+01 8.03505E+01
 -1      4409 1.20417E+02 8.00020E+01 2.69492E+01-9.60904E+01-1.92133E-01 1.21319E+01
 -1      4410 1.31804E+02 1.56257E+02 1.63208E+01-1.53419E+02 2.79120E+00 9.86372E+00
 -1      4411 1.54984E+02 2.24946E+02 1.86213E+01-1.65378E+02-1.03986E+01-6.70883E-01
 -1      4412 1.70721E+02 2.16944E+02 3.53619E+01-1.83427E+02 2.25848E+00 1.65321E+01
 -1      4413 1.33459E+02 2.42221E+02 5.86616E+01-1.87152E+02 7.97339E+00 2.66933E+00
 -1      4414 1.33527E+02 2.92177E+02 6.46227E+01-2.20659E+02 1.92468E+00 4.67572E+00
 -1      4415 2.20377E+01 9.67093E+01 1.30257E+00 3.80112E+01-6.28500E+00 4.58275E-01
 -1      4416-1.27724E+01 1.88346E+02-5.65101E-02 2.97874E+01-8.86440E+00-6.11194E+00
 -1      4417-8.38739E+00 2.35962E+02 4.99537E+00-2.79244E+01-2.77900E+00-4.40462E+00
 -1      4418 1.60890E+01 1.95960E+02-1.12767E+00-5.50594E+01-5.04337E+00-4.59492E-01
 -1      4419-3.59689E+00 1.73663E+02 1.31552E+01 2.53655E+01-7.35580E+00-3.92220E+00
 -1      4420 4.31642E+00 2.24843E+02 1.82048E+01-2.64027E+01-2.88789E+00-1.17224E+00
 -1      4421-1.11461E+00 2.30171E+02 1.81938E+01-3.36435E+01 8.01372E+00 2.33301E-01
 -1      4422-3.24128E+00 2.42269E+02 7.85931E+00-2.57589E+01 2.60624E+00 4.50754E+00
 -1      4423-9.65609E+00 1.80041E+02 1.39243E+01 1.85647E+01 7.96183E+00 3.57483E+00
 -1      4424-6.50151E+00 1.93785E+02 5.18034E+00 2.52535E+01 7.89040E+00 5.89252E+00
 -1      4425 1.25816E+01 8.87033E+01-9.85001E-01 3.31548E+01 4.44471E+00-1.03508E+00
 -1      4426 1.44211E+01 1.95553E+02-1.74482E+00-5.42147E+01 5.43192E+00-1.09021E-01
 -1      4427-7.26355E+01-7.28395E+01 1.88996E-01-1.11519E+02 1.67049E+01 4.84776E+01
 -1      4428-1.25212E+01-2.97919E+01 3.04897E+01-3.66583E+01 9.06623E+00 4.44114E+01
 -1      4429-5.21585E+02-5.74819E+01-5.10442E+01-1.98953E+02 3.73664E+00 3.22941E+01
 -1      4430-2.32268E+02-8.10468E+01-5.73240E+00-1.32974E+02 3.67028E+01 3.42928E+01
 -1      4431-8.23281E+02-1.59177E+01-8.50314E+01 1.54052E+02 5.53114E+00 3.56528E+01
 -1      4432-6.66655E+02-4.54125E+00-4.61021E+01 3.26517E+01-1.55720E+01 1.15444E+01
 -1      4433-4.64363E+02-1.43663E+02-5.93160E+01 1.50754E+02 8.19423E+01 7.94046E+00
 -1      4434-1.45712E+02-7.66445E+01 4.12345E+01 1.21454E+02 1.76524E+01-1.00942E+02
 -1      4435-2.87359E+02-1.58279E+02-6.56778E+01 1.68735E+02 7.80566E+01-5.06982E+01
 -1      4436-1.20029E+01-2.98406E+01 3.06566E+01-3.68949E+01-9.36697E+00-4.49906E+01
 -1      4437-7.26702E+01-7.27972E+01 7.50303E-01-1.12079E+02-1.66539E+01-4.95973E+01
 -1      4438-2.30970E+02-7.96423E+01-5.17786E+00-1.33255E+02-3.62292E+01-3.57115E+01
 -1      4439-5.18394E+02-6.25733E+01-4.86079E+01-2.01403E+02-5.02076E+00-3.51993E+01
 -1      4440-6.58507E+02-4.50782E+00-3.84076E+01 3.04233E+01 1.67859E+01-1.75128E+01
 -1      4441-8.25886E+02-1.71093E+01-9.52348E+01 1.49368E+02-9.08662E+00-4.16783E+01
 -1      4442-4.65375E+02-1.42616E+02-5.83321E+01 1.50819E+02-8.34055E+01-6.17853E+00
 -1      4443-2.89134E+02-1.58442E+02-6.45724E+01 1.70524E+02-7.82567E+01 5.25201E+01
 -1      4444-1.48208E+02-7.70113E+01 4.22587E+01 1.22239E+02-1.80306E+01 1.01255E+02
 -1      4445 1.05546E+01 4.92897E+01 7.23595E-02 2.07299E+01-5.59669E+00-1.57719E+00
 -1      4446 7.91035E+00 7.16243E+01-5.26387E-02 2.81115E+01-3.95589E+00-3.33817E+00
 -1      4447 1.00755E+01 7.86040E+01-3.80987E-01 3.41867E+01-8.47744E+00-9.52354E-01
 -1      4448-1.15365E+00 2.26245E-01-8.57169E-01-1.84271E+00-5.68648E+00-3.43042E+00
 -1      4449 1.11242E+01 2.25114E+01-7.10881E-01 2.07992E+01-4.62582E+00-4.05570E+00
 -1      4450 9.63676E+00 4.32237E+01 1.58850E+00 1.99427E+01-4.34909E+00-1.95315E+00
 -1      4451-2.43644E+01-2.43128E+01 1.26144E+00-2.88200E+01-4.60641E+00-4.22712E+00
 -1      4452-8.78466E+00-1.27554E+01 3.69255E-01-8.89245E+00-2.67726E+00-4.88860E+00
 -1      4453 3.57411E-01-3.04779E+00-1.63269E-01-1.29531E+00-4.26437E+00-3.32482E+00
 -1      4454-1.08605E+02-1.17139E+01-5.23962E+00-4.37954E+01-1.37517E+00-6.02657E+00
 -1      4455-6.58020E+01-4.03387E+01-5.12908E+00-5.36185E+01-2.64487E+00-3.66462E+00
 -1      4456-3.34855E+01-2.14520E+01-3.44990E+00-3.26103E+01-6.08688E+00-3.57281E+00
 -1      4457-1.01433E+02-1.20971E+01 1.00186E+00-3.33069E+01-1.63684E+00-1.38388E+00
 -1      4458-1.01803E+02-1.01241E+01-9.02508E-02-2.33954E+01-1.79774E+00-8.96462E-01
 -1      4459-1.06321E+02-1.18734E+01-8.02625E+00-3.50726E+01-2.67385E+00-3.60855E+00
 -1      4460-1.75702E+02-3.34280E+00-9.03537E+00 1.19098E+01 3.09328E+00 3.04902E+00
 -1      4461-1.54508E+02-2.56514E+00-7.14884E+00-4.75972E+01 4.07873E+00 2.86980E+00
 -1      4462-9.65131E+01-3.47007E+00 2.20889E+00-3.28323E+01-1.76696E+00 1.98861E-01
 -1      4463-1.13733E+02-1.25952E+01 3.95177E-01 3.84288E+01-3.81080E+00 1.91768E-01
 -1      4464-9.87823E+01-6.69332E+00 1.97171E+00 2.66711E+01-1.55963E+00 1.28895E+00
 -1      4465-1.36164E+02-4.60923E+00-1.32249E+01 3.51780E+01-3.84547E+00 8.45059E+00
 -1      4466-1.78052E+02-3.73801E+00-1.38122E+01 3.97095E+01 2.68666E+00-1.67510E+00
 -1      4467-1.68601E+02 1.46129E+01-1.01597E+01-8.65069E+00 2.90058E-01-1.86978E+00
 -1      4468-1.22570E+02-1.53962E+01-7.30376E+00 4.89725E+01-1.26202E+00 3.65247E+00
 -1      4469-7.38270E+01-5.65743E+01-7.82989E+00 7.11226E+01 7.04958E-01 8.83107E-01
 -1      4470-9.05951E+01-5.72013E+00 2.09582E+00 2.53282E+01 9.84617E-01 2.71468E-02
 -1      4471-1.18317E+02-7.56413E+00-6.97833E+00 2.92605E+01-1.31103E+00 3.63775E+00
 -1      4472-1.21469E+02-1.59648E+01-1.73843E+01 5.22684E+01-3.57295E+00-3.03388E+00
 -1      4473-3.51702E+01-4.54548E+01-4.60746E-02 4.22518E+01-4.57684E+00 9.66910E-01
 -1      4474-2.09272E+01-2.48301E+01 1.03546E-01 2.05940E+01-1.80029E+00 3.78211E+00
 -1      4475-4.10555E+01-4.74275E+01-6.53987E+00 4.84529E+01-4.05424E+00 9.95003E-02
 -1      4476-1.15969E+01-1.62306E+01-6.29945E-01 1.62196E+01-4.87926E+00 2.67335E+00
 -1      4477 2.61975E+00-1.31424E+01-1.57154E+00 8.38676E-01-4.08351E+00 3.31498E+00
 -1      4478-1.57940E+01-2.07799E+01-7.73601E-01 1.75787E+01-3.60656E+00 3.30884E+00
 -1      4479 8.43164E+00 2.75063E+01 8.94351E-01-1.41004E+01-6.48069E+00 1.33912E+00
 -1      4480 3.94264E+00 5.47193E+01-1.19729E+00-2.44286E+01-2.41104E+00 1.52950E+00
 -1      4481 7.44099E+00 1.32676E+01-5.94816E-02-1.33270E+01-5.74628E+00 1.14994E+00
 -1      4482 5.88468E+00 3.63665E+01 2.65630E-01-1.40722E+01-4.79956E+00 2.60524E+00
 -1      4483 2.62479E+00-2.03013E+00-2.04591E+00-1.82974E+00-4.56883E+00 2.50271E+00
 -1      4484 9.86363E+00 9.74805E+01 2.10078E+00-1.74959E+01-8.75180E+00-5.17097E-01
 -1      4485-8.46940E+00 1.88630E+02 7.55142E+00-2.30270E+01-9.46509E+00 4.78052E+00
 -1      4486 1.57578E+01 6.86195E+01 2.80920E+00-2.80203E+01-3.49411E+00 1.78994E+00
 -1      4487 1.56626E+00 1.05744E+02 1.23774E+00-3.03924E+01-4.94575E+00 5.28373E+00
 -1      4488 4.72313E+00 5.08118E+01-1.63015E+00-1.92532E+01-5.39388E+00 3.44650E-01
 -1      4489-2.81116E+00 2.18807E+02 9.91884E+00 1.69351E+01-5.31868E+00 8.49105E-01
 -1      4490 1.32763E+01 1.81773E+02-9.80921E-01 4.47801E+01-7.36297E+00-2.63790E+00
 -1      4491-9.07170E+00 1.93892E+02 1.21201E+01-2.22489E-02-9.07386E+00 2.54885E+00
 -1      4492 1.72083E+01 1.83872E+02-1.51857E+00 4.05733E+01-5.90703E+00-2.86635E-02
 -1      4493 1.89288E+01 2.57709E+02 4.76001E-01 9.96356E+01-1.42475E+01 1.92734E+00
 -1      4494 1.11833E+01 1.76710E+02 7.89589E-01 4.00842E+01 8.96782E-01 1.10023E+00
 -1      4495 9.51018E+00 2.69929E+02 2.15378E+01 6.77763E+01-3.15704E+00 6.29047E+00
 -1      4496 6.92283E+01 3.06725E+02 2.06810E+01-2.05021E+02-2.44581E+00-2.34947E+00
 -1      4497 2.11931E+01 2.13029E+02 8.18598E-01-5.19795E+01-3.50596E+00 2.53387E+00
 -1      4498 2.55753E+01 3.47520E+02 3.07069E+01-1.04510E+02-9.75045E+00-7.02399E+00
 -1      4499 9.33872E+01 3.16486E+02 4.74355E+01-1.46649E+02-1.83188E+00-4.22663E+00
 -1      4500 8.08715E+00 2.04948E+02-1.09643E+00-4.81509E+01-4.24575E+00 3.48121E+00
 -1      4501 9.62471E+00 2.34112E+02 2.97382E+01-3.94136E+01-2.96748E+00 1.58734E-01
 -1      4502 1.10252E+01 2.28680E+02 2.70860E+01-2.21482E+01-2.62192E+00 1.62645E+00
 -1      4503 7.74585E+00 1.71527E+02 1.89338E+01 1.67589E+01 9.10532E-01-8.97671E-01
 -1      4504 1.18586E+01 1.71986E+02 2.30994E+01 1.61337E+01 5.42866E-01 1.13321E+00
 -1      4505 2.57013E+01 1.29649E+02 1.51362E+01 4.79721E+01-2.56602E-01-2.94100E+00
 -1      4506 2.54531E+01 2.11222E+02 1.49323E+01-5.31629E+01-5.83679E+00-5.32428E-01
 -1      4507 2.01106E+01 1.94132E+02 1.04020E+01-5.02566E+01 5.42890E+00 1.69404E-02
 -1      4508 2.12960E+01 1.23783E+02 1.12545E+01 4.15297E+01 3.88974E+00 4.69977E+00
 -1      4509 1.02642E+01 4.83246E+01 1.23968E-01 2.17677E+01 5.98610E+00 8.89356E-01
 -1      4510 7.26095E+00 7.49577E+01-2.58518E-01 2.53995E+01 5.16412E+00 1.34198E+00
 -1      4511 8.81108E-01 7.32959E+01-3.69183E+00 2.53263E+01 4.62106E+00-2.94429E-01
 -1      4512 3.05627E+00-2.60491E+00-6.23400E-01-1.17805E+00 4.27467E+00 2.44564E+00
 -1      4513 9.96647E+00 1.99162E+01 4.08860E-01 1.88422E+01 4.81244E+00 4.06958E+00
 -1      4514 9.29316E+00 3.90210E+01 1.17005E+00 1.87889E+01 3.34987E+00 7.07996E-01
 -1      4515-3.08494E+01-3.13910E+01-1.74526E+00-3.64419E+01 4.53512E+00 3.17664E+00
 -1      4516-1.14873E+01-1.92366E+01-1.66962E+00-1.23037E+01 2.38190E+00 4.07943E+00
 -1      4517-2.58247E+00-9.79651E+00-5.20664E-01-4.21176E+00 3.68923E+00 2.86589E+00
 -1      4518-1.00763E+02-1.68995E+01-6.94294E+00-4.51776E+01-1.98306E-01 9.74532E-01
 -1      4519-4.70510E+01-4.73711E+01-4.59803E+00-5.47462E+01-1.37666E+00-1.05604E+00
 -1      4520-2.55327E+01-3.01158E+01-3.25489E+00-3.35328E+01 2.81300E+00 6.92692E-01
 -1      4521-1.03306E+02-7.89817E+00 6.00704E+00-3.52783E+01 3.19048E+00-3.56441E-01
 -1      4522-9.52421E+01-8.08756E+00 3.18482E+00-2.65538E+01 1.11071E+00 2.13184E+00
 -1      4523-1.18370E+02-8.14557E+00-6.89709E+00-2.98322E+01 1.90341E+00 4.04520E+00
 -1      4524-1.03801E+02-1.39480E+01-9.73772E+00-4.35607E+01 5.19557E+00 2.43032E+00
 -1      4525-8.64801E+01-4.86955E+00 4.31402E+00-2.40398E+01-2.58178E-01 2.00687E+00
 -1      4526-1.78223E+02 1.95783E+00-1.06779E+01-2.74403E+01-9.74030E-01 2.90280E-02
 -1      4527-1.66189E+02 1.16317E+00-1.00992E+01 3.82138E+01-2.77935E+00 2.48912E+00
 -1      4528-1.33888E+02-1.23347E+01-6.05054E+00-4.46502E+01 3.12176E+00 1.87562E-01
 -1      4529-9.06058E+01-6.24637E+00 3.38125E+00-3.10607E+01-9.66848E-01 3.03528E+00
 -1      4530-1.65368E+02-7.90895E-01-2.25665E+01-2.61925E+01 5.61174E+00 5.94253E+00
 -1      4531-1.08446E+02-1.20182E+01 2.51059E-01 3.36128E+01 2.48522E+00-6.30037E-01
 -1      4532-1.04559E+02-8.80907E+00-4.28318E-01 2.39646E+01 1.36090E+00 3.03187E-01
 -1      4533-1.18621E+02-6.43207E+00-6.13457E+00 3.61524E+01 1.62796E+00 1.42026E+00
 -1      4534-8.06600E+01-3.56806E+01-4.87412E+00 6.80976E+01 1.95873E+00-2.91452E+00
 -1      4535-1.24959E+02-1.02397E+01-5.89275E+00 4.43038E+01 4.46210E-02-4.15975E+00
 -1      4536-1.10074E+02-1.17196E+01-1.03214E+01 3.51980E+01-2.45601E+00 5.66833E+00
 -1      4537-2.05454E+01-2.50001E+01 2.29685E-01 2.10422E+01 2.07414E+00-3.77587E+00
 -1      4538-4.63853E+01-5.18299E+01-4.91471E+00 5.02493E+01 6.50487E+00-1.54956E+00
 -1      4539-7.37698E+01-3.94538E+01-1.17750E+01 4.98813E+01 3.67878E+00-9.92820E-01
 -1      4540-9.58517E+00-1.52946E+01-3.60574E-01 1.37857E+01 4.56866E+00-3.02365E+00
 -1      4541 1.25852E+00-1.09802E+01-2.86207E+00-1.55174E+00 4.31941E+00-4.54151E+00
 -1      4542-1.76811E+01-1.92453E+01-5.35982E-01 1.86273E+01 3.86180E+00-3.39632E+00
 -1      4543-1.87355E+01-2.28223E+01 5.24581E-01 2.04801E+01 2.59887E+00-3.13496E+00
 -1      4544-8.09218E+00-1.46493E+01-1.31368E+00 1.17335E+01 3.94069E+00-3.18407E+00
 -1      4545 8.70097E+00 2.18788E+01 7.92270E-01-1.24209E+01 7.00811E+00-1.65097E+00
 -1      4546 6.76328E+00 5.34069E+01 5.96824E-01-1.94869E+01 5.21635E+00-1.30057E+00
 -1      4547 5.72006E+00 7.25050E+00-2.08035E-01-7.41046E+00 5.75403E+00-3.44195E+00
 -1      4548 1.29864E+01 6.70766E+01 9.55684E-01-2.94045E+01 4.90732E+00-1.75455E-01
 -1      4549-5.64066E+00 1.54606E+02 4.87037E+00-2.07458E+01 8.40292E+00-4.83798E+00
 -1      4550 9.78284E+00 5.40239E+01 3.59540E-01-2.09437E+01 2.47039E+00-1.06784E+00
 -1      4551-5.35286E+00 2.08354E+02 3.84731E+00 2.30186E+01 3.74890E+00-3.64319E+00
 -1      4552 1.23284E+01 1.77559E+02-1.89551E+00 4.54822E+01 6.33201E+00-2.75593E-01
 -1      4553 2.58157E+00 1.98447E+02 1.73482E+01 2.94874E+01-8.15482E-01-3.97341E+00
 -1      4554 1.67236E+00 2.06250E+02 1.40873E+01-4.94154E+00 6.39054E+00 2.22023E+00
 -1      4555-2.83422E+00 1.44897E+02 1.31055E+01-2.66516E+01 7.84701E+00-8.57795E+00
 -1      4556 2.42378E+01 1.89598E+02-1.25107E+00 5.52465E+01 5.50415E+00 3.31224E+00
 -1      4557 4.13274E+01 2.97546E+02 1.67447E+01 1.21020E+02 1.25203E+01-7.36838E-01
 -1      4558 6.34179E+00 1.91569E+02-2.31551E-01 4.16836E+01 5.59726E+00 1.19885E+00
 -1      4559 9.62657E+01 3.10576E+02 2.50473E+01 1.94894E+02 2.31218E+00-1.47354E+00
 -1      4560 7.71809E+01 2.90680E+02 3.05166E+01 1.49318E+02 6.61443E+00 1.56919E+00
 -1      4561 6.94649E+01 3.04180E+02 1.90499E+01-2.06923E+02 4.44419E-01 2.68134E+00
 -1      4562 2.10654E+01 2.12944E+02 5.67378E-01-5.22026E+01 4.06285E+00-2.72047E+00
 -1      4563 2.58631E+01 3.49318E+02 3.09660E+01-1.05303E+02 9.53833E+00 7.11178E+00
 -1      4564 9.33470E+01 3.14572E+02 4.69481E+01-1.47369E+02 2.05848E+00 4.31646E+00
 -1      4565 7.70621E+00 2.05231E+02-1.43397E+00-4.73716E+01 4.86892E+00-3.54768E+00
 -1      4566-9.08650E+01-3.95721E+00-2.35191E+00 2.31532E+01-9.13412E-01 2.37093E+00
 -1      4567-9.17791E+01-1.25994E+01-1.64645E+00 2.78380E+01-5.21271E-01-5.75194E-01
 -1      4568-1.11809E+02-9.01746E+00-8.68635E+00 2.67871E+01 3.01332E-01-4.98261E+00
 -1      4569-1.59128E+02 4.00382E+00-1.85428E+01 3.44600E+01 6.74077E+00-4.46295E+00
 -1      4570-1.17696E+02-2.10468E+01-2.02396E+01 4.92218E+01-4.01611E-02 9.58096E-01
 -1      4571-1.11219E+02-1.40580E+01-7.08910E+00 3.65670E+01 2.90880E+00-3.89244E+00
 -1      4572-1.56476E+02-4.56087E+00-2.09587E+01 2.29680E+01-9.39996E-01-5.38032E-01
 -1      4573-8.70304E+01-3.50861E+01-1.77806E+01-4.62567E+01 7.54654E-01-2.62567E-01
 -1      4574-1.18400E+02-8.40087E+00-1.72814E+01-3.57553E+01 3.40158E-01 3.45859E+00
 -1      4575-7.54060E+01-2.84408E+01-1.67341E+01-5.32666E+01-3.43645E-01 2.01024E-01
 -1      4576-9.43863E+01-3.85100E+00-5.74720E+00-2.37354E+01 2.88539E-01-1.59072E+00
 -1      4577-8.52429E+01-7.73490E+00-1.98251E+00-2.21063E+01 2.75348E-01 1.64571E+00
 -1      4578-9.16485E+01-1.04913E+01-1.15409E+00-2.74754E+01 9.04270E-01 1.00775E+00
 -1      4579-9.71210E+01-1.40558E+01-5.60363E+00-3.56867E+01 7.02348E-01-9.28599E-01
 -1      4580-5.57873E+01-4.91225E+01-1.39572E+01-5.69144E+01 9.11600E+00 1.50465E+00
 -1      4581 5.83734E+00 1.60553E+00 1.12891E+00 5.20271E+00-2.15829E+00-4.77159E+00
 -1      4582-2.35847E+00-1.44189E+01 1.00270E-01-8.42634E+00-3.99810E+00-2.58651E-01
 -1      4583-9.27864E+00-2.33589E+01-1.26259E+00-1.68962E+01-1.43860E+00-1.11836E+00
 -1      4584-1.62732E+01-3.20542E+01-3.22205E+00-2.00960E+01-9.02862E-01-3.96358E+00
 -1      4585-3.74869E+01-3.72089E+01-7.42867E+00-4.99676E+01-6.68605E+00-1.06651E-01
 -1      4586-7.38995E-02 1.96722E+02 2.10376E+00-4.20918E+01-6.84794E-01 3.31767E+00
 -1      4587-5.53999E-01 1.95473E+02 7.06332E-01-4.22282E+01-1.33073E-01-2.95538E+00
 -1      4588 3.86696E+00 3.01458E+02 3.37144E+01-5.82573E+01 2.44303E-01 2.03058E-01
 -1      4589 5.87632E+01 3.38726E+02 7.03782E+01-1.42017E+02 1.01083E+01-2.56654E+00
 -1      4590 5.91730E+01 3.39843E+02 7.09048E+01-1.43321E+02-1.02308E+01 2.59263E+00
 -1      4591 6.46972E+00 6.63025E+01-2.41552E+00 2.39515E+01-1.74222E+00 1.43835E+00
 -1      4592 8.19525E+00 5.22767E+01 1.99459E+00 2.05580E+01-2.73619E+00-2.09921E+00
 -1      4593 8.93147E+00 2.87964E+01 1.64321E+00 1.96571E+01-3.68582E+00-6.33261E-01
 -1      4594 6.66534E+00 5.98544E+01-5.86745E-01 2.01611E+01 4.70361E-01 1.24244E-01
 -1      4595 6.77346E+00 4.55259E+01-3.22147E+00-1.82482E+01 1.10118E+00 5.23282E-01
 -1      4596 9.51063E+00 4.38312E+01 5.05814E-01-1.80152E+01-3.91531E+00 7.40282E-01
 -1      4597 7.05471E+00 3.00991E+01 1.09786E-01-1.51551E+01-1.09795E+00-4.58910E-01
 -1      4598 7.51019E+00 4.22197E+01-2.17104E+00-1.70000E+01-3.70962E+00 1.76271E+00
 -1      4599 1.71375E+01 6.91750E+01 3.75452E+00-2.85051E+01-3.28857E+00-2.67227E-01
 -1      4600 9.36491E+00 5.18840E+01 1.63509E-01-2.18142E+01 1.86044E+00-1.90857E-01
 -1      4601 2.21972E+01 1.00946E+02 1.05249E+01-3.67669E+01 2.03195E-01-2.68235E+00
 -1      4602 1.32210E+00 1.42838E+02 1.53584E+01-3.29450E+01-7.21721E+00 2.83313E+00
 -1      4603-1.29766E+00 1.51499E+02 1.86689E+01-2.09581E+01 1.23492E+00-2.73097E+00
 -1      4604 1.01978E+01 1.31197E+02 1.56647E+01-3.93895E+01-2.97042E+00 3.80089E+00
 -1      4605-1.18463E+01 1.89262E+02 2.12008E+01-2.88219E+01-2.97592E+00-5.02672E+00
 -1      4606 8.09473E+00 1.20392E+02 9.87588E+00-3.47306E+01-2.53643E+00 4.43137E+00
 -1      4607-1.05201E+02-1.57899E+01-1.57694E+01-5.47202E+01-3.65804E+00 1.06649E+00
 -1      4608-1.03272E+02-4.08237E+00-7.35439E+00-2.64804E+01-1.94486E-01-4.57389E+00
 -1      4609-8.73243E+01-1.16463E+01-4.59124E-01-2.39613E+01 8.70505E-01-2.09486E+00
 -1      4610-7.13956E+01-3.17368E+01-1.51586E+01-4.78794E+01-4.13107E+00 1.23625E-01
 -1      4611-3.49656E+01-5.70838E+01-1.49700E+01-4.26024E+01 2.77823E+00 1.78428E+00
 -1      4612-8.94769E-01-6.02721E+00-2.11296E+00 1.11979E+00-2.99228E+00 1.42398E+00
 -1      4613-5.11520E+00-1.40252E+01-3.97077E+00 1.00439E+01-1.67852E-01-1.07806E+00
 -1      4614 3.45583E+00 4.84734E+00-2.87002E+00-9.33614E+00 4.82083E-01 2.48193E+00
 -1      4615 6.88036E+00 1.51281E+01-1.01092E+00-1.10494E+01 1.97473E+00-1.28361E+00
 -1      4616-7.00959E+00-1.63768E+01-3.13756E-01 1.36314E+01-2.27471E+00 2.89176E+00
 -1      4617 1.74608E+00-1.07224E+01-3.21245E+00 2.43808E+00 4.22304E+00-1.21725E+00
 -1      4618 5.58773E+00 1.31345E+01-1.99602E+00-9.08798E+00 3.90454E+00-2.62992E+00
 -1      4619 6.91496E+00 3.15559E+01-1.34267E+00-1.67887E+01 3.61208E+00-1.75357E-01
 -1      4620 1.31722E+00 1.86503E+02 1.71044E+01-4.40925E+01-4.24055E+00 1.98809E+00
 -1      4621-6.40428E+00 2.00578E+02 2.39725E+01 2.09029E+00-4.27602E+00-9.58595E-01
 -1      4622 1.01084E+01 1.16635E+01 5.03111E-01 1.10111E+01 2.67940E-02-6.07381E-02
 -1      4623-1.38556E+02-1.13996E+01-1.21626E+01-3.88013E+01-7.40233E+00-5.58822E+00
 -1      4624-1.52539E+02-1.07087E+01-2.07485E+01-1.13148E+01 3.40692E-01 9.81791E-01
 -1      4625-1.43035E+02-6.16870E+00-1.99924E+01-3.20428E+01 4.32177E+00 6.88820E+00
 -1      4626-1.60534E+02 7.15110E-01-2.24977E+01-3.25658E+01-4.40822E+00-8.22038E+00
 -1      4627-1.75547E+02 2.22925E+01-1.89831E+01 2.54132E+00 1.46050E+00-1.09263E+00
 -1      4628-2.88588E+01-4.21554E+01-3.82722E+00 3.25590E+01 3.58079E-01 3.69291E+00
 -1      4629-7.09576E+01-5.21831E+01-1.74353E+01 6.90621E+01-8.79473E+00 5.26300E-01
 -1      4630-9.93738E+01-3.65665E+01-2.14479E+01 5.49700E+01-1.80605E+00-7.45718E-01
 -1      4631-1.84550E+01-2.78397E+01-3.56480E-02 2.18265E+01 2.68307E+00-1.07398E+00
 -1      4632-3.14053E+01-4.93509E+01-5.34301E+00 3.55396E+01 3.41664E+00-4.57181E+00
 -1      4633-6.39319E+01-4.01832E+01-1.40858E+01 4.79946E+01 8.56890E-01-3.13243E+00
 -1      4634-1.94168E+01-3.09643E+01-1.98787E+00-2.34692E+01 2.21232E-01 3.26272E+00
 -1      4635-1.57369E+01-2.48967E+01-5.80457E-01 1.85193E+01-3.09628E+00 9.23970E-01
 -1      4636-1.60106E+01-3.40072E+01-3.42665E+00 2.66413E+01 5.88964E-01-1.88966E+00
 -1      4637-1.21093E+01-2.09034E+01-1.54222E+00 1.40530E+01 1.48373E+00-1.20077E+00
 -1      4638-6.86341E+00-1.42293E+01-2.95736E+00 9.61429E+00 2.37962E+00-2.21779E+00
 -1      4639-1.54968E+01-2.87366E+01-1.84643E+00 2.22374E+01 1.99317E+00 1.17411E+00
 -1      4640-1.65521E+02-6.07880E+00-2.64381E+01 2.69307E+01-7.57607E-01 2.10091E-01
 -1      4641-1.84459E+02 1.44268E+01-2.48051E+01 3.50467E+00 9.03489E-01-2.34353E-01
 -1      4642 3.48464E+00 2.60851E-01 1.86629E+00 3.69006E+00 2.04153E+00 4.13957E+00
 -1      4643 8.94543E+00 2.71866E+01 2.08354E+00 1.85086E+01 3.47479E+00-1.83862E-01
 -1      4644-4.77028E+00-1.63582E+01-9.29299E-01-1.04100E+01 3.21635E+00 6.52604E-01
 -1      4645 7.15332E+00 5.17127E+01 2.12788E+00 2.07984E+01 2.86781E+00 2.69404E+00
 -1      4646-3.53911E+01-4.95379E+01-1.10479E+01 4.23477E+01-5.09474E+00 1.09257E+00
 -1      4647 1.55734E+01 1.65142E+02 2.09411E+00 4.03018E+01 4.04298E-01 6.28941E-01
 -1      4648 6.51260E+00 1.72099E+02 9.22167E+00 4.10306E+01 2.43319E-01 6.08108E-01
 -1      4649-1.46493E+00 2.00705E+02 2.11047E+01 3.45945E+01 1.10409E+01 2.80824E+00
 -1      4650 1.37755E+01 2.32995E+02 1.57539E+01 3.93780E+01 5.58770E+00-8.25686E+00
 -1      4651 1.04566E+01 1.62394E+02 2.74860E+00 4.07339E+01-2.69319E+00-7.49493E-02
 -1      4652 1.46667E+01 2.06180E+02 8.11893E+00 3.62854E+01 2.31772E-02 2.29362E-01
 -1      4653-9.37062E+00 2.06234E+02 2.08768E+01 3.33149E+01-5.14312E+00-2.36728E+00
 -1      4654 1.88951E+01 2.74015E+02 3.21987E+01 5.86906E+01-7.76716E+00 4.30285E+00
 -1      4655 2.04108E+01 2.84688E+02 3.35723E+01 9.47636E+01-1.29921E+00 1.01671E+00
 -1      4656 4.14644E+01 3.23921E+02 5.53662E+01 1.41276E+02-1.17136E+01 1.53408E+00
 -1      4657-7.28395E+00-2.42136E+01-2.15796E+00-1.81884E+01 7.29684E-01-1.84183E-02
 -1      4658-2.36616E+01 1.97511E+02 1.64002E+01-3.21954E+00 5.30757E+00-3.43311E+00
 -1      4659-7.83063E+01-4.32908E+01-1.92156E+01 6.17603E+01 1.14724E+00-8.99717E-02
 -1      4660 6.20880E+00 6.54931E+01-1.75630E+00 2.27908E+01 3.03029E+00-3.02166E-01
 -1      4661 2.64257E+05 1.68929E+06 1.60745E+04 6.43083E+05-4.68745E+02 2.10582E+03
 -1      4662 3.19344E+05 1.10474E+06 8.70875E+04 6.11948E+05-7.66507E+02-1.18702E+03
 -1      4663 3.70344E+05 7.67000E+05 8.14457E+04 5.40166E+05-3.94800E+03-4.27514E+03
 -1      4664 9.40149E+04 2.63273E+06 1.87577E+04 4.10969E+05-6.96587E+02-3.05354E+02
 -1      4665 1.83048E+05 2.24235E+06 1.27619E+04 6.05084E+05 3.18106E+02 7.99001E+01
 -1      4666 3.64171E+05 6.36810E+05 5.13806E+04 4.95418E+05 4.39993E+04 3.96261E+04
 -1      4667 3.70541E+05 6.88278E+05 4.53526E+04 4.78920E+05-5.37878E+04-5.27647E+04
 -1      4668 2.74008E+04 2.74936E+06 2.26553E+04 1.90840E+05-3.56556E+03 3.62199E+02
 -1      4669 2.77531E+04 2.75055E+06 2.24987E+04 1.92517E+05 4.12588E+03-3.46027E+02
 -1      4670 3.40108E+05 5.97771E+05 6.49428E+04 4.38832E+05 7.34436E+04 7.13668E+04
 -1      4671 3.57685E+05 7.78736E+05 1.52674E+04 5.53629E+05 4.51082E+04 3.00103E+04
 -1      4672 4.31013E+05 6.27195E+05 5.54167E+04 4.74875E+05 2.25464E+04 9.98755E+03
 -1      4673 4.77964E+04 2.73506E+06 1.65709E+04 2.39056E+05-1.39191E+03 4.74749E+02
 -1      4674 6.25365E+03 2.70332E+06 1.72665E+04 1.13473E+05-1.26156E+04-4.94770E+03
 -1      4675 1.07066E+04 2.68520E+06 1.81391E+04 1.33947E+05-2.57383E+03-7.24450E+02
 -1      4676 3.35041E+05 7.94602E+05 1.17103E+03 5.61670E+05-5.07796E+04-3.91838E+04
 -1      4677 3.66969E+05 6.06774E+05 4.94942E+04 4.13809E+05-7.17453E+04-5.42599E+04
 -1      4678 4.52815E+05 6.44701E+05 6.46987E+04 4.80619E+05-1.67343E+04-2.33842E+04
 -1      4679 6.25741E+03 2.70514E+06 1.77687E+04 1.14284E+05 1.29263E+04 5.16977E+03
 -1      4680 4.83241E+04 2.73492E+06 1.62531E+04 2.39702E+05 2.07081E+03-7.27364E+02
 -1      4681 1.11759E+04 2.68652E+06 1.82788E+04 1.34777E+05 3.45449E+03 5.85756E+02
 -1      4682 1.03229E+05 2.53382E+06 8.04371E+03 4.75011E+05 1.08739E+04-2.48965E+03
 -1      4683 8.89163E+04 2.68673E+06 1.96138E+04 3.49854E+05-6.98447E+02-8.11254E+03
 -1      4684 7.25410E+04 2.75754E+06 3.21733E+04 2.97916E+05-1.74907E+03 1.60767E+03
 -1      4685 2.11307E+05 2.11320E+06 1.08275E+04 6.17918E+05 1.17266E+04 1.01154E+04
 -1      4686 1.51339E+05 2.38304E+06 1.84524E+04 5.79184E+05 3.93085E+03-5.74538E+02
 -1      4687 1.43996E+05 2.49510E+06 3.58015E+04 5.36592E+05-8.99637E+02 2.26639E+03
 -1      4688 3.01108E+05 1.53611E+06 1.91721E+04 6.63005E+05 2.44704E+04 1.01110E+04
 -1      4689 2.24685E+05 1.79832E+06 5.52254E+02 6.43037E+05 1.37910E+04-5.37709E+03
 -1      4690 2.36120E+05 1.99004E+06 2.40998E+04 6.28310E+05-2.47847E+02 3.08324E+01
 -1      4691 3.73409E+05 1.00484E+06 5.38271E+04 6.07611E+05 3.56155E+04 1.78152E+04
 -1      4692 3.11774E+05 1.23627E+06 3.82004E+04 6.38855E+05 2.10887E+04 2.62180E+03
 -1      4693 3.26104E+05 1.43916E+06 6.05305E+04 6.50033E+05-2.82554E+02 4.77105E+02
 -1      4694 3.91128E+05 8.48855E+05 6.26177E+04 5.83913E+05 3.01338E+04 3.52889E+04
 -1      4695 3.83697E+05 9.31480E+05 1.10045E+05 5.84412E+05-1.10644E+03 2.69028E+02
 -1      4696 3.60898E+05 7.01386E+05 5.90638E+04 5.16881E+05 1.77656E+04 2.03025E+04
 -1      4697 8.77355E+04 2.68617E+06 1.99245E+04 3.50690E+05 1.41198E+03 7.14635E+03
 -1      4698 1.02620E+05 2.53627E+06 6.74771E+03 4.73180E+05-1.26127E+04 7.79101E+02
 -1      4699 7.27888E+04 2.75790E+06 3.26396E+04 2.99021E+05 2.35063E+03-1.56253E+03
 -1      4700 1.49302E+05 2.38321E+06 1.62227E+04 5.78720E+05-3.93395E+03 1.66192E+03
 -1      4701 2.09280E+05 2.11242E+06 1.17800E+04 6.19791E+05-9.97852E+03-1.06176E+04
 -1      4702 2.25004E+05 1.80078E+06-5.20100E+03 6.41555E+05-9.69661E+03 4.24130E+03
 -1      4703 3.01642E+05 1.53663E+06 1.54179E+04 6.58531E+05-2.27409E+04-1.10286E+04
 -1      4704 3.11281E+05 1.23241E+06 3.23626E+04 6.39876E+05-2.26302E+04-6.53836E+03
 -1      4705 3.73196E+05 1.01102E+06 4.94225E+04 6.09989E+05-3.44798E+04-1.75607E+04
 -1      4706 3.92835E+05 8.46880E+05 6.20696E+04 5.82226E+05-3.43174E+04-3.70106E+04
 -1      4707 3.57383E+05 7.16579E+05 6.25360E+04 5.14250E+05-2.36516E+04-3.69488E+04
 -1      4708 4.28755E+05 6.95670E+05 6.39097E+04 4.94848E+05-2.57143E+02-8.99731E+03
 -1      4709 2.68554E+04 2.75011E+06 2.51814E+04 2.00440E+05 2.28500E+02-4.63917E+01
 -1      4710-1.03109E+04 1.84066E+05-2.90733E+02 2.23775E+02 5.73739E-01 2.79731E+01
 -1      4711-1.01109E+04-7.22422E+02-7.39788E+01 5.79835E+01-5.39812E+00-1.08066E+00
 -1      4712-1.00750E+04 1.22536E+04-4.13574E+01 3.44495E+02 2.51852E+00 6.28762E+00
 -1      4713-1.00982E+04 3.39761E+04-9.36609E+01-1.69539E+02 3.25378E+01-2.01544E+01
 -1      4714-1.00679E+04 2.46199E+05 8.73172E+01 4.28938E+02 1.80301E+01-2.98248E+01
 -1      4715-1.00924E+04 5.97880E+05-5.37560E+01 9.64874E+02 8.24124E+01-2.24349E+01
 -1      4716-1.03648E+04 1.32889E+06-5.49824E+02 4.42080E+02-4.09774E+01 1.34837E+02
 -1      4717-1.03325E+04 1.66255E+06-8.95803E+01 3.07109E+03 6.04365E+00 1.11154E+02
 -1      4718-1.00656E+04 1.84297E+06-8.89678E+01 1.57622E+03 5.47680E+01-1.20638E+02
 -1      4719-1.09539E+04 2.13514E+06-5.23111E+02 2.18792E+03 1.47683E+02 2.50490E+01
 -1      4720-9.99203E+03 1.48989E+06 4.32494E+02 6.24389E+01 5.35677E+01 5.73656E+01
 -1      4721-1.00097E+04 8.32306E+04-8.49630E+01 3.01158E+02 4.25389E+01 5.51690E+00
 -1      4722-1.01766E+04 1.04962E+05-1.35865E+02 1.87365E+02-2.39807E+01-2.13156E+01
 -1      4723-1.01164E+04 3.61277E+05-1.68153E+01 3.71974E+00-8.29736E+01-5.42025E+01
 -1      4724-1.03792E+04 4.04779E+05-4.01785E+02 3.73523E+02 5.84530E+01-3.03399E+01
 -1      4725-9.88052E+03 8.29417E+05 5.89893E+01 5.61505E+01 1.87785E+00 1.38384E+02
 -1      4726-9.99311E+03 9.59400E+05 1.07008E+01 1.50146E+03-7.16145E+01-1.03895E+00
 -1      4727-1.00690E+04 4.79211E+03-3.74721E+01 5.33968E+01 1.72392E+01 2.08777E+00
 -1      4728-1.00612E+04 2.19493E+04-1.10193E+02 9.14933E+01-5.80555E-01 1.37122E+01
 -1      4729-1.00826E+04 6.47180E+04-8.93584E+01 2.39127E+02-6.62007E+01-9.36365E+00
 -1      4730-1.02244E+04 4.85868E+04-1.89707E+02 2.32333E+01-1.94470E+01 1.36552E+01
 -1      4731-9.96289E+03 1.28234E+05-3.81041E+01 5.42905E+02 3.31343E+01 1.35371E+01
 -1      4732-1.00993E+04 1.54669E+05-3.54648E+01 6.12962E+01 9.56495E+01-1.08932E+01
 -1      4733-9.87040E+03 2.13419E+05-8.91644E+01 6.48958E+02-1.98636E+01-9.06260E+00
 -1      4734-1.00881E+04 3.21170E+05-1.31562E+02 4.98200E+02-7.00858E+01-3.27263E+01
 -1      4735-1.02568E+04 2.82598E+05-2.11749E+02 2.72528E+02-3.82192E+01-1.61646E+01
 -1      4736-1.01338E+04 4.48572E+05-1.05113E+02 7.17969E+02 1.92291E+02 3.56076E+01
 -1      4737-9.93475E+03 4.94957E+05-2.17519E+01 4.25180E+02-1.45815E+02-4.99455E+01
 -1      4738-1.02667E+04 5.45521E+05-2.55192E+02 3.78986E+02-4.08052E+01 9.56530E+00
 -1      4739-1.04331E+04 8.95368E+05-3.62111E+02 2.86330E+02-1.35760E+01 1.32869E+02
 -1      4740-9.85142E+03 1.24840E+06 2.40206E+02 9.37057E+01 7.63859E+01-2.07022E+02
 -1      4741-1.00371E+04 1.40700E+06-3.21894E+00 1.91890E+03-8.16301E+01-6.44191E+00
 -1      4742-1.01644E+04 1.57644E+06-1.37151E+02 5.19623E+02 1.72565E+02-1.70515E+02
 -1      4743-1.02049E+04 1.75142E+06 1.60550E+02 2.93019E+03-4.07841E+01-9.49165E+01
 -1      4744-1.03723E+04 2.03662E+06-3.24695E+01 1.24833E+03 1.42442E+02 1.58264E+02
 -1      4745-1.00772E+04 1.93883E+06 1.20258E+02 1.31098E+03 9.15210E+01-2.77933E+00
 -1      4746-1.09534E+04 2.23771E+06-1.31936E+03 4.09492E+03-4.31544E+02 2.44174E+02
 -1      4747-1.01437E+04 1.17252E+06 1.82118E+02 1.68060E+03 5.96242E+01 2.77982E+00
 -1      4748-1.03243E+04 7.10495E+05-4.53822E+02 2.76074E+02-5.07045E+01-9.22716E+01
 -1      4749-9.86926E+03 1.02828E+06 1.32934E+02 6.24989E+01 7.36450E+01 3.15593E+01
 -1      4750-1.04248E+04 1.10147E+06-3.85335E+02 4.09639E+02 8.48751E+01-1.13110E+02
 -1      4751-1.00578E+04 6.52238E+05 4.58467E+01 3.13509E+01-1.08075E+02-1.11054E+02
 -1      4752-9.92064E+03 7.67516E+05-7.80605E+01 1.32650E+03-1.08491E+01 7.72694E+00
 -1      4753-1.07159E+04-4.53209E+03-6.06118E+02 5.01849E+02-1.48119E+01 1.72705E+01
 -1      4754-1.93314E+04 2.34514E+06-7.62151E+03 7.04473E+02-2.14303E+02-1.95754E+02
 -1      4755-1.05156E+04-3.57797E+03-2.79383E+02 3.85885E+02-1.80125E+02 3.33938E+01
 -1      4756-9.60544E+03-5.02165E+03-8.78966E+02-1.97426E+02 2.47902E+02 1.82404E+02
 -1      4757-9.90454E+03-4.43555E+03-1.18465E+03-4.12922E+02-4.55228E+00 1.29395E+01
 -1      4758-1.55572E+04 2.42227E+06-1.01605E+04 1.31550E+04-9.06496E+03 1.08379E+02
 -1      4759-1.60075E+04 2.32853E+06-4.03383E+03-1.78585E+02-1.81275E+03 1.81628E+03
 -1      4760-1.40596E+04 2.43944E+06-9.31665E+03 2.32999E+04-1.72786E+02 5.76632E+01
 -1      4761-9.59513E+03-4.99935E+03-9.02883E+02-2.22991E+02-2.79527E+02-1.26274E+02
 -1      4762-1.05161E+04-3.71203E+03-2.94049E+02 4.04561E+02 1.74635E+02-1.91187E+01
 -1      4763-1.70485E+04 2.32562E+06-3.67955E+03-5.05721E+02 2.15510E+03-1.76479E+03
 -1      4764-1.62200E+04 2.42297E+06-9.19569E+03 1.33984E+04 8.65830E+03 2.92735E+02
 -1      4765-1.01117E+04 5.49933E+02-1.03523E+01 1.24841E+02-1.47796E+02-9.03494E+00
 -1      4766-1.00875E+04-2.03520E+03-8.78277E+01 1.26894E+02-1.10673E+02 7.90488E+01
 -1      4767-1.01639E+04-2.69303E+03-3.30859E+02 4.13422E+01-8.82074E+00-2.13811E+01
 -1      4768-1.01760E+04 6.47530E+03-2.33827E+01 1.74466E+02-8.39867E+01-3.78578E+01
 -1      4769-1.00070E+04 2.98078E+03-5.46715E+01 1.27351E+02-5.82802E+01 3.27170E+01
 -1      4770-1.01480E+04 1.55039E+03-2.21662E+02 8.24620E+00 7.84311E+00 1.82205E+00
 -1      4771-1.01830E+04 1.43047E+04-1.26744E+02 1.38031E+02-1.61326E+02-1.61847E+01
 -1      4772-9.99003E+03 1.03802E+04 1.15791E+01 2.51171E+02-9.71087E+01 8.26629E+01
 -1      4773-1.02433E+04 8.33197E+03-1.40458E+02 2.58779E+02 4.93013E+00-3.19925E+00
 -1      4774-1.01210E+04 2.49573E+04 3.47671E-01 1.01925E+02-1.46829E+02-4.08928E+01
 -1      4775-1.00199E+04 1.93268E+04-7.40253E+01 1.53868E+02-1.05266E+02 8.17669E+01
 -1      4776-1.00866E+04 1.66459E+04-1.33134E+02 2.85863E+02 1.21462E+01 1.33982E+01
 -1      4777-1.00670E+04 3.73624E+04-4.16485E+01 2.84890E-01-1.10380E+02-1.86801E+01
 -1      4778-1.00000E+04 3.03285E+04-1.61620E+02 5.72734E+01-1.85271E+01 5.99728E+01
 -1      4779-1.00856E+04 2.73777E+04-3.27425E+02-2.20416E+02 2.76039E+01 2.21694E+01
 -1      4780-1.02157E+04 5.24148E+04 2.52483E+01 1.99286E+02-2.26380E+02-3.94706E+01
 -1      4781-1.00512E+04 4.41458E+04-1.32773E+02 1.39259E+02-1.16720E+02 1.17841E+02
 -1      4782-1.03110E+04 4.04899E+04-3.73573E+02-9.33052E+01 1.23679E+01-5.55996E+01
 -1      4783-1.01789E+04 6.94131E+04-5.23086E+01 2.45502E+02-3.31765E+02-8.53407E+01
 -1      4784-1.00721E+04 6.00946E+04-1.94530E+02 2.35487E+02-1.75321E+02 6.91774E+01
 -1      4785-1.03129E+04 5.60521E+04-4.47181E+02 4.74393E+00 4.57817E+00 5.00288E+01
 -1      4786-1.02480E+04 8.86908E+04-7.38882E+01 2.29090E+02-2.36658E+02-5.27244E+01
 -1      4787-9.87143E+03 7.82348E+04 3.05728E+00 3.06432E+02-1.93890E+02 3.57272E+01
 -1      4788-1.00877E+04 7.36546E+04-1.81417E+02 3.05958E+02 4.58847E+01 6.23254E+01
 -1      4789-1.01481E+04 1.11301E+05 1.65376E+01 2.41575E+02-3.08710E+02-8.52495E+01
 -1      4790-9.92434E+03 9.90236E+04-2.89281E+02 3.36302E+02-2.47031E+02 2.00141E+02
 -1      4791-9.90478E+03 9.38471E+04 1.46736E+02 1.69656E+02-4.67916E+01-3.46538E+01
 -1      4792-1.03253E+04 1.34632E+05-1.46921E+02 5.30005E+02-2.87157E+02-9.23823E+01
 -1      4793-1.00117E+04 1.22186E+05-5.21697E+01 4.48443E+02-2.50896E+02 7.70600E+01
 -1      4794-1.02003E+04 1.16641E+05-3.80817E+02 1.54233E+02 1.91659E+01-2.16566E+01
 -1      4795-1.02413E+04 1.61779E+05 3.16342E+01 1.12956E+02-2.66469E+02-7.80440E+01
 -1      4796-9.85973E+03 1.47744E+05-1.48579E+02 3.19141E+02-1.73489E+02 1.66873E+02
 -1      4797-9.98530E+03 1.40935E+05 6.02499E+01 5.61944E+02 3.29700E+01-4.16781E+01
 -1      4798-1.03417E+04 1.91125E+05 4.34520E+01 4.35312E+02-3.88889E+02-8.65257E+01
 -1      4799-9.93013E+03 1.75539E+05-1.18682E+02 3.11022E+02-2.71918E+02 2.06196E+02
 -1      4800-1.03769E+04 1.68403E+05-5.22953E+02 2.75471E+01 1.27212E+01 1.03382E+01
 -1      4801-1.03258E+04 2.21533E+05-2.31346E+02 6.43820E+02-3.84953E+02-1.01536E+02
 -1      4802-9.86539E+03 2.05612E+05-5.01967E+01 5.36851E+02-3.73255E+02 1.03098E+02
 -1      4803-1.02423E+04 1.98278E+05-5.75738E+02 2.60408E+02-1.92319E+01 5.09298E+01
 -1      4804-1.03751E+04 2.55782E+05-1.39696E+02 2.72514E+02-3.61128E+02-1.01809E+02
 -1      4805-9.80363E+03 2.38330E+05-8.40584E+01 5.00317E+02-2.81695E+02 1.36163E+02
 -1      4806-9.85996E+03 2.29844E+05 1.82777E+02 7.51419E+02-1.96166E+01-3.59119E+01
 -1      4807-1.03228E+04 2.92481E+05 1.76799E+02 4.75330E+02-4.27387E+02-1.70389E+02
 -1      4808-9.82276E+03 2.72826E+05-2.48416E+02 4.18852E+02-4.22115E+02 2.67031E+02
 -1      4809-9.94005E+03 2.64359E+05 3.49136E+02 6.67901E+01-8.22421E+01-4.17416E+01
 -1      4810-1.02228E+04 3.30902E+05-4.23977E+01 6.17951E+02-5.91462E+02-1.59312E+02
 -1      4811-1.00102E+04 3.10390E+05-2.73010E+02 5.95404E+02-4.23451E+02 2.09109E+02
 -1      4812-1.06786E+04 3.01152E+05-8.80318E+02 9.37437E+01-1.07369E+02 1.00766E+02
 -1      4813-1.01585E+04 3.71528E+05 2.56982E+01 2.90332E+02-4.72687E+02-1.38982E+02
 -1      4814-9.88935E+03 3.49664E+05-2.91719E+02 3.35355E+02-2.97383E+02 1.60940E+02
 -1      4815-1.03190E+04 3.39533E+05-7.15993E+02-1.42954E+02-7.27986E+01-1.69772E+01
 -1      4816-1.02042E+04 4.15517E+05-9.91983E+01 6.02401E+02-5.46562E+02-1.21494E+02
 -1      4817-9.83597E+03 3.92286E+05-3.86751E+02 6.35096E+02-3.79394E+02 3.65678E+02
 -1      4818-1.05342E+04 3.81425E+05-6.75068E+02 2.11449E+02-1.43247E+01-2.49423E+00
 -1      4819-1.06287E+04 4.59461E+05-2.22835E+02 9.49871E+02-4.62422E+02-1.33419E+02
 -1      4820-9.97702E+03 4.36350E+05-2.05727E+01 7.92695E+02-4.52575E+02 2.21181E+02
 -1      4821-1.05976E+04 4.25453E+05-9.63971E+02 2.93355E+02 2.94755E+01-8.06944E+01
 -1      4822-1.04960E+04 5.08036E+05-1.39941E+02 3.18649E+02-5.11512E+02-1.31218E+02
 -1      4823-9.57743E+03 4.83494E+05-2.77679E+01 5.11068E+02-4.85654E+02 1.45936E+02
 -1      4824-1.00998E+04 4.71188E+05-2.84539E+02 5.97972E+02-1.09271E+02-1.78539E+02
 -1      4825-1.04192E+04 5.59005E+05 2.60365E+02 6.54079E+02-5.56934E+02-2.35932E+02
 -1      4826-9.68550E+03 5.31879E+05-2.77775E+02 5.33577E+02-6.15179E+02 3.55025E+02
 -1      4827-9.87038E+03 5.20081E+05 4.82169E+02 3.46149E+01-6.64576E+01-6.52438E+01
 -1      4828-1.05583E+04 6.10519E+05-2.35522E+02 1.15702E+03-5.10182E+02-1.58913E+02
 -1      4829-9.76509E+03 5.83742E+05 4.51753E+01 8.84502E+02-5.87841E+02 2.46928E+02
 -1      4830-1.06618E+04 5.71284E+05-9.76049E+02 3.57646E+02-1.30599E+02 5.07572E+01
 -1      4831-1.01738E+04 6.66499E+05 7.52432E+01 6.53318E+01-5.81011E+02-2.09817E+02
 -1      4832-9.70258E+03 6.37807E+05-2.76245E+02 4.76511E+02-4.87177E+02 2.62972E+02
 -1      4833-1.03429E+04 6.23660E+05-3.46765E+02 6.32384E+02-2.29716E+02-2.56967E+02
 -1      4834-1.02228E+04 7.24576E+05-1.42957E+02 5.20498E+02-6.89719E+02-1.56660E+02
 -1      4835-9.72178E+03 6.94061E+05-4.97681E+02 5.74315E+02-4.75040E+02 3.54734E+02
 -1      4836-1.01518E+04 6.79821E+05-6.47105E+02 5.73043E+01 1.06968E+01-4.64981E+01
 -1      4837-1.04996E+04 7.82836E+05-2.03759E+02 1.20651E+03-7.60452E+02-2.56138E+02
 -1      4838-9.78827E+03 7.52604E+05-4.77246E+01 1.06027E+03-7.09212E+02 2.34073E+02
 -1      4839-1.02859E+04 7.38456E+05-8.13377E+02 6.69404E+02-1.47886E+01-1.07406E+02
 -1      4840-1.04636E+04 8.45894E+05 4.22206E+02 1.66080E+02-5.94257E+02-2.15238E+02
 -1      4841-9.83438E+03 8.13127E+05-8.32037E+01 4.79901E+02-6.03791E+02 2.97983E+02
 -1      4842-9.80706E+03 7.97754E+05 2.67025E+02 1.11053E+03-1.51060E+01 9.05531E+01
 -1      4843-1.06264E+04 9.10735E+05 2.92799E+02 6.57201E+02-6.44152E+02-2.23039E+02
 -1      4844-9.72858E+03 8.76933E+05 2.41750E+01 4.47497E+02-5.56032E+02 3.20206E+02
 -1      4845-1.01356E+04 8.61119E+05-6.45911E+02 1.43616E+01-1.79979E+00-1.64248E+01
 -1      4846-1.08559E+04 9.76514E+05-2.90088E+02 1.33809E+03-8.57987E+02-3.04480E+02
 -1      4847-9.60353E+03 9.42784E+05 1.82180E+02 1.18432E+03-7.53800E+02 1.88649E+02
 -1      4848-1.03151E+04 9.26753E+05-8.10366E+02 7.77720E+02-7.42361E+01 1.46281E+02
 -1      4849-1.04540E+04 1.04664E+06 2.47008E+02 1.89533E+02-6.51778E+02-2.92197E+02
 -1      4850-9.42844E+03 1.01057E+06-2.02403E+02 6.03181E+02-5.73143E+02 2.95938E+02
 -1      4851-9.77288E+03 9.93092E+05 4.01556E+02 1.19518E+03-7.39246E+01-1.05456E+02
 -1      4852-1.03236E+04 1.11886E+06-1.59089E+02 7.14560E+02-7.50993E+02-1.93485E+02
 -1      4853-9.47418E+03 1.08130E+06-3.90131E+02 6.86870E+02-4.92074E+02 3.87791E+02
 -1      4854-1.01112E+04 1.06366E+06-6.70852E+02 7.13563E+01 1.74231E+01 2.16333E+02
 -1      4855-1.10046E+04 1.19121E+06-2.57666E+02 1.42030E+03-8.47662E+02-2.63742E+02
 -1      4856-9.84353E+03 1.15391E+06 1.33435E+02 1.41740E+03-7.98694E+02 3.10293E+02
 -1      4857-1.04526E+04 1.13629E+06-7.71905E+02 9.89448E+02 7.01664E+01-9.57787E+01
 -1      4858-1.02385E+04 1.26880E+06 3.21027E+01 1.70793E+02-8.22408E+02-3.21479E+02
 -1      4859-9.42572E+03 1.22868E+06-5.23808E+02 7.02388E+02-6.41728E+02 3.23625E+02
 -1      4860-9.81837E+03 1.20970E+06 6.51580E+02 1.26628E+03 6.21578E+01-1.16225E+02
 -1      4861-1.05948E+04 1.34748E+06 2.74841E+02 8.01443E+02-7.98880E+02-2.56918E+02
 -1      4862-9.72309E+03 1.30668E+06-8.21253E+01 6.16840E+02-8.09773E+02 4.27529E+02
 -1      4863-9.99944E+03 1.28757E+06-7.10506E+02 1.98210E+02-6.92475E+01-1.60396E+02
 -1      4864-1.08725E+04 1.42764E+06-3.33648E+02 1.55248E+03-9.45218E+02-3.22820E+02
 -1      4865-9.45940E+03 1.38676E+06 1.71311E+02 1.56452E+03-9.44112E+02 3.01680E+02
 -1      4866-1.04111E+04 1.36718E+06-1.03993E+03 1.16201E+03-8.66148E+01 1.32963E+02
 -1      4867-1.07992E+04 1.51189E+06 3.59417E+02 2.08261E+02-8.66932E+02-3.40679E+02
 -1      4868-9.61617E+03 1.46845E+06-2.26803E+02 6.71952E+02-7.05694E+02 3.48702E+02
 -1      4869-9.77919E+03 1.44766E+06 6.56014E+02 1.38695E+03-1.12394E+02-1.77583E+02
 -1      4870-1.02932E+04 1.59707E+06-2.61318E+02 6.72241E+02-9.02883E+02-3.91814E+02
 -1      4871-9.30793E+03 1.55379E+06-1.16088E+02 6.85040E+02-7.61126E+02 3.12438E+02
 -1      4872-9.77889E+03 1.53313E+06-1.65600E+02 2.17904E+02 2.21350E+01 2.41966E+02
 -1      4873-1.10926E+04 1.68359E+06-2.02057E+02 3.08410E+03-1.12654E+03-6.86441E+02
 -1      4874-9.39862E+03 1.64143E+06 5.64366E+02 1.36555E+03-1.34683E+03 2.02615E+02
 -1      4875-1.00287E+04 1.61987E+06-5.27050E+01 1.66546E+03 5.23751E+01-8.81036E+01
 -1      4876-1.08707E+04 1.77547E+06-3.15272E+02 1.74383E+03-1.33820E+03-2.90387E+02
 -1      4877-9.38769E+03 1.73056E+06-1.39218E+02 3.21571E+03-1.08555E+03 6.74953E+02
 -1      4878-9.73535E+03 1.70734E+06 5.28017E+02 3.75169E+03-7.94129E+01-5.99036E+01
 -1      4879-1.03440E+04 1.86885E+06 3.28569E+01 1.37543E+03-1.01453E+03-3.12360E+02
 -1      4880-9.43054E+03 1.82141E+06-4.08254E+02 1.72015E+03-1.20208E+03 4.50175E+02
 -1      4881-9.98246E+03 1.79850E+06 4.83703E+02 2.08952E+03-3.74473E+01-6.16938E+01
 -1      4882-1.01063E+04 1.96486E+06 7.23052E+02 1.56692E+03-1.20336E+03-5.89822E+02
 -1      4883-9.97744E+03 1.91308E+06-6.54376E+02 1.63859E+03-1.20811E+03 6.61476E+02
 -1      4884-9.37779E+03 1.89175E+06 1.19586E+03 8.86653E+02 1.80793E+02 2.75657E+02
 -1      4885-1.07423E+04 2.05991E+06 3.31524E+02 1.46126E+03-1.14419E+03-3.70520E+02
 -1      4886-9.90918E+03 2.01000E+06-1.44340E+02 1.47565E+03-9.17512E+02 3.89970E+02
 -1      4887-1.11136E+04 1.98648E+06-1.31128E+03 9.44812E+02 2.09558E+02-2.64189E+02
 -1      4888-1.21114E+04 2.15975E+06-2.13727E+02 3.02132E+03-9.45923E+02-6.87752E+02
 -1      4889-9.50007E+03 2.10817E+06 3.48764E+01 1.42188E+03-9.79276E+02 3.90974E+02
 -1      4890-1.08031E+04 2.08318E+06-1.20299E+03 1.46913E+03 7.87649E+01 5.54934E+01
 -1      4891-1.46741E+04 2.26268E+06-3.73418E+03-9.53680E+02-2.38036E+03 2.60803E+02
 -1      4892-9.96798E+03 2.21337E+06 2.00696E+02 3.34031E+03-1.29523E+03 1.34094E+03
 -1      4893-1.27482E+04 2.18533E+06-1.76478E+03 4.28981E+03-1.20415E+02-1.83837E+02
 -1      4894-1.25896E+04 2.27989E+06-6.39894E+03 2.74223E+03-1.49449E+02 1.78063E+02
 -1      4895-1.00804E+04-2.05046E+03-6.28843E+01 1.43087E+02 1.20684E+02-8.73985E+01
 -1      4896-1.00935E+04 5.34749E+02-2.47364E+01 1.09689E+02 1.29402E+02-8.36875E+00
 -1      4897-1.00425E+04 2.95198E+03-1.05618E+02 1.44801E+02 5.95384E+01-4.06127E+01
 -1      4898-1.01344E+04 6.51631E+03-2.81494E+01 1.74100E+02 9.95636E+01 3.39555E+01
 -1      4899-1.00074E+04 1.03976E+04-8.17950E+00 2.42880E+02 9.00700E+01-7.75846E+01
 -1      4900-1.01398E+04 1.43013E+04-1.28829E+02 1.22349E+02 1.60956E+02 8.89685E+00
 -1      4901-9.98402E+03 1.93932E+04-1.23695E+02 1.55950E+02 9.18430E+01-9.32051E+01
 -1      4902-1.01015E+04 2.49543E+04-7.06592E+01 8.70382E+01 1.54291E+02 2.96571E+01
 -1      4903-1.00212E+04 3.03097E+04-1.27769E+02 2.50584E+01 5.92005E+01-5.81858E+01
 -1      4904-1.01442E+04 3.73039E+04 2.94320E+01 9.69481E+00 1.50621E+02 2.67539E+01
 -1      4905-9.98705E+03 4.41502E+04-1.73859E+02 1.68565E+02 1.00909E+02-1.44823E+02
 -1      4906-1.01319E+04 5.24823E+04-6.74435E+01 1.69196E+02 1.92278E+02 1.71219E+01
 -1      4907-1.00637E+04 6.00342E+04-6.66649E+01 2.82958E+02 1.60935E+02-8.50959E+01
 -1      4908-1.02884E+04 6.89311E+04-1.39845E+02 3.95003E+02 1.82430E+02 4.35034E+01
 -1      4909-9.85235E+03 7.86428E+04-8.26453E+01 3.16105E+02 2.05984E+02-9.12588E+01
 -1      4910-1.01717E+04 8.87217E+04-7.61640E+01 2.06978E+02 2.30720E+02 5.85852E+01
 -1      4911-9.96266E+03 9.88558E+04-1.41120E+02 2.58246E+02 2.54012E+02-1.61104E+02
 -1      4912-1.02507E+04 1.11134E+05 1.48351E+02 3.00743E+02 2.83937E+02 1.20024E+02
 -1      4913-9.96041E+03 1.22198E+05-5.38604E+01 4.20378E+02 2.68835E+02-5.68624E+01
 -1      4914-1.02528E+04 1.34605E+05-1.33061E+02 5.61617E+02 3.20328E+02 1.10425E+02
 -1      4915-9.99502E+03 1.47515E+05-1.64017E+02 3.16158E+02 2.65932E+02-1.79587E+02
 -1      4916-1.01048E+04 1.61970E+05 1.11157E+02 7.48705E+01 3.26598E+02 8.44232E+01
 -1      4917-9.96548E+03 1.75561E+05-3.22493E+02 4.08668E+02 2.57509E+02-2.41961E+02
 -1      4918-1.01856E+04 1.91414E+05-7.34887E+01 3.99288E+02 4.22563E+02 7.50285E+01
 -1      4919-9.94803E+03 2.05645E+05-8.75206E+01 5.71511E+02 3.59927E+02-9.81317E+01
 -1      4920-1.02658E+04 2.21576E+05-1.37301E+02 6.49995E+02 4.03089E+02 1.33057E+02
 -1      4921-9.87212E+03 2.38154E+05 2.16223E+01 4.32753E+02 3.69723E+02-1.16008E+02
 -1      4922-1.03117E+04 2.55857E+05 1.63896E+02 3.53799E+02 3.36705E+02 1.12964E+02
 -1      4923-9.91798E+03 2.72593E+05-3.46425E+02 4.88102E+02 3.75964E+02-2.98195E+02
 -1      4924-1.01310E+04 2.92887E+05 1.40998E+02 4.93702E+02 4.47276E+02 1.57976E+02
 -1      4925-1.01003E+04 3.10399E+05-2.25772E+02 6.22078E+02 3.20727E+02-1.83511E+02
 -1      4926-1.03138E+04 3.30853E+05 1.01224E+02 6.39399E+02 5.29210E+02 1.91764E+02
 -1      4927-9.79260E+03 3.49808E+05 2.90360E+01 2.52119E+02 2.53319E+02-1.25222E+02
 -1      4928-1.04386E+04 3.71364E+05 1.20227E+02 3.71387E+02 4.00910E+02 1.10043E+02
 -1      4929-9.79548E+03 3.92306E+05-9.99697E+01 4.82466E+02 4.54324E+02-2.98826E+02
 -1      4930-1.04096E+04 4.15202E+05 9.62663E+01 6.65972E+02 5.88318E+02 1.39004E+02
 -1      4931-9.93293E+03 4.36516E+05-3.04810E+02 6.86670E+02 5.20083E+02-1.73824E+02
 -1      4932-1.04209E+04 4.60436E+05-7.28137E+01 6.09852E+02 7.96920E+02 2.30770E+02
 -1      4933-9.47283E+03 4.82839E+05 1.16780E+02 5.64803E+02 4.43597E+02-9.29073E+01
 -1      4934-1.05077E+04 5.08212E+05 2.88846E+01 4.81883E+02 4.50403E+02 1.12342E+02
 -1      4935-9.75479E+03 5.31677E+05-4.51897E+02 5.98131E+02 5.08776E+02-3.95863E+02
 -1      4936-1.01875E+04 5.59613E+05 1.68882E+02 6.89590E+02 6.38790E+02 2.25183E+02
 -1      4937-1.00596E+04 5.83893E+05-3.31737E+02 9.33989E+02 5.14519E+02-2.43776E+02
 -1      4938-1.04715E+04 6.11653E+05 5.40221E+01 7.96427E+02 8.26373E+02 2.46092E+02
 -1      4939-9.75678E+03 6.37099E+05 5.58905E+01 4.29949E+02 4.32017E+02-1.27914E+02
 -1      4940-1.05963E+04 6.66364E+05 2.90408E+02 3.10059E+02 6.56564E+02 1.76421E+02
 -1      4941-9.53021E+03 6.94288E+05 3.12092E+01 4.28347E+02 5.20484E+02-3.07895E+02
 -1      4942-1.04557E+04 7.24201E+05 1.62486E+02 5.74571E+02 5.24191E+02 1.90395E+02
 -1      4943-9.64750E+03 7.52616E+05 7.37614E+01 1.00708E+03 6.36875E+02-2.03996E+02
 -1      4944-1.07134E+04 7.82788E+05-3.41552E+02 1.21267E+03 6.91472E+02 2.24793E+02
 -1      4945-9.47389E+03 8.13390E+05-4.47197E+02 6.12274E+02 5.03880E+02-2.82600E+02
 -1      4946-1.01760E+04 8.46096E+05 1.52054E+01 6.49488E+01 6.19978E+02 2.05231E+02
 -1      4947-9.76449E+03 8.76960E+05-5.63075E+02 6.18294E+02 4.70687E+02-3.78808E+02
 -1      4948-1.03066E+04 9.11049E+05-1.52282E+02 5.74570E+02 7.93035E+02 1.47042E+02
 -1      4949-9.80753E+03 9.42523E+05-5.18256E+01 1.22631E+03 7.78346E+02-2.98163E+02
 -1      4950-1.05338E+04 9.76448E+05-1.88937E+02 1.30883E+03 7.75776E+02 2.65124E+02
 -1      4951-9.83762E+03 1.01003E+06-3.03148E+02 5.21390E+02 6.60439E+02-3.14120E+02
 -1      4952-1.02624E+04 1.04688E+06 3.18713E+02 1.40164E+02 7.25574E+02 2.78453E+02
 -1      4953-9.79385E+03 1.08113E+06-1.16872E+02 5.60279E+02 7.14330E+02-3.90467E+02
 -1      4954-1.06136E+04 1.11849E+06 3.05414E+02 7.21598E+02 7.69672E+02 2.31854E+02
 -1      4955-9.64347E+03 1.15408E+06 1.79841E+02 1.32892E+03 8.53640E+02-2.25246E+02
 -1      4956-1.06850E+04 1.19145E+06-1.08989E+02 1.46448E+03 9.14718E+02 3.63106E+02
 -1      4957-9.91607E+03 1.22839E+06 9.51843E+00 5.60645E+02 7.68206E+02-3.14538E+02
 -1      4958-1.06276E+04 1.26885E+06 6.48293E+02 2.93739E+02 7.54597E+02 3.05189E+02
 -1      4959-9.35106E+03 1.30696E+06-5.41875E+02 7.79647E+02 5.64915E+02-3.89441E+02
 -1      4960-1.02456E+04 1.34808E+06-2.55127E+02 7.77297E+02 8.60042E+02 2.12680E+02
 -1      4961-9.74784E+03 1.38663E+06 1.20737E+01 1.61256E+03 9.05785E+02-3.72944E+02
 -1      4962-1.06618E+04 1.42762E+06-1.29153E+02 1.59469E+03 8.67697E+02 3.30176E+02
 -1      4963-9.97028E+03 1.46784E+06-2.61693E+02 5.81099E+02 7.57415E+02-2.95101E+02
 -1      4964-1.04687E+04 1.51224E+06 4.84017E+02 1.94848E+02 9.07195E+02 3.76453E+02
 -1      4965-9.69961E+03 1.55359E+06 4.00074E+01 7.19787E+02 1.03213E+03-3.74818E+02
 -1      4966-1.07219E+04 1.59680E+06 1.00074E+02 7.60529E+02 1.03959E+03 3.12375E+02
 -1      4967-9.05782E+03 1.64153E+06 2.73175E+02 1.32864E+03 1.31252E+03-1.59137E+02
 -1      4968-1.09988E+04 1.68381E+06-5.57459E+02 3.02297E+03 1.15762E+03 7.37399E+02
 -1      4969-9.61649E+03 1.72995E+06 1.94054E+02 3.15807E+03 1.12482E+03-7.19527E+02
 -1      4970-1.09061E+04 1.77551E+06 6.58450E+01 1.99825E+03 1.22042E+03 3.74830E+02
 -1      4971-9.80661E+03 1.82107E+06-2.12936E+01 1.67033E+03 1.18454E+03-3.94582E+02
 -1      4972-1.04845E+04 1.86877E+06 2.71063E+02 1.33454E+03 9.86989E+02 3.47445E+02
 -1      4973-9.61510E+03 1.91410E+06-4.92428E+02 1.55679E+03 1.10160E+03-5.15973E+02
 -1      4974-1.04136E+04 1.96414E+06 6.04370E+02 1.53788E+03 1.18825E+03 5.94613E+02
 -1      4975-9.80262E+03 2.01013E+06-4.62926E+02 1.48405E+03 9.70040E+02-3.49859E+02
 -1      4976-1.04018E+04 2.06014E+06-5.33786E+01 1.53293E+03 1.26982E+03 3.36352E+02
 -1      4977-9.43208E+03 2.10803E+06-4.33005E+02 1.74243E+03 1.04604E+03-5.18704E+02
 -1      4978-1.16679E+04 2.16064E+06-3.51485E+02 3.11882E+03 1.15281E+03 6.16814E+02
 -1      4979-1.03701E+04 2.21440E+06-1.87901E+02 2.90028E+03 8.64976E+02-1.14899E+03
 -1      4980-1.42442E+04 2.26173E+06-4.55660E+03-8.47125E+02 2.12972E+03-1.70575E+01
 -1      4981-2.57124E+01 3.79402E+02 1.09324E+01-1.58484E+02-6.88007E-01 2.45600E+00
 -1      4982 3.71233E+01 1.12994E+03 1.19334E+02 2.56571E+00 1.68334E+00 1.96144E+00
 -1      4983 4.30839E+01 2.40197E+02 4.98047E+01-1.17914E+02-2.45104E+00-8.15147E+00
 -1      4984 6.23958E+01 2.34612E+02 5.11642E+01-1.23760E+02 3.91219E+00 6.11319E+00
 -1      4985 3.57756E+02 2.41639E+03 7.53833E+02 2.06323E+02 3.41072E+01-4.58006E+01
 -1      4986 3.66485E+02 2.37307E+03 7.21173E+02 2.06073E+02-1.07872E+01 5.45730E+01
 -1      4987 1.85018E+00 2.44278E+02-2.56588E+00-1.19359E+02-1.04747E+01 9.52549E+00
 -1      4988 9.16655E+01 2.32760E+02 4.08939E+01-1.35824E+02-7.97364E+00-6.42641E+00
 -1      4989 8.01789E+01 2.25843E+02 5.15629E+01-1.19002E+02-1.31766E-01-5.07026E+00
 -1      4990-6.80944E+02 2.15830E+03 1.18043E+03-8.61249E+02 5.47436E+02-1.82059E+02
 -1      4991 6.75376E+02 1.95903E+03 3.59646E+02 4.54296E+02-1.54686E+02-2.61857E+01
 -1      4992-2.42361E+02 1.29207E+03 1.10426E+03-9.90963E+02 1.74810E+02 1.05348E+02
 -1      4993 9.23739E+01 2.31459E+02 4.28349E+01-1.36174E+02 9.75704E+00 6.06700E+00
 -1      4994 8.01706E+00 2.50231E+02 4.65117E+00-1.14676E+02 9.68986E+00-8.72564E+00
 -1      4995 8.16339E+01 2.27126E+02 5.12929E+01-1.20716E+02 6.03696E-01 6.44233E+00
 -1      4996 6.82276E+02 1.91514E+03 3.40145E+02 4.51278E+02 1.72490E+02 2.99779E+01
 -1      4997-7.81219E+02 2.16451E+03 1.14282E+03-8.09057E+02-5.40072E+02 1.89601E+02
 -1      4998-2.13083E+02 1.27405E+03 1.03365E+03-9.75069E+02-1.62036E+02-1.05943E+02
 -1      4999-8.36125E+01 1.55427E+03 1.02639E+02-8.88367E+00-1.07043E+02-8.35944E+00
 -1      5000 3.85843E+01 4.88458E+02-1.30071E+00-1.27951E+02-8.74695E+01 1.57785E+01
 -1      5001 5.10538E+01 6.56399E+02 3.66175E+01-1.07142E+02-1.35066E+00 2.10668E-01
 -1      5002-8.69442E+00 2.96484E+02-4.84251E-01-1.35157E+02-3.48837E+01 1.95898E+01
 -1      5003-1.44780E+00 2.69522E+02 1.89315E+01-1.21401E+02-1.05723E+01 8.68303E+00
 -1      5004 7.42038E+01 2.14826E+03 4.56293E+02 3.36782E+01 3.50694E+01-2.59979E+00
 -1      5005 3.67010E+01 4.93895E+02-1.04565E+00-1.29468E+02 8.74202E+01-1.31023E+01
 -1      5006-8.66801E+01 1.53971E+03 9.74524E+01-1.01609E+01 1.10644E+02 9.68662E+00
 -1      5007-1.48488E+01 3.02088E+02 5.17525E+00-1.38753E+02 3.46859E+01-1.65259E+01
 -1      5008 1.98296E+01 2.56505E+02 2.72925E+01-1.28418E+02 1.43159E+01-3.29805E+00
 -1      5009 8.87776E+01 2.13190E+03 4.49994E+02 3.22699E+01-2.11608E+01 6.49782E+00
 -1      5010 8.20461E+01 2.90366E+02 5.68902E+01-1.08588E+02 3.64680E+00 4.99866E+00
 -1      5011-1.90456E+01 2.60778E+03 9.09705E+02-3.93614E+01 1.28492E+01 1.65903E+00
 -1      5012 5.41014E+04 1.18129E+05 4.76326E+04-1.10740E+05-1.56667E+02 1.46872E+01
 -1      5013-1.38283E+05 9.37059E+04-1.20433E+04-1.55642E+05 9.14765E+00 1.06889E+03
 -1      5014-1.52274E+04 1.02736E+05 2.70394E+04-1.18461E+05-9.69913E+02 2.94313E+03
 -1      5015-6.63128E+04 1.03187E+05 1.17387E+04-1.32863E+05 8.19449E+02-3.64950E+03
 -1      5016 2.22332E+04 1.09136E+05 3.81262E+04-1.12707E+05 3.30745E+03-1.00322E+04
 -1      5017 3.24595E+04 1.11730E+05 4.05742E+04-1.11867E+05-3.33319E+03 1.17087E+04
 -1      5018-6.07187E+04 1.03400E+05 1.34526E+04-1.32323E+05-9.71934E+02 4.57990E+03
 -1      5019 7.87074E+04 1.26608E+05 6.09272E+04-1.11774E+05-5.95682E+03 1.77087E+04
 -1      5020 7.72904E+04 1.25872E+05 5.74933E+04-1.10813E+05 5.21914E+03-1.81144E+04
 -1      5021-2.06499E+05 9.59655E+04-2.88221E+04-1.74622E+05 2.81816E+02-3.86784E+03
 -1      5022-2.13560E+05 1.24515E+05-2.68342E+04-1.79448E+05-2.56728E+03-8.98997E+02
 -1      5023-2.61612E+05 7.81163E+04-5.50486E+04-1.86223E+05 4.85174E+02-1.58703E+03
 -1      5024 8.62368E+04 1.31986E+05 6.43269E+04-1.12340E+05 6.17357E+02-4.86160E+02
 -1      5025 9.72762E+04 1.40646E+05 7.13845E+04-1.17274E+05 3.64947E+03-1.19081E+04
 -1      5026 1.09521E+05 1.41788E+05 6.98161E+04-1.17404E+05 1.11851E+04-2.84707E+04
 -1      5027 9.96643E+04 1.33953E+05 6.94230E+04-1.12124E+05 9.08337E+03-3.31292E+04
 -1      5028 1.00417E+05 1.40722E+05 7.23559E+04-1.16186E+05-3.49058E+03 1.13705E+04
 -1      5029 1.10980E+05 1.41929E+05 6.87479E+04-1.17137E+05-1.14013E+04 2.76736E+04
 -1      5030 9.40051E+04 1.30305E+05 6.58884E+04-1.12280E+05-6.96313E+03 2.91124E+04
 -1      5031-4.04639E+05 5.87325E+04-1.04621E+05-2.09290E+05-1.22369E+04-1.56794E+04
 -1      5032-4.15476E+05 1.16069E+05-8.64255E+04-2.22631E+05 1.76966E+04 1.02661E+04
 -1      5033-1.61644E+05 1.19434E+05-1.24387E+04-1.71314E+05-1.74703E+03-2.90094E+03
 -1      5034-3.29755E+05 6.73113E+04-7.47763E+04-1.96989E+05 3.04308E+03-2.59343E+02
 -1      5035-3.18673E+05 8.13886E+04-7.11853E+04-2.11712E+05 2.37670E+03-7.77448E+03
 -1      5036-1.53345E+05 1.06343E+05-1.26789E+04-1.68143E+05 3.13382E+03-2.93737E+03
 -1      5037 1.07063E+05 1.44629E+05 7.56277E+04-1.19223E+05-1.53844E+03 3.65380E+03
 -1      5038 1.04676E+05 1.45016E+05 7.49084E+04-1.19264E+05 1.06184E+03-3.47095E+03
 -1      5039 8.27157E+04 1.30904E+05 6.31675E+04-1.11118E+05 2.09236E+03-8.91635E+03
 -1      5040 8.07533E+04 1.29036E+05 6.29459E+04-1.10875E+05-2.61539E+03 8.54303E+03
 -1      5041-3.44672E+05 6.08733E+04-8.51397E+04-1.99140E+05 1.90821E+02-6.24250E+02
 -1      5042-3.39239E+05 6.29133E+04-8.28978E+04-1.99298E+05 4.59795E+02-1.50393E+03
 -1      5043-2.49786E+05 7.84261E+04-5.14081E+04-1.82027E+05 4.54976E+02-1.48814E+03
 -1      5044-2.40508E+05 8.17488E+04-4.76279E+04-1.82119E+05 2.06752E+02-6.76398E+02
 -1      5045-3.38847E+04 1.08359E+05 2.28965E+04-1.29747E+05-2.72770E+03 1.27343E+04
 -1      5046-9.21131E+04 1.01404E+05 2.78740E+03-1.46786E+05-1.03085E+03 3.37197E+03
 -1      5047-1.27423E+05 9.68892E+04-7.81935E+03-1.54296E+05-2.16082E+03 9.64678E+02
 -1      5048-7.45718E+03 1.06398E+05 2.96823E+04-1.19795E+05-5.31126E+03 1.73736E+04
 -1      5049 7.42638E+04 1.27513E+05 6.05331E+04-1.11647E+05-8.16629E+03 2.67126E+04
 -1      5050 4.64537E+04 1.17531E+05 4.86104E+04-1.13256E+05-6.53319E+03 2.39024E+04
 -1      5051 1.08861E+04 1.08025E+05 3.48749E+04-1.14936E+05-2.28193E+03 6.92135E+03
 -1      5052 1.54261E+04 1.10609E+05 3.78106E+04-1.15643E+05-5.12722E+03 1.67716E+04
 -1      5053-4.03361E+04 9.76963E+04 1.83770E+04-1.22618E+05-1.36409E+03 4.53394E+03
 -1      5054 5.83196E+04 1.19685E+05 5.08037E+04-1.10357E+05-5.16800E+03 1.53682E+04
 -1      5055-3.82936E+04 1.08405E+05 2.13668E+04-1.30234E+05 2.73220E+03-1.14788E+04
 -1      5056-9.80660E+04 1.01886E+05 1.14604E+03-1.49600E+05 1.39162E+03-4.55208E+03
 -1      5057-1.33076E+05 9.25059E+04-1.21710E+04-1.52723E+05 2.23054E+02-7.29593E+02
 -1      5058 4.41482E+04 1.17577E+05 4.85595E+04-1.14259E+05 7.22024E+03-2.36274E+04
 -1      5059 5.84567E+03 1.10761E+05 3.49820E+04-1.19486E+05 5.26033E+03-1.72070E+04
 -1      5060-2.23592E+04 1.00823E+05 2.35393E+04-1.19385E+05 2.02704E+03-6.63061E+03
 -1      5061 6.69607E+04 1.24877E+05 5.75516E+04-1.11552E+05 7.99241E+03-2.61438E+04
 -1      5062 5.54843E+04 1.19797E+05 5.25846E+04-1.10372E+05 4.99363E+03-1.63345E+04
 -1      5063 3.12884E+04 1.13966E+05 4.35766E+04-1.13247E+05-1.92475E+02 6.29599E+02
 -1      5064 4.75065E+04 1.16978E+05 4.79645E+04-1.11438E+05-1.32543E+03 6.62235E+03
 -1      5065 3.88286E+04 1.14173E+05 4.36361E+04-1.11714E+05 1.18073E+03-6.16343E+03
 -1      5066 6.88343E+04 1.22742E+05 5.54800E+04-1.10050E+05 3.98488E+03-9.13871E+03
 -1      5067 6.69754E+04 1.25176E+05 5.70322E+04-1.10627E+05-2.51191E+03 8.44923E+03
 -1      5068 7.01823E+04 1.24335E+05 5.65621E+04-1.10460E+05-2.51729E+02 8.38392E+02
 -1      5069-6.31147E+04 1.04638E+05 1.24631E+04-1.33707E+05 6.31518E+01 2.37983E+02
 -1      5070-9.30935E+04 9.96932E+04 2.86996E+03-1.45311E+05 5.46726E+02-2.05857E+03
 -1      5071-8.41845E+04 1.03967E+05 5.93473E+03-1.46561E+05-6.19432E+02 2.02617E+03
 -1      5072-1.79341E+05 9.12153E+04-2.54492E+04-1.63681E+05 1.11675E+03 1.83050E+03
 -1      5073-1.78117E+05 8.99466E+04-2.64511E+04-1.67191E+05-2.41264E+02 7.89099E+02
 -1      5074-1.99220E+05 8.63141E+04-3.38718E+04-1.71295E+05 3.71544E+01-1.21538E+02
 -1      5075-4.34009E+04 9.66840E+04 1.70722E+04-1.23234E+05 3.25308E+02-9.43281E+02
 -1      5076 3.37601E+03 1.05864E+05 3.24271E+04-1.15381E+05 1.09550E+03-2.90644E+03
 -1      5077 6.45317E+04-2.48216E+05 1.19565E+02-2.77882E+04-1.22440E+03 7.24431E+02
 -1      5078-1.80878E+04 1.72524E+05 1.80370E+03-1.07143E+05 1.72775E+03 6.56882E+02
 -1      5079 8.10113E+04-2.81046E+05 1.34781E+02 7.52368E+03 3.65673E+02-2.96460E+02
 -1      5080-5.50366E+04 3.17116E+05 1.20254E+03 7.93973E+04-5.77529E+02 3.71323E+02
 -1      5081 3.39543E+03-1.66168E+05 8.78884E+02-1.97229E+03-8.17141E+02 9.35142E+02
 -1      5082-3.37386E+04 2.09014E+05-9.94906E+02 6.05420E+04-6.43093E+01 1.68521E+03
 -1      5083 8.38276E+04-1.83200E+05 8.39634E+01-6.30130E+04-1.81744E+03-3.13427E+03
 -1      5084-2.82189E+03-4.58140E+04 9.70330E+02-1.56489E+05-4.52780E+03-4.28196E+03
 -1      5085 6.73155E+04-3.16127E+05 2.27692E+02 9.00973E+04-9.62882E+02 3.60906E+02
 -1      5086 1.93443E+04-3.49585E+02-7.52498E+02-1.26824E+05-2.14489E+02 1.03600E+03
 -1      5087-8.76291E+04 2.13684E+05-3.62121E+02-4.15681E+03 3.36788E+02-6.91967E+02
 -1      5088 1.32835E+05-2.91231E+05 2.13030E+03 4.07577E+04-1.06124E+03-9.40893E+02
 -1      5089-3.25128E+04 3.64113E+05-4.06730E+03 3.68810E+04 2.40032E+04-2.95014E+03
 -1      5090-2.38056E+04 1.81800E+05-1.08441E+02 1.12254E+04 1.07164E+03-1.83922E+02
 -1      5091-5.94897E+04-3.96542E+04-2.84048E+02-1.20072E+05 1.07695E+03-4.31770E+02
 -1      5092 1.77849E+04-1.57259E+05 7.87683E+01 4.53305E+03 1.51359E+02 2.63311E+02
 -1      5093 8.17272E+04-9.83802E+04-1.43737E+03-2.05192E+04-2.55853E+03-1.22317E+03
 -1      5094 1.50938E+04-2.91322E+05-1.11799E+03-5.98753E+04 5.01214E+03 4.98945E+03
 -1      5095 2.59092E+04-3.66726E+05-6.62843E+02 8.96646E+04-2.74465E+04 1.07345E+03
 -1      5096-9.10893E+04 3.06969E+05 2.04422E+03 5.09546E+04-3.45672E+03-8.06840E+02
 -1      5097-6.55264E+03 2.30463E+05 4.04845E+01 1.02042E+05-3.22448E+02 5.74496E+02
 -1      5098-2.92283E+04 1.63248E+05-3.04114E+02-8.32126E+04-1.26712E+03-2.74858E+02
 -1      5099-2.78299E+04 1.45403E+05-5.44439E+03-1.32729E+05 1.61997E+04-1.44290E+04
 -1      5100 3.00247E+04-2.20146E+05-3.43537E+02 7.07832E+04 5.12278E+02 5.02534E+02
 -1      5101 2.52823E+04-2.80719E+05 1.16463E+02-3.07197E+04-4.17130E+04-6.77856E+03
 -1      5102 3.10233E+04-1.40571E+05-3.63445E+02-1.15244E+04 2.92623E+02 8.24755E+02
 -1      5103 2.42355E+04 4.23913E+04 2.22617E+03-1.16248E+05 1.49419E+03 9.55753E+02
 -1      5104 3.79669E+04 2.60594E+05-7.47966E+02 1.60890E+05 1.09260E+04 2.50561E+03
 -1      5105-3.49263E+04 1.88269E+05-3.06161E+02 3.94366E+04 4.31339E+02 7.49202E+01
 -1      5106 8.31434E+04-6.81757E+04 6.82904E+04 5.99715E+04 2.05731E+04-1.77524E+04
 -1      5107-8.94525E+04 2.51149E+05 1.13360E+04 8.24847E+04 2.25454E+03-6.12495E+03
 -1      5108 1.35435E+05-3.28027E+05 6.11218E+02 2.32102E+04 2.81961E+03 7.05137E+00
 -1      5109-5.36279E+04 2.43717E+05-4.51609E+04-1.87155E+04 3.93472E+04-3.62719E+04
 -1      5110 8.01532E+03-1.16485E+05 3.01804E+02 3.04539E+03 1.04450E+02-1.63258E+02
 -1      5111-1.23931E+05-1.21526E+04 3.01778E+03-9.13899E+04 1.61987E+02 2.46684E+03
 -1      5112 1.13377E+04-1.46450E+05-1.24843E+02 3.77016E+04 5.08151E+02-2.48557E+02
 -1      5113-1.70346E+04-1.01165E+05-1.86199E+02-9.42749E+04 7.82482E+02-1.10049E+02
 -1      5114 2.36960E+04-1.02712E+05-1.54654E+02-1.21809E+05-1.28338E+03-3.77155E+02
 -1      5115 2.57797E+03 1.66644E+05-4.81065E+01 6.84273E+04-6.04720E+02 2.98286E+02
 -1      5116-1.27433E+03 3.26316E+04 1.80721E+03-1.47871E+05-4.12088E+02 1.58163E+03
 -1      5117 1.06124E+05-3.08597E+05-4.20820E+02 4.56866E+04 3.14786E+02-2.91346E+02
 -1      5118 1.09717E+05-3.12107E+05-9.14204E+01 4.62845E+04 2.97101E+02-1.67491E+02
 -1      5119 3.03721E+03-3.96599E+04-7.47849E+03-1.67059E+05 5.77806E+03-2.95844E+03
 -1      5120-4.09049E+04 2.90640E+05 1.38931E+03-2.66677E+03 4.10691E+02 1.76860E+02
 -1      5121-2.34741E+03-3.24515E+05 7.80384E+03 1.45895E+05-1.42356E+04 3.30866E+03
 -1      5122 2.72836E+04 1.31980E+05-9.25532E+03-1.05363E+05-8.67116E+02 5.59701E+02
 -1      5123-9.10866E+04 1.84803E+05 2.18854E+03-8.52644E+04-1.88359E+03-4.15271E+03
 -1      5124-1.37723E+04 4.82758E+03 1.86894E+03-1.26110E+05-1.48594E+03-2.07000E+04
 -1      5125-1.48510E+04-2.14155E+05-4.91378E+03 1.17337E+05 1.09513E+03 1.40250E+03
 -1      5126-3.25867E+04 1.83416E+05-1.54876E+02-4.87554E+04-4.07895E+02 3.36322E+02
 -1      5127-4.66180E+04 1.82066E+05 4.75898E+02 9.22358E+04-5.01298E+03-5.26461E+03
 -1      5128 1.69032E+04-1.27193E+05-2.67228E+02-5.06971E+04-7.24551E+01-3.03022E+02
 -1      5129-9.56087E+02 2.99920E+05-1.07401E+04 1.38484E+05 1.31789E+04-2.87288E+04
 -1      5130 2.35781E+04-2.20601E+05 3.64811E+02-2.54548E+04 1.02551E+03 9.36798E+02
 -1      5131-4.44266E+04 2.58952E+05 1.24146E+02 7.28546E+04-1.06400E+03 2.53054E+03
 -1      5132 3.80473E+04 1.79422E+04-5.31578E+03-9.11440E+04-3.27560E+03 1.29110E+03
 -1      5133 2.72156E+04-1.36595E+05 3.04959E+04-7.90797E+04-2.61234E+04-2.14902E+04
 -1      5134 1.21341E+05-1.68826E+05-3.98207E+03 4.57624E+04-2.63394E+03-1.06633E+03
 -1      5135-4.69664E+04-1.81021E+05 7.97870E+04-1.28623E+05 2.70223E+04 7.99458E+02
 -1      5136-3.11031E+04 1.86221E+05 2.86605E+02 4.73967E+02-1.63029E+02 5.66026E+01
 -1      5137 6.03515E+03-1.05879E+05-9.09732E+01 6.94088E+03 9.67420E+01-6.89835E+01
 -1      5138 2.00234E+04-2.98081E+05 2.51020E+04 8.22770E+04-2.01959E+04-5.34954E+04
 -1      5139-3.32957E+04 2.71991E+05 1.17661E+02-7.22763E+04 1.48115E+04-3.89824E+03
 -1      5140-3.57668E+04 3.53682E+05 2.78121E+03 8.88975E+04 7.98297E+03-5.04678E+02
 -1      5141 7.77276E+03 2.81479E+05-4.55728E+04 1.01071E+05 8.06821E+04-1.54730E+04
 -1      5142 1.53846E+05-2.01251E+05-4.12861E+04-2.38830E+05 1.31034E+04-1.81999E+04
 -1      5143 4.15160E+04-7.92144E+04-1.58655E+03-8.67932E+04-3.06946E+02 2.22801E+02
 -1      5144 4.16450E+04 2.04326E+05 7.38699E+03 1.30260E+05-8.30594E+02 3.44544E+01
 -1      5145 1.96380E+04 1.66537E+05 8.55066E+02 8.83049E+04-1.07389E+03 3.06813E+02
 -1      5146 6.69798E+03-1.07058E+05-1.41704E+02 1.67007E+04 1.86287E+02 7.42751E+01
 -1      5147-3.62521E+03 1.37654E+05 1.26382E+03-6.87179E+04 4.03256E+02-8.18071E+02
 -1      5148 4.22435E+04-3.45326E+05 5.27965E+03-6.06179E+03-1.60454E+04-2.81874E+03
 -1      5149-9.30139E+04 1.69877E+04 3.95870E+03-1.08252E+05 2.30173E+03-1.28589E+03
 -1      5150 2.32929E+04 5.05518E+04 6.28556E+03-3.05326E+04 4.13998E+03-1.16142E+03
 -1      5151-8.94338E+04-6.11756E+04 2.75395E+02-9.96706E+04 4.84617E+02 5.16183E+02
 -1      5152-6.08307E+04 2.69966E+05 2.61699E+03 5.72038E+04-7.87485E+02-7.67090E+02
 -1      5153-1.65637E+05 1.94129E+03 6.36840E+03-6.46850E+04 1.20094E+03-1.27107E+03
 -1      5154 1.09779E+05-2.25100E+05-6.82149E+02 2.31745E+04-4.63577E+02-1.37400E+03
 -1      5155 4.01507E+03 7.80313E+04-5.82686E+02-1.25580E+05 6.03868E+02 1.51336E+02
 -1      5156 4.62436E+04-2.18218E+05-3.50584E+02 1.83961E+04 1.73524E+02 1.65359E+02
 -1      5157 1.21450E+05-3.20513E+05 3.37841E+01 1.63926E+04 2.19522E+03 2.28388E+02
 -1      5158-1.21214E+05 1.99240E+05-8.02730E+04-1.11332E+05-9.48964E+03 1.90239E+03
 -1      5159 9.51455E+03-1.02881E+05-2.25704E+02-6.82246E+03 8.58302E+01 3.62667E+02
 -1      5160 3.19491E+04-1.73074E+05-3.18609E+02 7.60832E+03-3.27722E+02 6.04124E+02
 -1      5161 6.44917E+03-1.47922E+05-2.48454E+02-1.10307E+03 2.15823E+02 3.17969E+02
 -1      5162 7.04609E+04-3.58970E+05 1.26249E+01 6.00170E+04-6.18564E+03-1.07554E+03
 -1      5163-4.80658E+04 7.87319E+04-3.31981E+03-5.09503E+04 5.09622E+04-3.36382E+04
 -1      5164-5.91842E+04 2.11691E+05-6.55322E+02 4.38363E+04 9.02892E+02-1.39942E+03
 -1      5165 7.24541E+04-3.93287E+05 3.27240E+03-2.15773E+04 5.20799E+03 2.76461E+03
 -1      5166 2.87651E+04-2.21468E+05 2.14357E+02-9.77891E+04-1.50043E+04-5.85514E+03
 -1      5167-1.45869E+04 1.27490E+05-1.02678E+03-1.40480E+05 3.40223E+03-2.19096E+03
 -1      5168-1.40377E+04 1.31840E+05-2.92145E+02-1.09851E+05 1.62542E+02-6.31120E+03
 -1      5169-5.49679E+04-3.27527E+05 9.25120E+03 1.49676E+05-7.49601E+04 3.33406E+03
 -1      5170 1.10502E+05-5.79370E+03-4.16274E+03-2.63490E+04-3.60713E+03-1.29718E+03
 -1      5171 9.56820E+03 1.60569E+05-2.46059E+02-8.22981E+04-1.18118E+03 1.18991E+03
 -1      5172 7.42610E+04-2.73529E+05-6.58579E+02 4.64484E+04 6.82661E+02-1.58553E+02
 -1      5173-1.60541E+05 2.46399E+05 8.67132E+03-5.97417E+04-1.66161E+03-4.65261E+03
 -1      5174-2.33090E+04-2.07231E+05 1.71899E+02-2.39301E+04-1.12365E+03 4.35931E+03
 -1      5175-1.76310E+04 2.90346E+05 1.41924E+03 1.18402E+05 2.28495E+02 2.13818E+02
 -1      5176-1.27842E+04 2.06940E+05 1.87488E+02 8.04509E+04-1.37961E+03 1.11263E+03
 -1      5177 2.58654E+04-2.05095E+05 2.21679E+04 9.28406E+03-6.93947E+04-3.71680E+04
 -1      5178-1.77049E+04-1.47951E+05-5.95880E+02 7.43539E+04 1.31391E+03-1.45091E+02
 -1      5179-9.53962E+03 1.66691E+05-3.28093E+02 4.83597E+04-4.14437E+02-1.13927E+02
 -1      5180 8.44072E+04-3.06802E+05-1.06402E+03-2.72468E+04 1.51227E+03 2.33436E+03
 -1      5181 9.97689E+03-1.12265E+05 2.61719E+02-2.80105E+04 2.48820E+02 2.59293E+02
 -1      5182-7.70347E+04 3.37867E+05-2.88352E+04 1.05224E+05-2.18438E+04-1.13869E+04
 -1      5183-4.94413E+04 2.46037E+05-1.47674E+03 4.93613E+04-7.17392E+02 2.58658E+03
 -1      5184 9.58442E+04 1.18749E+05 1.07970E+04-1.12252E+05 4.33196E+03-1.62253E+04
 -1      5185-1.94105E+05-6.93917E+03-7.12556E+03-4.73068E+04 4.06527E+03-1.50131E+04
 -1      5186-1.35395E+05 2.11760E+05 1.97901E+04-1.13180E+05 4.39404E+03 3.02582E+03
 -1      5187-3.21812E+05 2.35722E+05-2.62803E+04-1.29176E+05 1.58397E+04 1.98077E+04
 -1      5188 9.27285E+04 5.89059E+05 1.12100E+05 2.83208E+05 7.48227E+04 2.30146E+04
 -1      5189-4.96821E+04 1.45466E+05-5.18654E+04 6.96103E+04-3.34078E+04-2.99144E+04
 -1      5190-2.76764E+05 2.77631E+05-1.98022E+04 3.86313E+04 1.13392E+04-6.30969E+03
 -1      5191-4.95510E+04 2.05540E+05-1.87523E+04 1.88371E+04-5.76786E+03 4.41821E+03
 -1      5192-2.96565E+04 5.11518E+05 7.77693E+04 1.08376E+05 6.48621E+04 8.96229E+02
 -1      5193-1.41584E+05 2.70248E+05 8.40595E+03 1.61545E+04-8.86515E+03-1.83991E+04
 -1      5194-5.85898E+04 3.33231E+05-4.05105E+04-1.73938E+04-3.62451E+04-2.54662E+04
 -1      5195 3.52909E+05 4.38194E+04 8.53807E+04-3.53580E+05-7.42815E+03-7.46788E+03
 -1      5196 3.08441E+04-3.66659E+04-2.62985E+04-2.13347E+05 1.32470E+04 1.81562E+03
 -1      5197 3.37801E+04-2.11022E+05 1.65701E+05 9.52601E+03 5.58096E+04-2.63883E+04
 -1      5198 3.84909E+04-6.86385E+05-7.83143E+04-3.13566E+04-8.33632E+04 1.90832E+04
 -1      5199-8.07294E+04-1.89201E+05 5.26347E+04 1.44015E+04 7.98278E+04-4.44047E+04
 -1      5200 3.19796E+05-3.49798E+05 2.87924E+04-1.55327E+04-3.21997E+04-3.59045E+04
 -1      5201 4.46204E+04-3.49959E+05-7.68933E+04-3.33284E+04 7.51671E+03-1.14013E+04
 -1      5202 4.08206E+04 1.42083E+05-8.97384E+02-9.77216E+04-1.40385E+03 2.38701E+03
 -1      5203 5.85747E+04 1.23193E+05-1.59272E+04-1.05777E+05-7.97545E+02 4.86192E+03
 -1      5204 6.50354E+04 1.28549E+05 1.82534E+04-1.10358E+05 4.73747E+03-1.82342E+04
 -1      5205 1.99475E+04 1.66172E+05 1.59262E+02-7.70718E+04-7.48005E+02 1.05259E+03
 -1      5206 3.20424E+04 1.53899E+05-6.10551E+02-8.74924E+04-1.33399E+03 1.53203E+03
 -1      5207 1.52397E+04 1.46107E+05-1.30466E+03-9.20551E+04-1.74062E+03 1.59473E+03
 -1      5208-9.77079E+03 1.81569E+05 1.24588E+02-4.52605E+04-3.92406E+02 6.20104E+02
 -1      5209-5.35472E+02 1.75536E+05-5.89172E+01-6.19224E+04-5.28547E+02 3.46565E+02
 -1      5210-1.11395E+04 1.71807E+05 1.20353E+02-6.67726E+04-9.38689E+02 7.70257E+02
 -1      5211-1.21021E+04 1.81718E+05-1.82673E+02-2.28185E+04-2.52167E+02 8.67941E+01
 -1      5212-1.45967E+04 1.79187E+05 2.89700E+02-5.56021E+03-2.46697E+02 3.37833E+01
 -1      5213-3.43402E+04 1.87611E+05 2.19427E+02-2.37534E+04-8.76376E+01-2.97295E+02
 -1      5214-1.35152E+04 1.72643E+05 1.05135E+02 1.12786E+04-5.51477E+02 3.10340E+02
 -1      5215 9.07878E+02 1.49852E+05-3.55604E+02 4.39218E+04-8.31006E+02-4.93362E+01
 -1      5216-3.53827E+03 1.60448E+05-6.06445E+02 3.29264E+04-4.71119E+02-1.92947E+02
 -1      5217-1.39966E+04 1.72531E+05-5.39593E+02 2.92365E+04-5.36968E+02 1.20903E+01
 -1      5218-3.53091E+04 1.87625E+05-1.07820E+03 2.05059E+04-6.27485E+02 4.67044E+02
 -1      5219-2.18916E+04 1.78528E+05 7.79821E+01 4.36162E+04-4.73993E+02-1.01312E+02
 -1      5220 1.58419E+04 1.43577E+05-2.19819E+02 6.48496E+04-7.17407E+02-2.12076E+02
 -1      5221 7.65552E+03 1.50020E+05 2.86758E+02 5.43204E+04-6.63943E+02 3.03181E+02
 -1      5222-3.28754E+03 1.66103E+05-6.88840E+01 5.92152E+04-2.20860E+02 2.61125E+02
 -1      5223 4.11964E+04 1.39627E+05 1.84981E+03 8.85100E+04-1.28080E+03-3.78235E+02
 -1      5224 2.56958E+04 1.42730E+05 8.68317E+02 7.48470E+04-7.66875E+02 1.04610E+02
 -1      5225 1.07787E+04 1.66174E+05 3.28999E+01 7.77491E+04-6.07591E+02 6.25037E+02
 -1      5226 7.46341E+04 1.56402E+05 3.04857E+03 1.22292E+05-1.74132E+03 3.68819E+02
 -1      5227 6.09834E+04 1.57164E+05 4.00090E+03 1.10227E+05-1.18431E+03-1.02140E+03
 -1      5228 3.08387E+04 1.81918E+05 1.17623E+03 1.09125E+05-1.36506E+03 4.10725E+02
 -1      5229 9.37266E+04 1.89098E+05-3.68844E+03 1.61195E+05-8.99035E+03-7.51513E+03
 -1      5230 1.05357E+05 2.01876E+05 1.23337E+04 1.51739E+05-1.35259E+03-8.03743E+03
 -1      5231 4.86084E+04 2.36280E+05 6.27327E+03 1.47646E+05 7.81871E+03 4.88776E+02
 -1      5232 7.73281E+04 1.70465E+05-3.10772E+04 1.43570E+05-3.05177E+04-3.14626E+04
 -1      5233 1.17199E+05 2.30743E+05 1.58770E+03 1.71218E+05 6.53312E+03-1.26872E+04
 -1      5234 4.75400E+04 3.12371E+05 2.23112E+04 1.61712E+05 5.36134E+03-1.20005E+04
 -1      5235 4.03816E+04 1.30055E+05-7.19436E+04 1.09882E+05-3.34275E+04-1.82269E+04
 -1      5236 9.18847E+04 1.65590E+05-1.19877E+04 1.32951E+05-1.83808E+04-2.80752E+04
 -1      5237-4.77372E+03 2.66479E+05-1.77653E+04 1.16296E+05 2.76830E+04-3.40389E+04
 -1      5238-6.73970E+04 6.23000E+04-1.24129E+05 4.73263E+03-6.93019E+04-2.85542E+04
 -1      5239-3.22363E+04 1.16932E+05-5.18564E+04 3.65082E+04-4.50523E+04-3.85000E+04
 -1      5240-1.84599E+04 2.65398E+05-3.39880E+04 4.81523E+04 4.60852E+04-3.62893E+04
 -1      5241-4.60867E+04-4.43869E+03-4.88710E+04-9.79587E+03-2.73113E+04-4.04625E+03
 -1      5242-6.54192E+04-1.38125E+04-1.11247E+04-1.23619E+04-3.43542E+04-1.62388E+04
 -1      5243-6.58372E+04 1.39037E+05-3.79119E+04-3.33087E+04 4.78001E+04-4.11059E+04
 -1      5244-6.11519E+03-3.18884E+03 4.76115E+03-4.54136E+04-6.37532E+03 3.90021E+03
 -1      5245-3.30306E+04-6.63044E+03-2.70169E+04-6.25583E+04-3.34104E+04 9.64298E+02
 -1      5246-3.67025E+04 4.86126E+04-8.29205E+03-9.72365E+04 2.29632E+04-1.17444E+04
 -1      5247 4.23539E+04-3.04485E+04 8.84710E+04 1.34220E+03 3.48357E+04-8.22623E+02
 -1      5248 3.99055E+04-3.70843E+04 1.65652E+04-4.59909E+04-8.87838E+03-2.30896E+03
 -1      5249 7.63085E+03-5.79724E+04-3.14863E+02-1.13932E+05-1.63672E+04-6.53825E+03
 -1      5250-8.24605E+03-5.65648E+04 7.62737E+04 7.13032E+04 3.00295E+04-1.51629E+04
 -1      5251 4.98014E+04-4.33442E+04 2.02152E+04 3.07587E+04 1.79831E+04 6.30944E+03
 -1      5252 2.74630E+04-1.42037E+05 3.17169E+04-3.33806E+04-4.75791E+04-1.52702E+04
 -1      5253-5.45393E+04-1.42660E+05 8.65442E+04 1.31459E+05 6.74248E+04-4.71064E+04
 -1      5254 6.87857E+03-1.17943E+05 6.89950E+04 9.73978E+04 5.51103E+04-2.50251E+04
 -1      5255 3.48762E+04-2.39282E+05 3.12580E+04 4.30793E+04-4.43741E+04-4.91664E+04
 -1      5256-1.29487E+05-2.43987E+05-6.40715E+03 1.76959E+05-2.57881E+04-2.86053E+03
 -1      5257-1.23233E+05-2.11620E+05 1.34387E+04 1.54405E+05 4.05843E+02-1.18316E+03
 -1      5258-5.28139E+04-3.43052E+05-2.57070E+03 1.41205E+05-3.25701E+04-4.09299E+04
 -1      5259-6.77006E+04-2.12903E+05 6.32436E+03 1.41939E+05 5.54992E+03-3.49692E+03
 -1      5260-1.02451E+05-2.56648E+05 5.79034E+03 1.80441E+05 1.51807E+04-1.16662E+04
 -1      5261-2.31162E+03-2.99020E+05 2.42254E+04 1.31316E+05-3.32473E+04-1.61621E+03
 -1      5262-4.75136E+04-1.56819E+05-1.85595E+03 1.02911E+05 3.22111E+02-6.51818E+02
 -1      5263-6.75251E+04-1.69609E+05-4.21142E+03 1.23398E+05 1.32286E+03 3.17018E+03
 -1      5264-1.27678E+04-2.69768E+05-3.07541E+03 1.36985E+05-9.78671E+03 2.51327E+03
 -1      5265-2.48672E+04-1.16572E+05-4.98904E+02 6.22242E+04 7.08542E+02-1.12366E+02
 -1      5266-4.08086E+04-1.26800E+05-1.00045E+03 7.94081E+04 1.91996E+03-8.65142E+02
 -1      5267-1.95480E+04-1.81970E+05-1.15987E+02 9.68294E+04 1.17425E+03 6.33153E+01
 -1      5268-1.02573E+03-1.06016E+05-4.68587E+02 3.20357E+04 1.78960E+02-6.10038E+01
 -1      5269-8.28880E+03-1.16149E+05 9.39204E+01 4.49578E+04 6.47563E+02-4.72313E+02
 -1      5270-1.34151E+03-1.48966E+05 1.24244E+02 5.58962E+04 5.34158E+02 4.67279E+02
 -1      5271 1.53633E+03-7.99104E+04-2.88153E+02 1.39153E+04-1.96607E+01 1.66933E+02
 -1      5272-9.79726E+02-8.71574E+04-9.67859E+00 2.17619E+04 1.69592E+02-1.67464E+02
 -1      5273 9.92110E+03-1.25659E+05 2.79597E+02 2.61713E+04 2.65630E+02-1.28007E+02
 -1      5274 2.63231E+03-7.74533E+04-1.02281E+02 4.94275E+03 2.04942E+02 9.88953E+00
 -1      5275 2.60036E+03-7.93020E+04 2.03681E+02 9.06399E+03 1.09090E+02-7.01267E+01
 -1      5276 6.23728E+03-1.06393E+05-1.19416E+02 1.14251E+04 1.45313E+02-7.80455E+01
 -1      5277 4.88810E+03-8.82913E+04-5.04648E+02-1.91486E+03 2.13998E+02 2.91041E+00
 -1      5278 4.46835E+03-8.36014E+04-1.57999E+02 2.39521E+03 1.77168E+02 6.10099E+01
 -1      5279 6.37245E+03-1.10963E+05-9.51946E+01 4.76493E+03-4.75512E+01-4.00407E+02
 -1      5280 2.44269E+03-9.00307E+04-1.34223E+02-1.54363E+04 7.24634E+02 3.51629E+02
 -1      5281 4.42864E+03-8.02662E+04-3.14511E+01-7.05915E+03 5.28963E+02 2.38804E+02
 -1      5282 9.77087E+03-1.08802E+05 7.26718E+02-1.64163E+03-8.60003E+00 1.23067E+02
 -1      5283-7.33131E+03-1.02604E+05-1.38575E+02-3.84468E+04 9.58743E+02 5.58901E+02
 -1      5284 1.06682E+03-9.46893E+04 2.50286E+01-2.55154E+04 9.23921E+02 3.39217E+02
 -1      5285 1.16566E+04-1.08748E+05-3.08514E+02-1.59195E+04 1.72734E+02-1.20795E+01
 -1      5286-1.90204E+04-1.10331E+05 4.18109E+01-6.38960E+04 5.12092E+02-5.36453E+01
 -1      5287-4.70536E+03-1.09819E+05-2.19650E+01-4.86591E+04 4.26267E+02 1.35548E+02
 -1      5288 1.40975E+04-1.21410E+05 2.40394E+02-3.83774E+04-4.34248E+02 2.41923E+02
 -1      5289-5.99736E+04-8.97111E+04-1.94197E+02-9.23750E+04-2.10178E+01 3.04706E+02
 -1      5290-3.80937E+04-1.00353E+05 1.33269E+02-8.32589E+04 4.95743E+02 2.76905E+02
 -1      5291 4.66064E+03-1.17584E+05-1.91462E+02-7.49792E+04 3.20392E+02-1.36937E+03
 -1      5292-1.13868E+05-5.93694E+04 1.53039E+02-9.50854E+04 2.71534E+02 1.11051E+03
 -1      5293-9.38493E+04-7.14287E+04 2.29765E+02-9.50764E+04 5.74152E+01 4.23191E+02
 -1      5294-5.33710E+04-8.04689E+04-2.58342E+02-9.82305E+04 1.97800E+02 2.64719E+02
 -1      5295-1.45681E+05-2.31399E+04 2.56873E+02-8.26865E+04 4.29181E+01 2.13314E+03
 -1      5296-1.30245E+05-3.67249E+04-1.71105E+02-9.14398E+04 2.03819E+02 1.41961E+03
 -1      5297-1.06074E+05-3.74371E+04 9.27505E+02-9.70503E+04 4.75034E+02 1.72998E+03
 -1      5298-1.74718E+05-2.84088E+03 1.53500E+04-5.57219E+04-1.63249E+03 3.20438E+03
 -1      5299-1.63810E+05-1.58813E+04 3.51877E+01-7.07751E+04 5.67712E+02 1.23118E+03
 -1      5300-1.43831E+05-3.40339E+03 4.17490E+03-7.79681E+04 7.15478E+02 3.71180E+02
 -1      5301-1.85883E+05-9.12286E+03-2.20400E+04-5.53244E+04 7.15781E+03-1.96159E+04
 -1      5302-5.36679E+04 1.48925E+05 1.03531E+04-1.10611E+05 1.02204E+03-1.01450E+04
 -1      5303-1.07823E+05 1.53911E+05 1.57677E+03-1.25832E+05-5.53102E+02-3.73230E+03
 -1      5304-1.38619E+05 1.96325E+05-9.91811E+02-7.50431E+04 1.82894E+03-3.50570E+03
 -1      5305 2.30796E+04 1.24973E+05 1.82738E+04-1.12021E+05 4.54087E+03-1.88485E+04
 -1      5306-1.33179E+04 1.21473E+05 1.22017E+04-1.18602E+05 2.33864E+03-1.36751E+04
 -1      5307-5.65196E+04 1.49204E+05-4.61106E+03-1.01035E+05-2.56296E+02-3.44998E+03
 -1      5308 3.56209E+04 1.22213E+05 7.54197E+03-1.11890E+05 4.21439E+03-1.33329E+04
 -1      5309 6.01286E+03 1.32292E+05-8.51280E+03-1.05966E+05-6.78473E+02-1.19274E+03
 -1      5310-1.60755E+05 5.77693E+03-1.01142E+04-6.39920E+04 6.78986E+03-1.22142E+04
 -1      5311-9.32821E+04 3.70147E+04-3.32528E+03-1.00818E+05 2.95632E+03-5.18260E+03
 -1      5312-1.23091E+05 1.67921E+04-1.10166E+04-8.42709E+04 4.74543E+03-1.09069E+04
 -1      5313-1.09024E+05 1.11441E+03 6.14434E+03-9.95218E+04 7.14546E+02 1.92965E+03
 -1      5314-1.35960E+05 4.28820E+03-9.70461E+03-7.80696E+04 4.54222E+03-8.00406E+03
 -1      5315-6.65038E+03 5.38291E+04 4.69860E+03-1.69978E+05 1.18192E+03 9.24959E+03
 -1      5316-5.35541E+04 1.90599E+04-1.11087E+04-1.32820E+05 5.44926E+03-4.41545E+03
 -1      5317-4.84184E+04-2.03330E+03 6.50439E+02-1.35983E+05 3.30927E+03-2.36346E+03
 -1      5318 8.68959E+04-9.64792E+04-1.30667E+04-2.13534E+05 1.02715E+04-1.28468E+04
 -1      5319 1.86991E+04-2.81182E+05-8.76730E+03 4.33441E+04 3.69819E+03-2.03530E+03
 -1      5320-1.41404E+04-4.51193E+05-7.39656E+03 9.41953E+04 8.48139E+03-9.76801E+03
 -1      5321-5.08285E+02-3.91333E+05 8.09217E+03-6.87924E+04-3.03497E+03 1.44187E+04
 -1      5322 1.35160E+05-5.56278E+04-2.35543E+03-1.60829E+04 8.18230E+02-2.38172E+03
 -1      5323 7.49657E+04-1.30818E+05-3.54307E+03 4.77543E+04 4.86126E+02-1.53851E+03
 -1      5324 1.32018E+05-2.65925E+05-8.45444E+03 4.06874E+04-2.45678E+03 9.13636E+02
 -1      5325 7.48858E+04-2.40024E+05-1.22430E+03 4.48177E+04-9.82855E+03 5.11427E+03
 -1      5326 1.18588E+05-3.50178E+05 7.00005E+03 2.05058E+03 7.13848E+03 4.14517E+03
 -1      5327 1.51600E+05 2.01782E+04-6.94541E+03-5.57215E+04 1.75301E+03 2.85711E+03
 -1      5328 1.26729E+05 1.41217E+04-8.37399E+03-4.63972E+04 8.51540E+02 8.02161E+02
 -1      5329 1.17890E+05-7.87685E+04 1.46500E+03 1.05498E+04-4.25564E+03 2.33734E+03
 -1      5330 6.14485E+04 2.42171E+04-3.90297E+03-7.98245E+04 3.84855E+03 4.05976E+03
 -1      5331 1.21347E+05 2.53805E+04-2.56590E+03-8.37086E+04-9.33814E+02 5.24231E+03
 -1      5332 7.57053E+04 1.27168E+04 8.05994E+02-5.84764E+04-1.90498E+03-3.20600E+03
 -1      5333-3.03614E+04 1.70726E+04 3.74680E+03-2.43019E+04 3.01431E+03 2.81724E+03
 -1      5334 2.28588E+04 1.52731E+04 6.70303E+03-4.70701E+04-1.20514E+03 5.48009E+03
 -1      5335 3.39053E+04 1.98240E+04 6.10536E+02-8.80608E+04 8.89521E+02 8.36428E+03
 -1      5336 3.23063E+04 2.87751E+04-1.68922E+03-1.14600E+05-3.33830E+03-1.11802E+03
 -1      5337 2.66259E+04 4.76155E+04 3.61431E+03-7.89350E+04 3.76997E+03-3.06518E+03
 -1      5338 1.71465E+04 1.45712E+05 1.99449E+04 9.26495E+04-7.58365E+03-6.58085E+03
 -1      5339-2.51117E+04 7.78412E+04 9.58636E+03 4.33997E+04-1.98480E+03-8.21932E+02
 -1      5340-1.51267E+04 9.75452E+04-4.59621E+03 3.36349E+04-4.23777E+03-1.02511E+04
 -1      5341-6.25198E+04 2.38691E+05-1.43552E+04 1.13803E+05-6.31426E+03 4.53194E+03
 -1      5342 5.82156E+04-9.00222E+04-1.65387E+03-5.23041E+04-1.96379E+03-1.43048E+02
 -1      5343 5.53073E+04-1.60831E+05-9.38982E+02-5.67687E+04-1.50269E+03 3.85515E+02
 -1      5344 7.06734E+04-1.75659E+05-6.99198E+02-2.49533E+04-9.04687E+02 6.45175E+01
 -1      5345 9.49003E+04-1.60585E+05-9.34842E+02 3.02718E+03-2.14240E+03-1.36219E+03
 -1      5346 8.76834E+04-2.31555E+05 8.75165E+02-1.42273E+03-8.74683E+02-6.10726E+02
 -1      5347 3.29838E+04-9.25487E+04-6.54781E+02-1.03622E+05-8.03861E+02-6.93709E+02
 -1      5348 4.04817E+04-1.78594E+05-2.26193E+03-7.73088E+04-3.74216E+02 6.76451E+02
 -1      5349 2.64788E+04-1.62603E+05 4.06055E+03-1.11795E+05-4.33892E+03-2.82534E+03
 -1      5350 4.57697E+04-2.41357E+05 1.55608E+03-6.52805E+04-6.62167E+03-2.54652E+03
 -1      5351 8.57952E+04-2.85896E+05-1.85661E+02 1.33878E+04-4.10827E+02 1.12137E+03
 -1      5352 1.08874E+05-2.68563E+05-1.24023E+03 3.30289E+04 1.66216E+02-3.08832E+02
 -1      5353 7.08335E+04-3.09738E+05 1.40866E+02 1.48532E+04-5.15805E+03-4.44989E+02
 -1      5354 8.95650E+04-3.34768E+05 3.31225E+03 5.24341E+04-2.55377E+03-7.95161E+02
 -1      5355 5.42065E+04-2.97595E+05 5.52080E+03-1.70191E+04-8.23325E+03-8.43691E+02
 -1      5356 5.37498E+04-3.58286E+05 7.20415E+02 2.86817E+04-1.17767E+04-2.43634E+03
 -1      5357 3.55187E+04-2.80797E+05 7.15931E+02-5.43503E+04-1.55757E+04-4.96222E+03
 -1      5358-9.18877E+03 1.05873E+05 1.56245E+03-1.31292E+05 8.17166E+02 1.46294E+03
 -1      5359 2.73888E+03 6.05213E+04 1.12554E+03-1.38992E+05-2.51662E+02 8.11444E+02
 -1      5360-7.95554E+03 1.20962E+05-1.49795E+03-1.19082E+05 5.14285E+02-1.62529E+01
 -1      5361-1.79143E+04 1.52754E+05 1.79855E+03-1.24829E+05 2.70969E+03-7.16293E+02
 -1      5362-7.50065E+03 7.81984E+04-4.39296E+02-1.43064E+05 1.25351E+03 6.57304E+02
 -1      5363-2.81152E+04 2.30911E+05 9.89834E+02-5.58367E+04 1.68493E+03 1.58381E+03
 -1      5364-2.98273E+04 2.92701E+05 1.09520E+03-4.09834E+04 5.03966E+03 5.17298E+02
 -1      5365-2.57875E+04 2.28322E+05 1.10174E+03-9.10147E+04 5.73677E+03 1.05769E+03
 -1      5366-1.13404E+04 1.59457E+05 1.39382E+03-9.01053E+04 1.36389E+03-4.27839E+02
 -1      5367-2.34981E+04 2.13874E+05-4.81504E+02-3.55991E+04 7.76540E+02-7.60904E+02
 -1      5368-2.16649E+04 2.11106E+05 2.75199E+03-1.12989E+05 5.16545E+03-2.09095E+03
 -1      5369 2.13080E+03 1.06050E+05 1.92049E+02-1.00794E+05-8.06598E+01 6.65752E+02
 -1      5370 1.00946E+05-3.03038E+05-1.28701E+03 9.69116E+03 4.66950E+02 3.92018E+02
 -1      5371 1.19278E+05-3.13450E+05 1.79640E+03 3.13274E+04 6.69580E+02 2.17311E+02
 -1      5372 9.79739E+04-2.99524E+05-2.68408E+02 2.80375E+04-4.46049E+02-1.51341E+02
 -1      5373 9.14999E+04-2.93983E+05-6.38177E+02 4.66903E+04 6.14747E+02-5.26778E+02
 -1      5374 7.78557E+04-2.76532E+05-1.54023E+02 2.79847E+04 3.97086E+02-1.11911E+02
 -1      5375 6.12521E+04-2.50170E+05-2.32358E+02 1.22370E+04 7.03576E+02-1.41448E+02
 -1      5376 3.80645E+04-2.20426E+05 5.07898E+02-2.84684E+03 6.75879E+02 1.30588E+03
 -1      5377 5.21707E+04-2.53949E+05 1.12222E+02-1.16508E+04 8.70962E+02 7.96589E+02
 -1      5378 5.01624E+04-2.63946E+05 2.98982E+02-2.76984E+04 4.03787E+02 2.38950E+03
 -1      5379 8.61968E+04-2.93296E+05 5.16512E+02-8.51132E+03-1.30680E+02 1.12624E+03
 -1      5380 6.14616E+04-2.46696E+05 6.45391E+01 3.23862E+04 1.64708E+02-3.35318E+02
 -1      5381 1.05181E+05-3.18210E+05-1.13472E+03-6.19655E+03 1.91730E+03 1.12853E+03
 -1      5382-7.21435E+04 3.02911E+05-9.11124E+02 6.90317E+04-1.24343E+03 9.01224E+02
 -1      5383-6.50047E+04 2.80676E+05 1.42158E+03 5.88771E+04-3.78281E+02 1.66613E+03
 -1      5384-4.72377E+04 2.95567E+05 2.30325E+03 7.84828E+04-1.09342E+03 1.34176E+03
 -1      5385-5.99656E+04 3.00343E+05 3.86075E+03 6.52630E+04-1.59251E+03-2.01648E+02
 -1      5386-7.49524E+04 2.97872E+05 2.45261E+03 6.22413E+04-3.13387E+03-1.67346E+03
 -1      5387-4.32877E+04 3.34830E+05 4.56401E+02 8.54067E+04 1.56783E+03-1.55885E+01
 -1      5388-4.37247E+04 3.34097E+05 1.02010E+03 4.24817E+04 4.34553E+03 2.04727E+03
 -1      5389-5.05450E+04 3.10547E+05 2.11901E+03 4.42478E+04-2.42445E+03 1.50996E+03
 -1      5390-5.28223E+04 2.74472E+05 1.63862E+03 2.88864E+04 4.27093E+02-6.76321E+01
 -1      5391-3.26892E+04 2.75634E+05-4.22787E+02 9.72223E+04-5.41738E+02 2.13868E+02
 -1      5392-3.66782E+04 3.08815E+05 1.67636E+03 9.68576E+04-1.35109E+03-7.05620E+02
 -1      5393-2.43142E+04 3.33242E+05 4.66155E+03 1.07835E+05 7.71745E+02-1.01746E+03
 -1      5394 1.60304E+04-1.68420E+05-5.98759E+02 3.03143E+03-9.15489E+02 1.08841E+03
 -1      5395 6.98988E+03-1.41694E+05 1.78115E+03 9.29069E+02-3.34820E+02-1.75991E+02
 -1      5396 1.58578E+04-1.44908E+05-9.85048E+02 4.02668E+03-7.51150E+02 1.70690E+03
 -1      5397 4.15598E+03-1.57222E+05-9.03362E+01-2.45095E+03-1.74424E+02 5.91052E+02
 -1      5398 6.13694E+03-1.31349E+05 3.53325E+01 2.38067E+03-1.22326E+01 1.98613E+02
 -1      5399 7.26399E+03-1.88599E+05-5.44832E+02-1.44884E+04 1.08010E+01 8.78021E+02
 -1      5400 1.36699E+04-1.80187E+05-4.12401E+02-1.13595E+04 3.07971E+02 6.13114E+02
 -1      5401-7.09579E+03-1.86528E+05 5.75101E+02-1.10221E+04-1.86731E+03 3.15128E+03
 -1      5402-2.61927E+03-2.16764E+05-3.38445E+03-2.86381E+04 6.33802E+02 3.96005E+03
 -1      5403-5.43183E+03-1.85793E+05-1.61757E+03-2.21496E+03-6.95261E+00-4.70524E+02
 -1      5404-4.39417E+04 2.09215E+05-1.21612E+03 5.23772E+04 6.07334E+02 1.97931E+02
 -1      5405-4.69749E+04 1.99988E+05-6.71189E+01 4.19371E+04 1.12184E+03-9.35476E+01
 -1      5406-3.43555E+04 1.95811E+05-1.42404E+03 5.03886E+04 4.89425E+02 5.72693E+02
 -1      5407-2.20140E+04 1.87926E+05-9.69236E+02 5.76590E+04-2.35693E+02 3.63770E+02
 -1      5408-5.85471E+04 2.17116E+05 3.55940E+03 5.11929E+04 2.97961E+03 1.23557E+03
 -1      5409-7.32372E+04 2.25826E+05 3.51909E+03 4.66182E+04 2.26257E+03-2.51765E+03
 -1      5410-6.42180E+04 2.33040E+05 5.66822E+03 4.86838E+04 1.24822E+03 1.48173E+03
 -1      5411-4.62882E+04 2.25195E+05-3.50211E+03 5.48559E+04-5.27177E+02 2.78354E+03
 -1      5412-1.58586E+04 1.90303E+05 1.40439E+02 6.64135E+04-6.48525E+01 5.20874E+02
 -1      5413-4.34642E+03 1.87925E+05 8.56112E+02 7.48453E+04-7.15574E+02 5.91005E+02
 -1      5414-2.34732E+04 2.09195E+05 1.92266E+02 7.02951E+04-6.42031E+02 1.02836E+03
 -1      5415-2.84323E+04 2.33401E+05-1.57417E+02 7.85751E+04-1.75970E+03 1.43905E+03
 -1      5416-3.82536E+04 2.32336E+05-1.50673E+02 6.64888E+04-8.14748E+02 1.59933E+03
 -1      5417-4.47145E+04 2.53819E+05-1.73867E+02 5.92328E+04-3.23122E+02 3.53264E+03
 -1      5418 5.26021E+04-1.61851E+05-1.41425E+03-3.26348E+04-9.96299E+02 3.02471E+02
 -1      5419 2.40032E+04-1.36714E+05-4.76792E+02-3.04660E+04-5.17637E+02 1.50207E+03
 -1      5420 4.55108E+04-1.52658E+05-1.00444E+03-5.52319E+04-1.11925E+03-1.37999E+03
 -1      5421 6.47259E+04-1.81607E+05 2.08928E+03-2.44979E+04-9.56356E+02 6.25337E+02
 -1      5422 3.93664E+04-1.55253E+05 2.16332E+03-2.83099E+03-6.04698E+02 1.13511E+02
 -1      5423 1.09159E+05-2.12073E+05-1.57136E+04-1.21595E+05 1.59101E+03-8.49573E+03
 -1      5424 1.30709E+05-1.80292E+05 1.91944E+04-3.10553E+04-6.59959E+03 3.30931E+03
 -1      5425 5.87472E+04-2.02993E+05-2.33319E+03 9.50494E+03-7.05391E+03 2.94086E+03
 -1      5426 3.95237E+04-1.32887E+05 2.66072E+03-8.55670E+04 8.51172E+02-1.93030E+03
 -1      5427-3.30812E+03-8.55600E+04-2.12871E+03-1.26604E+05 2.36399E+03-2.24885E+03
 -1      5428 4.95429E+04-1.36222E+05-4.55456E+03-1.18957E+05-1.47214E+01-4.71652E+03
 -1      5429-1.49297E+04 5.64051E+04-2.98302E+03-1.51778E+05 4.95869E+03-6.23642E+03
 -1      5430-1.63986E+04 7.68351E+04 4.89213E+03-1.30202E+05 1.05963E+04-2.30903E+04
 -1      5431-8.24589E+03-1.74233E+04-6.07696E+03-1.48670E+05-3.49858E+03-1.87571E+04
 -1      5432-8.81536E+03 4.11499E+04-2.13755E+03-1.54250E+05-5.73316E+02-9.13032E+02
 -1      5433-2.01773E+04 1.39970E+05-5.04761E+03-1.40189E+05 8.18514E+03-6.34509E+03
 -1      5434 9.11926E+03-8.23828E+04-3.97198E+02-1.40520E+05-1.58520E+03-2.28720E+03
 -1      5435 1.42060E+04-3.36876E+04 8.61925E+02-1.39652E+05-2.66013E+03-1.43004E+02
 -1      5436-3.93750E+03-7.05586E+03 5.82946E+02-1.51506E+05-2.71794E+03-1.78125E+02
 -1      5437 1.01733E+04-1.37647E+05 7.92007E+02-1.31481E+05-8.29972E+03-5.70936E+03
 -1      5438 5.34524E+03-1.13687E+05-7.84355E+03-1.27220E+05-1.76020E+04-9.77136E+03
 -1      5439 2.12000E+04-2.02836E+05-4.22949E+03-9.61890E+04-2.47110E+04-8.86950E+03
 -1      5440 2.72415E+04-2.67148E+05 3.03775E+02 1.03438E+05-1.82839E+03 1.96844E+03
 -1      5441 7.00886E+03-2.20439E+05 4.54042E+02 9.49009E+04 1.85965E+02 2.62591E+03
 -1      5442 4.67311E+04-2.69835E+05-4.10401E+02 8.25865E+04-9.63809E+00 3.83432E+02
 -1      5443 5.27404E+04-2.49228E+05-5.00122E+02 5.94603E+04 5.74302E+02-2.11813E+02
 -1      5444 7.12058E+04-2.93969E+05 6.60890E+02 6.80573E+04 2.72632E+02-7.00909E+02
 -1      5445 8.92629E+04-3.13205E+05 2.73416E+01 6.83548E+04 6.38495E+01-3.65373E+02
 -1      5446 1.08943E+05-3.13948E+05-2.68368E+03 4.78703E+04 1.31733E+02-4.96533E+02
 -1      5447 9.01305E+04-3.21709E+05-1.83347E+03 6.54250E+04-1.91313E+02-3.79345E+02
 -1      5448 6.99101E+04-3.45753E+05-1.19380E+03 7.91912E+04-4.45300E+03 5.10513E+02
 -1      5449 3.38257E+04-3.15128E+05 4.08545E+03 1.17610E+05-8.06409E+03 3.64234E+03
 -1      5450 3.41718E+04-3.50191E+05-2.04338E+03 1.05817E+05-1.24077E+04 4.24410E+03
 -1      5451 3.51767E+04 4.35653E+03-2.79890E+03-1.12513E+05-1.04232E+03 2.15299E+03
 -1      5452 1.70941E+04 2.58825E+04-1.19508E+03-1.23761E+05-2.62242E+02 9.48744E+01
 -1      5453 9.35271E+03 5.88636E+04-8.34048E+02-1.19759E+05 6.96766E+02-4.81719E+02
 -1      5454 1.16694E+04 4.34041E+04 1.08399E+02-1.28535E+05 6.61220E+02 1.79520E+02
 -1      5455 8.35121E+03 1.21856E+04-2.36116E+02-1.39784E+05-9.99219E+02 1.17583E+03
 -1      5456 2.41568E+04-4.46090E+04 2.54211E+03-1.23612E+05-1.93151E+03 5.15841E+02
 -1      5457 2.75637E+04-4.10917E+04-3.77822E+02-1.08742E+05 3.21415E+02 8.52631E+02
 -1      5458 3.91675E+04-2.68311E+04-1.74736E+03-8.88965E+04-1.73250E+03 3.25249E+03
 -1      5459-5.57253E+04 2.00054E+05 9.53838E+02 1.70257E+01-3.80306E+02-2.59711E+02
 -1      5460-6.13180E+04 2.02323E+05 3.18057E+01 2.15156E+04 7.69369E+02-4.57170E+02
 -1      5461-7.43413E+04 2.13025E+05-1.15863E+03 2.20657E+04 9.26232E+02-3.90803E+02
 -1      5462-1.08233E+05 2.35534E+05-6.80208E+01 2.73533E+04 5.86334E+03 4.35311E+01
 -1      5463-1.25649E+05 2.20131E+05-3.13646E+03-3.42140E+04-7.55506E+02-6.05617E+03
 -1      5464-9.29014E+04 2.03860E+05 2.77123E+03-4.60012E+04-1.11076E+03-2.22329E+03
 -1      5465-6.00359E+04 1.85281E+05 9.45625E+02-6.51067E+04-9.18968E+02-1.72749E+03
 -1      5466-6.38974E+04 1.95542E+05-6.27622E+02-2.87976E+04-2.17598E+02-1.41853E+02
 -1      5467 1.33026E+05-2.98313E+05 2.95262E+03 3.50058E+04 2.60881E+03-2.20130E+03
 -1      5468 1.33302E+05-2.34030E+05-1.85214E+03 4.04577E+04 4.15962E+02-1.10763E+03
 -1      5469 1.28718E+05-3.09742E+05 8.52311E+02 3.12737E+04 1.59492E+03-1.04552E+03
 -1      5470 1.24646E+05-3.22449E+05 5.93608E+01 1.78631E+04 3.95977E+03-5.70162E+02
 -1      5471 1.20552E+05-2.93762E+05 1.58232E+03 4.34752E+04-1.15597E+03-3.57764E+02
 -1      5472 1.21681E+05-3.06942E+05 3.78927E+02 4.07461E+04-6.50742E+02-3.68444E+02
 -1      5473 1.22511E+05-2.63796E+05 3.26109E+02 3.39861E+04-6.39472E+02-3.99782E+02
 -1      5474 1.18738E+05-1.94854E+05-7.67151E+02 3.40695E+04 7.29283E+02-2.45358E+03
 -1      5475-2.96367E+04 3.31013E+05 6.47344E+03 6.65347E+03 3.23606E+04-3.95236E+03
 -1      5476-2.50940E+04 2.87292E+05 1.59150E+04-4.72352E+04 3.32011E+04-3.09335E+03
 -1      5477-3.30304E+04 3.24568E+05-6.29406E+02-2.05888E+04 1.92538E+04-3.20269E+03
 -1      5478-1.37461E+04 3.19178E+05-1.19053E+04 6.57813E+04 5.35665E+04 3.51944E+03
 -1      5479-3.92899E+04 3.33070E+05-4.36010E+03 1.53204E+04 9.82715E+03-1.19048E+03
 -1      5480-2.91163E+04 3.72465E+05 5.96556E+03 6.27058E+04 1.54845E+04-3.01438E+03
 -1      5481-1.26738E+03 3.64454E+05 2.46423E+04 1.19912E+05 1.03747E+04 3.88172E+03
 -1      5482-1.16940E+04 3.49561E+05 8.15959E+03 8.84829E+04 2.24011E+04 4.16537E+03
 -1      5483-3.17250E+04 2.38580E+05 9.44441E+02 2.62680E+03 1.64043E+03-3.85085E+02
 -1      5484-1.25021E+04 1.59082E+05 5.50704E+02-2.96568E+04 1.16188E+02-3.07739E+02
 -1      5485-4.44288E+04 2.23531E+05-6.67592E+01 3.65746E+04 1.88843E+01 4.14387E+02
 -1      5486-2.55277E+03 1.15328E+05 1.08913E+03-9.74050E+03 2.32623E+03 7.97266E+02
 -1      5487-3.18782E+04 1.81326E+05-6.97031E+02 4.97625E+04-7.11551E+02-4.34664E+03
 -1      5488-5.45522E+04 2.37706E+05-8.84244E+01 7.11119E+04-1.43690E+03-2.75201E+03
 -1      5489 4.66181E+03 9.77955E+04 2.58199E+03-5.18510E+04 1.25517E+03 5.47967E+01
 -1      5490-9.13537E+04-2.15337E+04 1.98014E+03-1.05741E+05 8.73956E+02 9.23485E+02
 -1      5491-7.31988E+04-9.39163E+03 6.62481E+02-1.15818E+05 2.02947E+03-4.28068E+02
 -1      5492-7.57286E+04-5.34218E+04-6.47654E+02-1.09963E+05 9.58068E+02 2.36417E+02
 -1      5493-2.62154E+04-3.88229E+04 7.64665E+02-1.37431E+05 2.01606E+03-1.69572E+03
 -1      5494-3.75474E+04-7.93309E+04-2.99288E+03-1.07871E+05 2.02856E+03 1.81547E+02
 -1      5495 1.69995E+04-1.53320E+05 2.35600E+02 1.98837E+04 4.10172E+02 1.37532E+02
 -1      5496 1.22365E+04-1.31779E+05 8.87081E+01 1.13848E+04 3.01988E+02 1.95248E+02
 -1      5497 3.17501E+04-1.86855E+05 1.04869E+02 1.05827E+04-4.19209E+02 3.61150E+02
 -1      5498 2.92154E+04-1.82414E+05-1.33394E+02 2.85731E+04 4.06125E+02 1.51134E+02
 -1      5499 2.32016E+04-1.87399E+05 4.76807E+02-7.32953E+03 3.67710E+02 6.52448E+02
 -1      5500 1.13614E+04-1.52985E+05-1.69030E+02 1.26360E+03 3.67398E+02-4.20152E+02
 -1      5501 9.60240E+03-1.31510E+05-4.33684E+02 6.22864E+03 1.27170E+02 5.34711E+01
 -1      5502 6.96645E+03-1.26357E+05 2.18155E+02 3.32088E+03 1.55558E+02 4.74732E+01
 -1      5503 6.01868E+04-3.48388E+04 8.41320E+02-5.38967E+04-5.15320E+03 1.36402E+03
 -1      5504 9.90157E+04-5.47430E+04-2.70445E+03-2.55564E+04-3.73016E+03-1.69682E+03
 -1      5505 1.00764E+05-1.24679E+05-1.12399E+03 1.05312E+04-2.81246E+03-2.07605E+03
 -1      5506 2.52491E+04-2.50727E+05 2.95019E+03-4.00135E+04 2.67603E+03 1.53595E+03
 -1      5507-8.32067E+03-2.47803E+05-2.45699E+03-4.17879E+04 1.71741E+03 6.25185E+03
 -1      5508 5.03625E+04-3.01863E+05-2.76949E+03-4.64915E+04 4.26982E+03 3.85320E+03
 -1      5509-1.74014E+04-2.84301E+05 1.30443E+04-6.10746E+04 8.45432E+03 1.48541E+04
 -1      5510 4.16830E+04-3.56442E+05 2.83465E+03-5.25100E+04 1.13815E+04-2.86073E+03
 -1      5511-3.07190E+04-2.38263E+05 1.35904E+04-3.27698E+04-1.61799E+03 1.60015E+04
 -1      5512 7.88969E+04-3.45660E+05 4.22846E+03-2.80900E+04 6.33726E+03-3.12252E+03
 -1      5513 8.38964E+03-3.44450E+05-3.71166E+01 1.18940E+05-2.44809E+04 3.16605E+03
 -1      5514 4.90782E+04-3.60363E+05-2.09824E+03 7.43518E+04-1.48709E+04-1.58941E+03
 -1      5515-2.21535E+04-3.31282E+05 6.90395E+03 1.26750E+05-4.52463E+04 7.52273E+03
 -1      5516 3.73784E+04-3.61223E+05 9.89330E+02 4.17548E+04-2.21429E+04-5.00716E+02
 -1      5517 2.40774E+04-3.46219E+05-4.12223E+03 2.88162E+04-3.33595E+04 2.20209E+03
 -1      5518 5.17596E+03-3.61400E+05-8.78884E+03 7.92128E+04-3.67724E+04 3.98811E+03
 -1      5519-8.00413E+04 2.49285E+05-4.70819E+03 7.51529E+04-3.68820E+03-5.42117E+03
 -1      5520-8.88397E+04 3.52546E+05-8.57112E+02 8.56632E+04-9.70803E+03-4.31792E+03
 -1      5521-6.58901E+04 2.73432E+05 2.01062E+02 4.17037E+04 3.67136E+02-1.23919E+03
 -1      5522-8.17576E+04 3.01595E+05-7.38354E+02 1.72394E+04-1.16622E+03 1.15034E+04
 -1      5523-6.24890E+04 2.43137E+05-9.20794E+03 3.92437E+04-1.06297E+03 8.33600E+03
 -1      5524-1.06184E+04 2.60925E+05 3.93377E+02 1.12131E+05 4.85970E+02-3.81812E+02
 -1      5525-2.66570E+04 2.46117E+05-1.70590E+02 8.77852E+04-9.13944E+02 8.20582E+02
 -1      5526-1.05208E+04 2.17923E+05-3.81164E+02 9.10150E+04-1.15227E+03 1.44529E+03
 -1      5527 8.71584E+03 1.97244E+05 2.51006E+02 9.59744E+04-1.27127E+03 3.01547E+02
 -1      5528 1.83864E+04 2.20093E+05 1.46652E+03 1.18778E+05-2.60624E+02 4.57179E+02
 -1      5529 1.10154E+04 2.45586E+05 6.48114E+02 1.26736E+05 6.05670E+02 4.20652E+02
 -1      5530 3.36303E+03 1.87751E+05 2.74320E+02 8.41220E+04-1.22023E+03 7.20596E+02
 -1      5531-2.42786E+04 1.47036E+05 9.95442E+02-9.70337E+04-1.16336E+03-2.34764E+03
 -1      5532-3.18134E+03 1.46564E+05-1.72078E+03-9.29327E+04-1.81659E+03 8.19549E+02
 -1      5533-8.82064E+03 1.62575E+05-2.21179E+02-8.26854E+04-1.37992E+03 5.94007E+02
 -1      5534-3.16087E+04 1.75393E+05 2.60058E+02-6.52724E+04-1.31174E+03 2.08889E+01
 -1      5535-5.95788E+04 1.69995E+05-8.41956E+02-8.34883E+04-7.34906E+02-1.95167E+03
 -1      5536-3.35701E+04 2.07470E+05-3.03361E+03-1.02687E+05 1.44899E+04-1.01831E+04
 -1      5537-3.34479E+04 2.13358E+05 2.55930E+03-7.97948E+04 3.79669E+04-4.79218E+03
 -1      5538-3.64615E+04 1.24481E+05 5.47727E+02-9.82123E+04 3.60907E+04-1.79056E+04
 -1      5539 2.11242E+04-1.83111E+05 2.02842E+02 5.31167E+04 6.17274E+02 1.14328E+02
 -1      5540 3.93141E+04-2.20194E+05-3.86589E+02 4.43238E+04 2.36104E+02 4.50309E+01
 -1      5541 6.11938E+03-1.83558E+05 1.60744E+02 7.25988E+04 8.01994E+02 3.31127E+02
 -1      5542 2.75730E+04-2.53229E+05-3.72335E+03-6.18571E+04-2.86827E+04-5.41519E+03
 -1      5543 1.75442E+04-2.21117E+05 7.48506E+02-5.15911E+04-3.66281E+04-1.28943E+04
 -1      5544 2.22952E+04-2.53576E+05 1.28114E+04-1.56996E+04-6.11105E+04-1.11536E+04
 -1      5545 8.37987E+03-3.11980E+05-8.51200E+03 1.18002E+04-4.58542E+04 2.27259E+03
 -1      5546 3.40329E+04-3.09324E+05-1.09872E+03-2.59435E+04-2.57825E+04-4.32189E+03
 -1      5547 1.83232E+04-1.28431E+05 2.22259E+02-1.61033E+03 6.18483E+02 5.76600E+01
 -1      5548 1.80823E+04-1.21952E+05-5.41026E+02-7.97767E+03 4.25781E+02 9.30215E+01
 -1      5549 2.23511E+04-1.26160E+05 2.83188E+02-2.08355E+04 2.80565E+01 9.73760E+02
 -1      5550 1.51770E+04 8.78726E+04 2.96470E+03-9.11329E+04 1.80514E+03-5.61646E+02
 -1      5551-3.59589E+03 3.13460E+05 4.73814E+03 1.25867E+05 1.14301E+04 4.88019E+03
 -1      5552 1.59784E+04 2.86538E+05 1.86574E+03 1.42057E+05 6.12599E+03 6.62177E+03
 -1      5553 4.63057E+03-2.21823E+05-9.71349E+03 9.03726E+02-8.90261E+03-2.40647E+03
 -1      5554 1.08963E+05-3.18794E+05-7.23301E+02-5.04587E+03 4.96195E+03-8.86550E+02
 -1      5555 6.40806E+04-2.47972E+05 1.82019E+02-2.80018E+04 1.05899E+03-5.63437E+02
 -1      5556-1.73169E+04 1.71819E+05 5.19384E+02-1.09172E+05-1.64250E+03 1.86434E+00
 -1      5557 8.10227E+04-2.79750E+05 4.05263E+02 8.01377E+03-4.11297E+02 5.52047E+02
 -1      5558-5.74496E+04 3.14610E+05 7.36181E+02 7.90748E+04-7.57816E+01-1.83532E+02
 -1      5559 6.12598E+03-1.66438E+05 9.79439E+02-2.03502E+03 7.40503E+02-1.10511E+03
 -1      5560-3.06929E+04 2.09684E+05-3.06128E+02 5.98159E+04 4.22045E+02 1.73744E+02
 -1      5561 8.57758E+04-1.82394E+05-1.41988E+03-6.90300E+04 1.59129E+03 4.11520E+03
 -1      5562-2.13629E+03-4.61432E+04 1.05894E+03-1.57927E+05 2.75246E+03 2.36678E+03
 -1      5563 6.74720E+04-3.12596E+05-9.20791E+02 8.83381E+04 1.74404E+03-5.20396E+02
 -1      5564 1.79777E+04-1.31350E+03-1.24253E+03-1.26799E+05 2.29254E+01-6.64095E+02
 -1      5565-8.63172E+04 2.12597E+05-5.50202E+02-5.27279E+03 2.44534E+02 3.96460E+02
 -1      5566 1.31958E+05-2.85254E+05 2.34100E+01 4.00807E+04-9.89016E+01 5.44209E+02
 -1      5567-3.31831E+04 3.70287E+05-2.82130E+03 3.51243E+04-2.74475E+04 1.35417E+03
 -1      5568-2.59552E+04 1.80232E+05-1.66544E+02 9.07405E+03-2.35254E+02 4.08186E+02
 -1      5569-6.10193E+04-4.12373E+04-2.98487E+02-1.20806E+05-1.00130E+03 5.61005E+02
 -1      5570 1.77795E+04-1.56612E+05-2.26310E+02 5.83410E+03-1.95726E+02-5.99333E+02
 -1      5571 7.72787E+04-9.87397E+04-7.61787E+02-2.07845E+04 1.77541E+03 9.01606E+02
 -1      5572 1.92265E+04-2.87765E+05 4.23835E+03-5.52818E+04-4.50988E+03-7.13402E+03
 -1      5573 2.60014E+04-3.67286E+05-1.02897E+03 8.79317E+04 2.71324E+04-5.42565E+02
 -1      5574-9.10248E+04 3.01606E+05 6.66054E+02 4.88949E+04 3.68779E+03-6.99358E+01
 -1      5575-5.27535E+03 2.30982E+05-3.13866E+02 1.02596E+05-2.76205E+02-7.04925E+02
 -1      5576-2.99930E+04 1.63238E+05-5.88033E+01-8.32706E+04 1.13573E+03 2.70117E+02
 -1      5577-3.08486E+04 1.35479E+05-4.41584E+03-1.29131E+05-1.52163E+04 1.38574E+04
 -1      5578 3.08989E+04-2.19123E+05 1.31903E+01 6.94581E+04-4.13037E+02-5.46228E+02
 -1      5579 2.31476E+04-2.85455E+05 2.61028E+02-3.22850E+04 3.68727E+04 5.76529E+03
 -1      5580 3.04320E+04-1.41804E+05 1.13128E+03-1.13395E+04-3.48402E+02-4.76686E+02
 -1      5581 2.19416E+04 4.27428E+04 1.49731E+03-1.20127E+05-8.55060E+02-6.86656E+02
 -1      5582 3.52238E+04 2.66974E+05-2.33019E+03 1.57724E+05-6.72143E+03-1.30150E+03
 -1      5583-3.44115E+04 1.88023E+05 4.85297E+02 3.76500E+04-1.07688E+02 9.42529E+00
 -1      5584 4.95752E+04-2.47857E+05-9.90020E+03 8.80467E+04 5.11360E+03 9.27682E+03
 -1      5585-7.40639E+04 2.43481E+05 7.09170E+03 7.11753E+04-2.32813E+03 7.69920E+03
 -1      5586 1.33444E+05-3.29859E+05-6.63715E+01 1.85163E+04-2.65587E+03 1.65708E+03
 -1      5587-5.25641E+04 2.54116E+05-4.82429E+04-2.05298E+04-3.99387E+04 3.68134E+04
 -1      5588 8.73154E+03-1.16603E+05-1.60946E+02 2.24757E+03-8.85028E+01-2.17439E+02
 -1      5589-1.25447E+05-1.26510E+04 2.95671E+03-9.20060E+04-2.90759E+01-2.60630E+03
 -1      5590 1.06111E+04-1.46020E+05 1.98438E+02 3.74043E+04-4.24996E+02-1.90937E+02
 -1      5591-1.84210E+04-1.01816E+05-1.60312E+01-9.56343E+04-6.67043E+02 2.52899E+02
 -1      5592 2.32520E+04-1.02810E+05-2.51556E+02-1.20560E+05 2.66152E+02-3.68665E+01
 -1      5593 2.21019E+03 1.66666E+05 6.45118E-01 6.80139E+04 4.60934E+02-1.31251E+02
 -1      5594-2.58375E+03 3.35283E+04 5.44038E+02-1.48738E+05-1.10831E+03 5.19053E+02
 -1      5595 1.05970E+05-3.09723E+05 2.59170E+02 4.57759E+04-5.82835E+02 6.86462E+02
 -1      5596 1.09139E+05-3.10471E+05-1.16924E+03 4.60746E+04-1.21708E+03-5.81610E+02
 -1      5597 1.68474E+03-4.49597E+04-6.99145E+03-1.66334E+05-5.93668E+03 2.21370E+03
 -1      5598-4.33598E+04 2.88997E+05 1.33772E+03-2.24827E+03-5.42978E+02 1.64689E+02
 -1      5599-3.84597E+03-3.21512E+05 8.59355E+03 1.47235E+05 1.42947E+04-3.36977E+03
 -1      5600 2.41787E+04 1.29709E+05-1.39138E+04-1.05009E+05 1.20384E+03-2.89947E+03
 -1      5601-9.35590E+04 1.81990E+05 5.91383E+02-8.81684E+04 1.66377E+03 3.06200E+03
 -1      5602-1.23086E+04 6.64538E+03-8.04891E+02-1.30353E+05 8.55666E+02 2.12979E+04
 -1      5603-1.46740E+04-2.13974E+05-4.88251E+03 1.17312E+05-1.09301E+03-1.73085E+03
 -1      5604-3.07735E+04 1.82692E+05-6.59780E+01-4.87126E+04 4.15779E+02-3.98694E+02
 -1      5605-4.48751E+04 1.87054E+05 1.88886E+03 9.52112E+04 1.00672E+03 4.11942E+03
 -1      5606 1.57994E+04-1.27684E+05-2.46147E+02-5.18051E+04 9.76884E+01 1.03958E+02
 -1      5607 3.82856E+03 2.98765E+05-2.63600E+04 1.33811E+05-4.80645E+04 1.20304E+04
 -1      5608 2.41209E+04-2.20426E+05-9.16155E+02-2.34232E+04-1.79194E+03-8.18688E+02
 -1      5609-4.47368E+04 2.61457E+05 1.06228E+03 7.09740E+04 3.63115E+03-1.67298E+03
 -1      5610 4.84905E+04 2.19120E+04-4.19765E+03-9.78440E+04 3.77401E+03-2.42168E+03
 -1      5611 2.48921E+04-1.35686E+05 3.31576E+04-8.13395E+04 1.93582E+04 2.03492E+04
 -1      5612 1.28475E+05-1.63255E+05-2.47800E+03 4.17578E+04 2.40404E+03 2.23764E+03
 -1      5613-7.66856E+04-1.90478E+05 6.28205E+04-1.19846E+05-1.80106E+04-1.60382E+04
 -1      5614-3.12276E+04 1.86966E+05 7.73358E+01 7.92016E+02 2.13076E+02-1.65029E+02
 -1      5615 6.56103E+03-1.05859E+05-1.85312E+02 6.52873E+03-6.81546E+01 1.59949E+02
 -1      5616 1.99839E+04-3.02999E+05 2.84729E+04 8.37922E+04 1.83260E+04 5.38158E+04
 -1      5617-3.43740E+04 2.72145E+05-8.69461E+02-7.20231E+04-1.55630E+04 4.27793E+03
 -1      5618-3.59979E+04 3.52334E+05 2.99217E+03 8.85304E+04-1.44089E+04-1.21061E+03
 -1      5619 1.24879E+04 2.95430E+05-4.27921E+04 9.85661E+04-8.25274E+04 1.35205E+04
 -1      5620 1.47801E+05-2.08113E+05-3.49791E+04-2.30669E+05-1.55670E+04 1.36882E+04
 -1      5621 4.04072E+04-7.79573E+04-1.51805E+03-8.67447E+04 6.95464E+01 1.46934E+02
 -1      5622 4.15141E+04 2.02733E+05 6.88863E+03 1.30680E+05 7.36229E+02-1.22643E+03
 -1      5623 2.03144E+04 1.65191E+05 7.19248E+02 8.76395E+04 6.18798E+02-2.92592E+02
 -1      5624 6.28652E+03-1.07224E+05-2.85033E+02 1.73126E+04-2.77671E+02-1.29435E+02
 -1      5625-4.44161E+03 1.37953E+05 1.59508E+02-7.03762E+04-1.21774E+02 6.11774E+02
 -1      5626 4.10881E+04-3.45228E+05 4.54531E+03-6.78194E+03 1.53922E+04 3.20442E+03
 -1      5627-9.44786E+04 1.60161E+04 4.72713E+03-1.09452E+05-2.16751E+03 7.62351E+01
 -1      5628 1.84518E+04 5.09162E+04 5.70114E+03-3.05258E+04-3.90329E+03 5.64509E+02
 -1      5629-9.07797E+04-6.19384E+04 1.83868E+02-1.00516E+05-4.87494E+02-3.91652E+02
 -1      5630-6.13025E+04 2.68518E+05 1.19932E+03 5.56255E+04 1.64443E+03 1.40547E+03
 -1      5631-1.66941E+05 9.50129E+02 7.00553E+03-6.49115E+04-1.16740E+03 5.77320E+02
 -1      5632 1.08585E+05-2.22994E+05-5.77484E+02 2.40289E+04 1.56060E+03 1.18964E+03
 -1      5633 5.49102E+03 7.79674E+04 2.83837E+02-1.26068E+05-2.22001E+02-6.27937E+02
 -1      5634 4.42800E+04-2.16860E+05-1.40305E+01 1.92758E+04-6.84563E+02-1.83342E+02
 -1      5635 1.19592E+05-3.22749E+05-1.19537E+03 1.67315E+04-7.85563E+02 4.22584E+02
 -1      5636-1.23783E+05 2.43674E+05-5.02254E+04-5.97912E+04 1.20572E+04-1.31777E+03
 -1      5637 9.90399E+03-1.03720E+05-3.93109E+01-7.50578E+03-3.88349E+01-1.00655E+02
 -1      5638 3.75753E+04-1.76307E+05-5.41141E+02 3.73446E+03 1.95961E+03-4.62005E+02
 -1      5639 7.45602E+03-1.49154E+05 6.81360E+01-2.74516E+03-2.76205E+01-2.18427E+02
 -1      5640 6.94764E+04-3.58640E+05 1.82941E+03 6.06225E+04 6.52612E+03 2.08183E+03
 -1      5641-4.70987E+04 9.61946E+04-8.56282E+03-5.61122E+04-5.30595E+04 3.02630E+04
 -1      5642-6.01144E+04 2.12393E+05-1.04721E+03 4.45966E+04-4.90921E+02 1.06150E+03
 -1      5643 6.30456E+04-3.51369E+05 3.18374E+03-2.81271E+04-7.87757E+03-2.46980E+03
 -1      5644 2.70561E+04-2.22194E+05 6.43311E+02-1.00578E+05 1.13274E+04 4.86006E+03
 -1      5645-1.57585E+04 1.29543E+05-9.69321E+02-1.42671E+05-3.61038E+03 1.18211E+03
 -1      5646-1.33332E+04 1.30798E+05-2.17420E+03-1.10792E+05-4.39121E+02 4.83629E+03
 -1      5647-5.53673E+04-3.27776E+05 9.11201E+03 1.49163E+05 7.50341E+04-3.83750E+03
 -1      5648 1.01981E+05-7.66882E+03-1.76531E+02-2.72649E+04 6.25353E+03 7.99672E+01
 -1      5649 9.79260E+03 1.60373E+05 1.49607E+02-8.30600E+04 8.47876E+02-1.16682E+03
 -1      5650 7.46389E+04-2.72717E+05 1.47631E+02 4.60756E+04-1.21200E+03 6.85534E+02
 -1      5651-1.58113E+05 2.77935E+05 2.35178E+04-5.89433E+04 4.24922E+03 9.32698E+03
 -1      5652-1.42846E+04-2.09754E+05 1.72387E+03-1.76076E+04 6.45688E+02-5.07617E+03
 -1      5653-1.79547E+04 2.87579E+05-1.19102E+03 1.14891E+05-6.31856E+02-1.21241E+03
 -1      5654-1.06802E+04 2.08682E+05 3.85999E+02 8.04630E+04 5.44708E+01-4.03238E+02
 -1      5655 2.76486E+04-2.04091E+05 2.48951E+04 6.61473E+03 6.49506E+04 3.88656E+04
 -1      5656-1.72356E+04-1.47303E+05-6.38662E+02 7.49423E+04-1.24319E+03-9.66604E+01
 -1      5657-9.58286E+03 1.66615E+05-1.87035E+02 4.81187E+04 3.42188E+02 1.81692E+02
 -1      5658 8.33360E+04-3.07313E+05-2.04445E+02-2.89044E+04-1.24817E+03-1.79283E+03
 -1      5659 1.01613E+04-1.13490E+05-5.96075E+01-2.87449E+04-3.03441E+02 2.07278E+02
 -1      5660-9.76320E+04 3.46053E+05-2.46964E+04 8.00268E+04 1.94716E+04 6.90644E+03
 -1      5661-4.25451E+04 2.38451E+05-3.66662E+03 4.53240E+04 5.87822E+02-4.58206E+03
 -1      5662 9.52776E+04 1.18516E+05 5.51231E+03-1.09945E+05-3.00259E+03 1.24221E+04
 -1      5663-1.95321E+05-8.11102E+03-8.11246E+03-4.69645E+04-3.83134E+03 1.43300E+04
 -1      5664-1.33168E+05 2.11025E+05 1.81767E+04-1.17225E+05 3.48107E+03 5.41494E+03
 -1      5665-3.18572E+05 2.34058E+05-2.35900E+04-1.30948E+05-1.03740E+03 7.15713E+03
 -1      5666-8.43165E+04 1.18486E+05-7.69263E+04 5.68688E+04 3.82058E+04 3.21465E+04
 -1      5667 6.98515E+04 5.96446E+05 1.06482E+05 2.68145E+05-8.41978E+04-2.95641E+04
 -1      5668-1.90578E+04 2.26658E+05 6.67459E+02 2.71126E+04 8.07601E+03 9.78367E+03
 -1      5669-2.41065E+05 3.18899E+05-1.22393E+04 7.23450E+04-1.65637E+04 2.57703E+04
 -1      5670-9.21470E+04 4.72961E+05 7.21878E+04 9.41191E+04-4.63470E+04 2.02976E+04
 -1      5671-8.82231E+04 2.79867E+05 3.05736E+04 2.58221E+04 2.27628E+03 7.19977E+03
 -1      5672-5.62454E+04 3.83910E+05-5.33103E+03 9.41381E+03 3.54002E+04 1.59312E+04
 -1      5673 2.84964E+04-4.49161E+04-2.75357E+04-2.17324E+05-2.64564E+03-4.35052E+03
 -1      5674 3.11228E+05 1.85100E+04 6.92221E+04-3.66722E+05 1.02336E+04 3.54554E+03
 -1      5675-2.14484E+04-2.73508E+05 1.13577E+05 1.77088E+02-5.59840E+04 2.31024E+04
 -1      5676 4.27804E+04-7.31393E+05-8.17054E+04-2.40437E+04 7.65714E+04 1.25087E+04
 -1      5677-9.37869E+04-1.40774E+05 3.33967E+04 3.51678E+04-1.36818E+04-1.60024E+03
 -1      5678 2.83150E+05-4.23575E+05 7.90813E+03-4.28706E+04 2.19091E+04 4.11879E+04
 -1      5679 6.47395E+04-3.69948E+05-6.80937E+04-2.71837E+04-9.57800E+03 1.42730E+04
 -1      5680 3.92218E+04 1.40084E+05-2.51140E+03-9.75782E+04 1.15948E+03-2.52096E+03
 -1      5681 5.70070E+04 1.27246E+05-1.13824E+02-1.03767E+05 1.42966E+03-3.28255E+03
 -1      5682 6.23513E+04 1.26414E+05 1.47359E+04-1.11063E+05-5.07382E+03 1.55788E+04
 -1      5683 2.00319E+04 1.65874E+05 1.12005E+02-7.74490E+04 6.99977E+02-9.70862E+02
 -1      5684 3.37280E+04 1.54380E+05-1.00879E+03-8.79934E+04 9.59699E+02-1.65270E+03
 -1      5685 1.25915E+04 1.45124E+05-3.28469E+03-9.26155E+04 1.40278E+03-3.03498E+03
 -1      5686-9.12100E+03 1.81004E+05 2.12891E+02-4.57360E+04 2.07710E+02-5.85346E+02
 -1      5687-1.88566E+02 1.75633E+05 3.17900E+01-6.19118E+04 5.09481E+02-3.19939E+02
 -1      5688-1.09387E+04 1.72212E+05 2.31263E+02-6.70323E+04 7.40326E+02-7.36143E+02
 -1      5689-1.24988E+04 1.82780E+05 1.37460E+01-2.29396E+04 3.37263E+02-1.87807E+02
 -1      5690-1.43116E+04 1.78531E+05 1.06217E+02-5.45467E+03 3.85999E+02-2.53223E+02
 -1      5691-3.24537E+04 1.88649E+05 3.76503E+02-2.37014E+04-1.96483E+02-2.26788E+02
 -1      5692-1.44919E+04 1.72243E+05-1.97966E+01 1.08395E+04 3.29584E+02 2.82138E+01
 -1      5693 7.50990E+02 1.49813E+05-2.37182E+02 4.38057E+04 6.77523E+02 3.98919E+01
 -1      5694-4.22717E+03 1.60406E+05 6.69551E+01 3.23594E+04 5.85096E+02 3.75895E+01
 -1      5695-3.44114E+04 1.87681E+05-5.07663E+02 1.96406E+04-8.43827E+01-2.37538E+02
 -1      5696-1.51765E+04 1.71767E+05 2.45904E+02 2.79822E+04 4.11572E+01-1.89585E+02
 -1      5697-2.13042E+04 1.77962E+05 6.93510E+02 4.33170E+04-2.90840E+01 5.03849E+01
 -1      5698 1.56049E+04 1.43447E+05-2.13555E+02 6.45590E+04 5.98186E+02 3.60857E+02
 -1      5699 7.54055E+03 1.49937E+05 3.37695E+02 5.39266E+04 5.67883E+02-2.79698E+02
 -1      5700-3.60608E+03 1.65556E+05-1.95606E+02 5.86903E+04 6.65433E+01-2.47895E+02
 -1      5701 4.14137E+04 1.40759E+05 1.17466E+03 8.77801E+04 1.22623E+03 3.09395E+02
 -1      5702 2.59005E+04 1.42344E+05 9.02779E+02 7.41605E+04 3.58563E+02-2.16964E+02
 -1      5703 1.08716E+04 1.65458E+05-2.21173E+02 7.75706E+04 2.82481E+02-4.78517E+02
 -1      5704 7.46199E+04 1.55729E+05 2.87864E+03 1.22800E+05 1.90640E+03-6.81561E+02
 -1      5705 5.93845E+04 1.56481E+05 2.66021E+03 1.09997E+05 1.53896E+03 4.39264E+02
 -1      5706 3.16141E+04 1.81422E+05-3.74284E+02 1.08954E+05 8.16518E+02-3.64960E+02
 -1      5707 9.01104E+04 1.94895E+05-3.63648E+03 1.60621E+05 8.16046E+03 6.05826E+03
 -1      5708 1.04142E+05 2.05908E+05 1.11588E+04 1.49688E+05 4.23869E+03 8.10736E+03
 -1      5709 4.55217E+04 2.33975E+05 4.82086E+03 1.44997E+05-7.33770E+03-2.35906E+03
 -1      5710 8.27744E+04 1.88971E+05-3.32436E+04 1.44368E+05 2.72107E+04 3.82378E+04
 -1      5711 1.17319E+05 2.43570E+05 6.95611E+03 1.68518E+05-7.22160E+03 1.43278E+04
 -1      5712 3.41802E+04 3.08573E+05 2.28769E+02 1.53281E+05-1.75941E+04 8.35515E+03
 -1      5713 4.12884E+04 1.32561E+05-7.19630E+04 1.05584E+05 3.18450E+04 1.87579E+04
 -1      5714 9.96388E+04 1.81950E+05-5.17124E+03 1.36384E+05 1.20824E+04 2.67838E+04
 -1      5715 1.26838E+04 2.96603E+05-2.44622E+04 1.19298E+05-5.23692E+04 1.93704E+04
 -1      5716-6.68858E+04 7.15073E+04-1.24492E+05 3.80191E+03 6.66471E+04 2.89500E+04
 -1      5717-3.73726E+04 1.22085E+05-5.66271E+04 3.59215E+04 4.42251E+04 3.78110E+04
 -1      5718-2.14639E+04 2.64142E+05-3.79456E+04 4.45611E+04-4.33964E+04 3.64185E+04
 -1      5719-4.51343E+04 5.92016E+03-4.95793E+04-1.45713E+04 2.34761E+04 3.21599E+03
 -1      5720-5.98935E+04 7.29369E+02-9.54103E+03-1.75212E+04 2.96276E+04 1.62112E+04
 -1      5721-5.77819E+04 1.57926E+05-4.07576E+04-3.88685E+04-5.13603E+04 4.07838E+04
 -1      5722-6.79687E+03 8.94039E+02 3.83296E+03-4.84749E+04 6.64413E+03-3.65936E+03
 -1      5723-2.75306E+04-3.23293E+03-2.76148E+04-6.97605E+04 3.18063E+04 1.36799E+03
 -1      5724-4.21359E+04 6.42522E+04-2.67732E+04-1.07140E+05-9.77517E+03-2.89005E+03
 -1      5725 4.46532E+04-2.89153E+04 9.16450E+04-1.11482E+03-3.79755E+04 9.52553E+02
 -1      5726 3.90172E+04-3.54002E+04 2.08678E+04-4.74875E+04 7.48541E+03 3.11979E+03
 -1      5727 2.25462E+03-6.04156E+04-1.05421E+03-1.14040E+05 1.24798E+04 5.92382E+03
 -1      5728-5.98152E+03-5.38384E+04 8.04625E+04 6.86509E+04-3.35518E+04 1.47946E+04
 -1      5729 5.46374E+04-4.25307E+04 2.19733E+04 2.99981E+04-2.09899E+04-5.39940E+03
 -1      5730 2.86086E+04-1.39724E+05 3.38859E+04-3.62260E+04 4.04826E+04 1.50570E+04
 -1      5731-5.60799E+04-1.43079E+05 8.94349E+04 1.32395E+05-6.85871E+04 4.60725E+04
 -1      5732 8.82471E+03-1.22219E+05 7.34686E+04 1.00027E+05-5.56328E+04 2.50170E+04
 -1      5733 3.71867E+04-2.44268E+05 3.51036E+04 4.29761E+04 4.24050E+04 5.02648E+04
 -1      5734-1.28605E+05-2.43339E+05-6.22288E+03 1.76475E+05 2.57234E+04 2.77490E+03
 -1      5735-1.26286E+05-2.15988E+05 1.15596E+04 1.55900E+05-1.53002E+03 2.56187E+03
 -1      5736-5.33112E+04-3.42858E+05-2.09652E+02 1.41389E+05 3.09182E+04 4.13701E+04
 -1      5737-6.80588E+04-2.13056E+05 6.39178E+03 1.41911E+05-5.43417E+03 3.66731E+03
 -1      5738-1.02467E+05-2.57231E+05 5.85375E+03 1.80287E+05-1.50831E+04 1.15734E+04
 -1      5739-3.24853E+03-3.00018E+05 2.31066E+04 1.32056E+05 3.40560E+04 9.06426E+02
 -1      5740-4.75208E+04-1.56699E+05-1.86394E+03 1.02791E+05-2.18040E+02 4.42287E+02
 -1      5741-6.74072E+04-1.69424E+05-4.13162E+03 1.23320E+05-1.37325E+03-3.32137E+03
 -1      5742-1.25474E+04-2.69588E+05-2.24570E+03 1.36780E+05 9.59270E+03-2.76911E+03
 -1      5743-2.38215E+04-1.16106E+05-5.52611E+02 6.20489E+04-1.09161E+03 3.87588E+01
 -1      5744-4.05568E+04-1.26772E+05-9.76048E+02 7.97636E+04-1.74681E+03 8.02409E+02
 -1      5745-1.95169E+04-1.81949E+05-2.77538E+02 9.70566E+04-1.02768E+03-5.38192E+02
 -1      5746-9.57004E+02-1.05855E+05-1.88345E+02 3.19140E+04-2.88837E+02 8.22547E+01
 -1      5747-7.48751E+03-1.15157E+05 3.16186E+01 4.44398E+04-6.80760E+02 3.34630E+02
 -1      5748-3.29318E+03-1.48496E+05-4.62220E+02 5.61011E+04-9.29236E+02-1.74715E+02
 -1      5749 1.60074E+03-7.99962E+04-3.15969E+02 1.41631E+04-3.74193E+01-2.08194E+02
 -1      5750-1.23924E+03-8.70563E+04-1.37020E+01 2.20168E+04-2.17941E+02 1.68806E+02
 -1      5751 9.50709E+03-1.26436E+05 6.20033E+02 2.58703E+04-1.62901E+02 1.78433E+02
 -1      5752 2.86054E+03-7.75433E+04-1.29374E+02 4.65262E+03-1.80713E+02 4.81013E+00
 -1      5753 2.76393E+03-7.97935E+04-3.34232E+01 9.05913E+03 6.79125E+01 1.01547E+02
 -1      5754 6.19698E+03-1.06491E+05-3.51479E+02 1.13386E+04-2.02994E+02 9.19493E+00
 -1      5755 4.92254E+03-8.82046E+04-1.24195E+02-2.13437E+03-1.34123E+02-1.64750E+02
 -1      5756 4.47798E+03-8.39654E+04-5.66104E+01 1.99369E+03 1.30029E+01 3.96912E+01
 -1      5757 6.90865E+03-1.11038E+05-2.47785E+02 4.00028E+03 3.98253E+01 7.28970E+01
 -1      5758 2.26823E+03-9.06876E+04-1.26060E+02-1.57942E+04-5.54013E+02-2.06061E+02
 -1      5759 4.43437E+03-8.13606E+04-1.85036E+02-7.55801E+03-4.75415E+02-2.30968E+02
 -1      5760 1.01859E+04-1.09220E+05 6.81372E+02-1.66869E+03 2.65282E+02-3.54804E+02
 -1      5761-7.77425E+03-1.03889E+05-3.01526E+02-3.92206E+04-9.68470E+02-3.02436E+02
 -1      5762 7.49794E+02-9.57675E+04-2.07978E+02-2.59740E+04-8.40221E+02-7.33743E+01
 -1      5763 1.14261E+04-1.09548E+05-4.15717E+02-1.64627E+04-1.19769E+01 3.60954E+02
 -1      5764-1.99275E+04-1.10999E+05 7.90343E+01-6.48380E+04-3.89612E+02 6.24615E+01
 -1      5765-5.51053E+03-1.10455E+05-4.74990E+01-4.97118E+04-3.98624E+02-1.06516E+02
 -1      5766 1.35823E+04-1.22570E+05 1.12137E+01-3.94147E+04 3.00023E+02-1.76325E+02
 -1      5767-6.11705E+04-9.03838E+04-1.60995E+02-9.34530E+04 7.23874E+01-2.21048E+02
 -1      5768-3.90781E+04-1.01110E+05 1.21435E+02-8.43405E+04-4.13403E+02-2.22892E+02
 -1      5769 3.64520E+03-1.18333E+05-1.05492E+02-7.62231E+04-1.91884E+02 1.35370E+03
 -1      5770-1.15236E+05-5.99096E+04 8.80664E+01-9.58903E+04-2.95047E+02-1.06190E+03
 -1      5771-9.50416E+04-7.21170E+04 2.22896E+02-9.59864E+04-8.77776E+01-3.44332E+02
 -1      5772-5.52977E+04-8.14486E+04-3.97895E+02-9.93581E+04-1.23012E+02-1.40977E+02
 -1      5773-1.46250E+05-2.34013E+04-6.04364E+01-8.34902E+04 2.44572E+02-2.26812E+03
 -1      5774-1.31219E+05-3.70367E+04-1.14449E+02-9.24628E+04-8.94464E+01-1.50706E+03
 -1      5775-1.07307E+05-3.82821E+04 8.86929E+02-9.79613E+04-4.09747E+02-1.84872E+03
 -1      5776-1.76873E+05-5.29172E+03 1.22823E+04-5.57447E+04 1.60871E+03-3.37223E+03
 -1      5777-1.62920E+05-1.54251E+04 5.16302E+02-7.13209E+04-1.15310E+03-1.28379E+03
 -1      5778-1.44746E+05-3.87551E+03 4.33935E+03-7.84273E+04-5.38326E+02-6.94323E+02
 -1      5779-1.87480E+05-9.84419E+03-2.32106E+04-5.58319E+04-7.20324E+03 1.95489E+04
 -1      5780-5.17243E+04 1.46590E+05 1.11846E+04-1.12089E+05-9.32735E+02 1.07876E+04
 -1      5781-1.05178E+05 1.50825E+05 3.01139E+03-1.26566E+05 9.23831E+02 1.93543E+03
 -1      5782-1.42645E+05 2.09803E+05-2.69946E+01-7.80396E+04 6.39036E+02 5.95904E+03
 -1      5783 2.48473E+04 1.26705E+05 2.39012E+04-1.12872E+05-5.08123E+03 1.89771E+04
 -1      5784-9.57251E+03 1.23034E+05 1.29434E+04-1.19305E+05-7.15738E+02 1.26823E+04
 -1      5785-5.67001E+04 1.48850E+05-6.71019E+03-1.01465E+05 4.74915E+02 1.74297E+03
 -1      5786 3.54898E+04 1.21476E+05 5.27965E+03-1.10767E+05-3.32738E+03 1.23513E+04
 -1      5787 7.65656E+03 1.32002E+05-8.13400E+03-1.06710E+05 1.56768E+02 5.08240E+02
 -1      5788-1.61549E+05 5.06267E+03-1.10704E+04-6.44720E+04-6.92365E+03 1.22621E+04
 -1      5789-9.74482E+04 3.51751E+04-4.45629E+03-1.02158E+05-4.44920E+03 3.57818E+03
 -1      5790-1.26262E+05 1.37825E+04-1.64560E+04-8.56495E+04-4.48312E+03 1.14337E+04
 -1      5791-1.11547E+05 4.74316E+02 5.45650E+03-1.00569E+05-6.70959E+02-1.71281E+03
 -1      5792-1.36288E+05 4.08565E+03-8.08250E+03-7.85724E+04-5.17485E+03 7.51066E+03
 -1      5793-7.71835E+03 5.26862E+04 8.24888E+03-1.73480E+05-1.55960E+03-6.49170E+03
 -1      5794-5.62181E+04 1.29718E+04-1.02379E+04-1.33734E+05-6.70073E+03 4.98955E+03
 -1      5795-4.92596E+04-5.75575E+03 1.79884E+03-1.36412E+05-4.12245E+03 1.63756E+03
 -1      5796 8.55604E+04-9.09091E+04-7.14107E+03-2.04763E+05-4.24074E+03 9.02262E+03
 -1      5797 8.96467E+03-2.78922E+05-4.78047E+03 4.06898E+04 1.28827E+03 6.02542E+03
 -1      5798 4.81351E+03-3.93086E+05 8.89030E+03 6.66279E+04-5.57549E+03 1.50237E+04
 -1      5799-7.65649E+04-3.78517E+05-2.50170E+04-5.19260E+04 5.07352E+02-2.23916E+04
 -1      5800 1.35852E+05-5.95241E+04-3.17604E+03-9.91324E+03 2.60027E+03 3.58904E+03
 -1      5801 7.82883E+04-1.30929E+05 4.08480E+03 4.27783E+04-4.15999E+03 6.25860E+03
 -1      5802 1.33616E+05-2.62877E+05-2.44368E+03 3.94340E+04 1.92777E+03 5.55193E+03
 -1      5803 7.84257E+04-2.40406E+05-7.52046E+03 4.29934E+04-3.30610E+03 4.53656E+03
 -1      5804 9.58307E+04-3.61365E+05-1.11226E+03 1.00099E+04-3.97843E+03-2.58953E+03
 -1      5805 1.53854E+05 2.31502E+04-8.23627E+02-6.30003E+04 2.79524E+03-2.11820E+03
 -1      5806 1.37382E+05 9.51087E+03 4.22420E+03-4.86326E+04 4.23934E+03 4.54731E+03
 -1      5807 1.13998E+05-7.80090E+04 1.78406E+03 1.15775E+04 3.05770E+03 3.87480E+03
 -1      5808 5.46821E+04 1.78492E+04-1.10582E+04-7.52722E+04-4.12661E+03-4.70251E+03
 -1      5809 1.18258E+05 3.08864E+04-3.32050E+02-8.40925E+04 3.03491E+03-1.69190E+03
 -1      5810 7.84100E+04 1.58085E+04 2.89033E+02-6.23688E+04 3.97443E+03-3.82346E+03
 -1      5811-3.31218E+04 1.76174E+04 6.10391E+03-2.36482E+04-2.70691E+03-3.09507E+03
 -1      5812 2.64623E+04 1.60154E+04 5.83897E+03-4.12688E+04 2.78799E+03-3.15830E+03
 -1      5813 2.87235E+04 3.00877E+04-3.47627E+03-1.19297E+05 3.55235E+03 1.54548E+03
 -1      5814 3.37611E+04 1.88703E+04-3.47514E+02-8.83516E+04-9.91375E+02-3.92513E+03
 -1      5815 1.97113E+04 4.16410E+04 1.19852E+03-8.05522E+04-3.14230E+03 1.92957E+03
 -1      5816 1.91441E+04 1.48826E+05 1.43484E+04 9.89840E+04-1.21859E+03 3.86534E+03
 -1      5817-2.37602E+04 8.38161E+04 1.27388E+04 4.36025E+04-2.59502E+03-5.28624E+03
 -1      5818-1.51022E+04 9.76491E+04-2.01508E+03 3.32550E+04 2.12791E+03 6.11582E+03
 -1      5819-8.27172E+04 2.64983E+05-2.26730E+03 1.08067E+05 4.67529E+03-3.30721E+03
 -1      5820 5.42518E+04-1.60301E+05-9.24607E+02-5.70310E+04 1.34990E+03-1.11060E+02
 -1      5821 5.61298E+04-8.90034E+04-1.97096E+03-5.31469E+04 1.51679E+03 5.18883E+02
 -1      5822 7.01333E+04-1.74685E+05-7.13118E+02-2.55502E+04 5.59341E+02 4.13658E+02
 -1      5823 9.21655E+04-1.63186E+05-4.33901E+02 4.74560E+03 2.02905E+03 1.14421E+03
 -1      5824 8.67786E+04-2.32780E+05 1.67848E+03-1.34435E+03 1.45223E+03 9.89210E+02
 -1      5825 3.26568E+04-9.15204E+04-6.38573E+02-1.03232E+05 3.96608E+02 9.17439E+02
 -1      5826 3.96402E+04-1.77680E+05-1.44803E+03-7.75106E+04 6.34464E+01 9.14673E+00
 -1      5827 2.53013E+04-1.62760E+05 4.69105E+03-1.12935E+05 2.38044E+03 1.75137E+03
 -1      5828 4.45714E+04-2.42587E+05 1.07329E+03-6.55832E+04 6.09612E+03 2.49223E+03
 -1      5829 1.07459E+05-2.74141E+05-1.91640E+03 3.30097E+04-9.15661E+02 1.52829E+03
 -1      5830 8.66972E+04-2.85166E+05 7.38508E+01 1.28909E+04-6.83060E+01-4.52748E+02
 -1      5831 8.75717E+04-3.32663E+05 3.90510E+03 5.20335E+04 2.98412E+03 1.39305E+03
 -1      5832 7.09771E+04-3.08852E+05 1.63945E+02 1.49581E+04 5.45728E+03 7.26013E+02
 -1      5833 5.31753E+04-3.59486E+05 1.20734E+03 2.84606E+04 1.19526E+04 2.82522E+03
 -1      5834 5.36569E+04-2.97358E+05 5.50891E+03-1.75422E+04 7.79526E+03 1.18732E+03
 -1      5835 3.39794E+04-2.81863E+05-5.56383E+02-5.43620E+04 1.42931E+04 5.24946E+03
 -1      5836-3.43774E+02 5.92176E+04 1.64756E+03-1.37283E+05-7.12663E+02 1.07604E+03
 -1      5837-8.41712E+03 1.00894E+05-9.80570E+01-1.32657E+05-1.06130E+03 1.76942E+03
 -1      5838-5.78113E+03 1.21353E+05-1.62785E+03-1.18149E+05-1.26017E+03 2.91181E+02
 -1      5839-1.04514E+04 7.69442E+04-2.04111E+03-1.46836E+05-1.33047E+03-8.85585E+01
 -1      5840-1.63072E+04 1.55531E+05 2.74998E+03-1.28827E+05-3.02938E+03 1.20729E+03
 -1      5841-3.86327E+04 2.90744E+05-2.08078E+03-4.11006E+04-5.26250E+03 2.39695E+03
 -1      5842-2.89919E+04 2.31502E+05 7.55619E+02-5.58402E+04-1.15052E+03 2.68018E+02
 -1      5843-2.35032E+04 2.27582E+05-6.80910E+02-9.03302E+04-5.68045E+03-3.56379E+02
 -1      5844-2.61955E+04 2.12606E+05-3.53139E+02-3.58833E+04-1.21150E+03 3.84304E+02
 -1      5845-1.14329E+04 1.58859E+05-1.50457E+03-8.94646E+04-8.40346E+02 1.77323E+03
 -1      5846-2.47356E+04 2.09469E+05 7.25084E+02-1.14267E+05-5.08843E+03 1.41731E+03
 -1      5847 1.91288E+03 1.05520E+05-1.31710E+03-9.94867E+04 1.45575E+03-3.23753E+02
 -1      5848 1.18435E+05-3.13680E+05 3.81790E+01 3.10141E+04-8.35137E+02-5.30008E+02
 -1      5849 1.00373E+05-3.01908E+05-1.20305E+03 9.86237E+03 3.49824E+02 1.61724E+02
 -1      5850 9.69695E+04-2.99794E+05-8.02378E+02 2.79795E+04 9.03949E+01 6.81773E+00
 -1      5851 9.08529E+04-2.92590E+05 1.13563E+02 4.63682E+04-1.71294E+03 5.08086E+02
 -1      5852 7.80227E+04-2.75874E+05 4.77057E+01 2.80237E+04-5.07163E+02 6.98225E+02
 -1      5853 3.87784E+04-2.20246E+05 3.50545E+02-2.50051E+03-8.27566E+02-1.54472E+03
 -1      5854 6.11822E+04-2.49313E+05-3.19914E+02 1.25193E+04-9.08353E+02 4.24716E+02
 -1      5855 5.26919E+04-2.52617E+05-4.32361E+02-1.03761E+04-1.41906E+03-6.92234E+02
 -1      5856 4.76550E+04-2.62949E+05 3.05835E+02-2.73834E+04-1.27660E+02-1.55175E+03
 -1      5857 8.45491E+04-2.92019E+05 9.95796E+02-9.46043E+03 3.04019E+02-1.13120E+02
 -1      5858 6.24873E+04-2.45947E+05-2.47566E+02 3.24589E+04 3.83648E+02 3.48782E+02
 -1      5859 1.05363E+05-3.18360E+05-9.30249E+02-7.31029E+03-1.98678E+03 5.43371E+02
 -1      5860-6.82433E+04 2.80797E+05 8.83203E+02 5.66622E+04 2.69793E+03-1.20803E+03
 -1      5861-7.35377E+04 2.99462E+05-2.29394E+03 6.75500E+04 9.85817E+02 2.50307E+02
 -1      5862-5.24668E+04 2.92620E+05 8.08900E+02 7.77928E+04 2.48199E+03-7.92061E+02
 -1      5863-7.82402E+04 2.91206E+05-7.86068E+02 6.00576E+04 3.51613E+03 1.95019E+03
 -1      5864-6.09629E+04 2.99471E+05 2.90009E+03 6.51569E+04 2.10539E+03 8.45377E+02
 -1      5865-4.32243E+04 3.32527E+05 5.53217E+02 4.17751E+04-6.26478E+03-1.75209E+03
 -1      5866-4.59441E+04 3.34392E+05-3.07675E+02 8.47099E+04-4.28832E+03-5.48631E+02
 -1      5867-5.17467E+04 3.08271E+05 1.44321E+03 4.36191E+04 1.82667E+03-1.13901E+03
 -1      5868-5.31474E+04 2.73281E+05 7.12419E+02 2.78395E+04-3.27205E+02 4.01148E+02
 -1      5869-3.33614E+04 2.73604E+05-1.65152E+03 9.33626E+04 2.34782E+03-2.22201E+02
 -1      5870-3.94902E+04 3.03882E+05 5.60770E+02 9.46668E+04-5.74686E+01-7.17684E+02
 -1      5871-2.62235E+04 3.31025E+05 1.90785E+03 1.07663E+05-5.81617E+03 4.49662E+02
 -1      5872 9.50515E+03-1.40196E+05 1.63407E+03 5.87579E+02-2.97494E+02 5.76113E+01
 -1      5873 1.91481E+04-1.69111E+05-5.30312E+02 8.72407E+02 1.52613E+03-1.03435E+03
 -1      5874 1.72293E+04-1.45680E+05-1.77278E+03 2.54628E+03-5.74602E+01-5.79702E+02
 -1      5875 8.83792E+03-1.31564E+05 1.85232E+02 2.04403E+03-4.75411E+01-3.18583E+02
 -1      5876 3.83717E+03-1.57327E+05-2.90211E+02-2.14959E+03 3.91267E+02-3.78940E+02
 -1      5877 1.33189E+04-1.82754E+05-3.65254E+02-1.13459E+04-5.69599E+02 7.61166E+01
 -1      5878 9.57546E+03-1.88301E+05-6.45632E+02-1.29132E+04-1.09083E+02-6.48628E+02
 -1      5879 1.39287E+03-2.16752E+05-2.59379E+03-2.57310E+04-8.42354E+02-3.96412E+03
 -1      5880-1.61443E+03-1.89456E+05 1.28162E+03-1.00086E+04 1.42086E+03-2.89873E+03
 -1      5881 5.47836E+03-1.86211E+05 1.28737E+03-2.70011E+03 1.99855E+03-6.35932E+02
 -1      5882-4.63157E+04 1.99726E+05 2.37706E+02 4.17770E+04-9.65444E+02 2.22931E+02
 -1      5883-4.15510E+04 2.10359E+05-5.87340E+02 5.33939E+04-5.05803E+02 1.10682E+03
 -1      5884-3.25882E+04 1.97155E+05 1.34845E+01 5.03998E+04-7.18347E+02 3.49220E+02
 -1      5885-2.04937E+04 1.89005E+05-1.37308E+01 5.71802E+04-7.71944E+01 4.10687E+02
 -1      5886-8.02920E+04 2.25484E+05 7.77871E+02 4.44769E+04-2.69609E+03 1.28360E+03
 -1      5887-5.69376E+04 2.28645E+05 6.18494E+03 5.35489E+04-1.18774E+03-5.73784E+02
 -1      5888-7.13875E+04 2.35878E+05-3.20580E+02 5.99212E+04-3.92488E+03-1.82172E+03
 -1      5889-4.06159E+04 2.18724E+05-5.79696E+03 5.41735E+04 4.46177E+02-2.50455E+03
 -1      5890-5.39268E+03 1.87893E+05 7.20618E+02 7.45079E+04 3.26883E+01-8.97470E+02
 -1      5891-1.48548E+04 1.90905E+05 1.05408E+03 6.58779E+04-2.09860E+02 2.91774E+02
 -1      5892-1.76310E+04 2.10729E+05 1.66570E+03 7.03971E+04 5.41089E+01 7.48763E+02
 -1      5893-2.32460E+04 2.33328E+05 1.45906E+03 7.65167E+04 1.84049E+03-9.52230E+02
 -1      5894-3.61188E+04 2.35953E+05 1.01816E+03 6.56077E+04 9.70369E+02-2.73294E+03
 -1      5895-4.20186E+04 2.53706E+05 9.98421E+02 5.51119E+04 5.14013E+02-5.00132E+03
 -1      5896 2.51668E+04-1.37493E+05 8.39175E+02-3.11018E+04 4.22170E+02-1.08938E+03
 -1      5897 5.48489E+04-1.61103E+05-2.93565E+02-3.52982E+04 2.14381E+03 7.30954E+02
 -1      5898 4.38210E+04-1.53233E+05-8.80195E+02-5.72540E+04 1.65063E+03 9.36146E+02
 -1      5899 3.85315E+04-1.59668E+05 3.27858E+02-4.95475E+03 5.77073E+01-1.21641E+03
 -1      5900 7.05460E+04-1.81451E+05-5.32519E+01-2.77245E+04 2.64463E+03-1.40566E+03
 -1      5901 1.05234E+05-2.10094E+05-1.37888E+04-1.24508E+05-5.68526E+03 8.29047E+03
 -1      5902 1.28696E+05-1.74975E+05 2.00185E+04-3.37364E+04 7.53092E+03 2.32247E+03
 -1      5903 5.15936E+04-2.12591E+05-8.34197E+03 3.57005E+03 1.28766E+04 1.34832E+03
 -1      5904-6.92150E+03-8.63198E+04-1.81444E+03-1.26775E+05-2.47713E+03 2.34055E+03
 -1      5905 3.85536E+04-1.33450E+05 2.53540E+03-8.75674E+04-5.12360E+02 1.95443E+03
 -1      5906 4.69686E+04-1.35100E+05-6.78111E+03-1.21062E+05 5.63946E+00 5.07903E+03
 -1      5907-2.37728E+04 5.84167E+04-1.25417E+02-1.26763E+05-8.10892E+03 2.05859E+04
 -1      5908-1.28163E+04 5.67549E+04-1.34575E+03-1.51555E+05-4.81928E+03 4.71682E+03
 -1      5909-9.65826E+03-2.32141E+04-5.52956E+03-1.46282E+05 1.38475E+03 1.65972E+04
 -1      5910-2.07828E+04 1.42665E+05-5.18483E+03-1.41337E+05-7.43109E+03 5.16339E+03
 -1      5911-1.03567E+04 3.83730E+04-9.35476E+02-1.53335E+05-3.89640E+02 2.43061E+02
 -1      5912 8.44882E+03-3.72510E+04-9.51023E+02-1.39863E+05-1.09821E+03-8.39699E+02
 -1      5913 7.66557E+03-8.43958E+04-2.54769E+03-1.42763E+05 1.45257E+03 1.51748E+02
 -1      5914-1.77051E+03-1.78389E+03 1.66651E+03-1.57009E+05 1.97174E+02 7.19772E+01
 -1      5915 1.10965E+04-1.34274E+05-3.85811E+00-1.33252E+05 5.13070E+03 1.72626E+03
 -1      5916 3.32998E+03-1.16585E+05-6.07574E+03-1.27096E+05 1.36083E+04 7.23168E+03
 -1      5917 2.01809E+04-2.04431E+05-3.40554E+03-9.81439E+04 1.96693E+04 7.42687E+03
 -1      5918 6.98417E+03-2.19906E+05 9.58082E+02 9.50510E+04-9.95778E+00-3.31370E+03
 -1      5919 2.78887E+04-2.65494E+05 2.49020E+02 1.03707E+05 2.50838E+03-2.82387E+03
 -1      5920 4.69078E+04-2.69210E+05 4.86672E+02 8.30628E+04 2.69574E+02-1.19262E+03
 -1      5921 5.39416E+04-2.47269E+05-4.70030E+02 5.91013E+04-7.67598E+02-3.98606E+02
 -1      5922 7.11997E+04-2.93269E+05 1.50766E+03 6.83410E+04-4.13327E+02 3.33434E+02
 -1      5923 1.07598E+05-3.12299E+05-2.61557E+03 4.81521E+04-9.26272E+02-8.44114E+01
 -1      5924 8.71839E+04-3.12729E+05-2.33111E+02 6.71672E+04-1.26892E+03-2.69942E+02
 -1      5925 8.90222E+04-3.21332E+05-4.34517E+02 6.43581E+04-6.54898E+02-1.12255E+02
 -1      5926 6.96697E+04-3.39058E+05-1.79441E+03 7.93866E+04 4.36903E+03 1.45580E+03
 -1      5927 2.87387E+04-3.16502E+05-1.25300E+03 1.20445E+05 1.06331E+04-7.24684E+03
 -1      5928 3.39666E+04-3.49795E+05-1.90368E+03 1.04998E+05 1.21397E+04-3.18124E+03
 -1      5929 3.41926E+04 3.27567E+03-3.44850E+03-1.12612E+05 2.64356E+03-2.49836E+03
 -1      5930 1.90213E+04 3.01881E+04 7.37341E+02-1.21905E+05 6.60165E+02-2.12397E+03
 -1      5931 1.54682E+04 6.38239E+04 1.81730E+03-1.18230E+05-6.52239E+02-6.12560E+02
 -1      5932 9.57247E+03 3.96915E+04-2.19943E+02-1.31080E+05-8.45188E+02-1.78019E+03
 -1      5933 6.45799E+03 1.22122E+04-1.55740E+03-1.38556E+05-7.39734E+02 6.62188E+02
 -1      5934 2.32720E+04-4.72484E+04 4.83008E+02-1.23334E+05 1.66759E+03 6.03082E+01
 -1      5935 2.53540E+04-4.06258E+04-7.84061E+02-1.09174E+05-3.25230E+02-4.60177E+01
 -1      5936 4.12047E+04-2.55020E+04-1.31031E+03-8.95244E+04 2.47650E+03-2.16311E+03
 -1      5937-5.55674E+04 2.00694E+05 1.18031E+03-7.03191E+02 8.83956E+02 2.52400E+02
 -1      5938-6.16389E+04 2.01369E+05 5.85363E+02 1.99494E+04-2.84302E+02 6.77330E+02
 -1      5939-7.52274E+04 2.12725E+05-1.00933E+03 2.21527E+04-2.85480E+02-8.61067E+01
 -1      5940-1.13867E+05 2.21427E+05-5.98571E+03 2.33072E+04-5.26216E+03-5.28031E+02
 -1      5941-1.22427E+05 2.29105E+05-8.98571E+02-3.01694E+04 9.05870E+01 2.45174E+03
 -1      5942-6.16214E+04 1.85213E+05 3.18367E+02-6.48490E+04 7.81156E+02 1.34108E+03
 -1      5943-9.54847E+04 2.01179E+05 6.87359E+02-4.65160E+04 1.32956E+03 1.75889E+03
 -1      5944-6.26679E+04 1.94427E+05-5.39547E+02-2.91790E+04 2.16867E+02 4.12313E+02
 -1      5945 1.36824E+05-3.01700E+05 3.09806E+03 3.20605E+04-1.38804E+03-6.89308E+02
 -1      5946 1.30428E+05-2.37007E+05-2.44293E+03 3.98392E+04 4.10473E+03-7.21336E+02
 -1      5947 1.20403E+05-3.30883E+05 4.12318E+02 1.72209E+04-1.00648E+03 9.86862E+02
 -1      5948 1.27486E+05-3.10696E+05-1.77611E+03 3.04363E+04-1.37036E+03 1.99500E+02
 -1      5949 1.21953E+05-2.92035E+05 3.21162E+02 4.33282E+04-7.02566E+02 9.55287E+02
 -1      5950 1.22208E+05-3.05134E+05-1.69272E+03 4.10074E+04-9.95329E+02-1.13947E+02
 -1      5951 1.22061E+05-2.53953E+05-4.86443E+02 3.44338E+04 4.54756E+02 6.82697E+02
 -1      5952 1.20044E+05-1.91919E+05-6.75211E+02 3.34422E+04 1.95181E+03-4.10220E+02
 -1      5953-2.64425E+04 2.87461E+05 1.32946E+04-4.68865E+04-3.42878E+04 3.40645E+03
 -1      5954-3.00933E+04 3.41766E+05 9.41791E+03 4.73324E+03-3.19328E+04 2.59384E+03
 -1      5955-3.58889E+04 3.22896E+05-1.49563E+03-2.01924E+04-2.03027E+04 3.71338E+03
 -1      5956-4.99731E+03 3.39204E+05-1.52333E+03 6.81135E+04-5.32084E+04-4.64660E+03
 -1      5957-4.14061E+04 3.30293E+05-5.29054E+03 1.59608E+04-1.09719E+04 2.75719E+03
 -1      5958-3.08732E+04 3.70092E+05 4.28629E+03 6.12226E+04-2.23551E+04 1.77609E+03
 -1      5959 2.05876E+02 3.47714E+05 3.46231E+03 1.21935E+05-3.46243E+04-1.35820E+04
 -1      5960-7.30952E+03 3.42380E+05-4.95327E+03 9.23082E+04-4.39078E+04-7.95384E+03
 -1      5961-3.28982E+04 2.36368E+05 6.94805E+02 1.97633E+03-1.15999E+03 3.01888E+02
 -1      5962-1.39110E+04 1.59370E+05 4.86224E+02-3.13029E+04-2.90904E+02 1.60762E+02
 -1      5963-4.57492E+04 2.22192E+05-4.31629E+02 3.52981E+04 7.92214E+02-1.69109E+02
 -1      5964-6.50452E+03 1.16074E+05 2.26393E+02-1.19224E+04-1.96313E+03-2.80877E+02
 -1      5965-3.24818E+04 1.80093E+05 2.93804E+02 4.89936E+04-2.31104E+02 3.64793E+03
 -1      5966-5.51079E+04 2.35602E+05 1.84342E+03 6.94682E+04 8.97892E+02 5.10989E+03
 -1      5967 6.14666E+03 9.77494E+04 8.92521E+02-5.38917E+04-2.23180E+03-1.44305E+03
 -1      5968-9.25696E+04-2.25920E+04 1.95777E+03-1.06794E+05-8.45737E+02-9.74668E+02
 -1      5969-7.46630E+04-1.10812E+04 6.13876E+02-1.17333E+05-1.85179E+03 2.00689E+02
 -1      5970-7.71513E+04-5.44459E+04-5.82298E+02-1.10742E+05-8.82638E+02-8.90374E+01
 -1      5971-2.91907E+04-4.22692E+04 5.93997E+02-1.36832E+05-2.00472E+03 1.93198E+03
 -1      5972-3.91832E+04-7.97078E+04-2.66265E+03-1.08976E+05-1.82315E+03-1.11589E+02
 -1      5973 1.72447E+04-1.53601E+05 3.42136E+02 2.03539E+04-2.76472E+02-1.17879E+02
 -1      5974 1.27612E+04-1.31785E+05-5.69680E+01 1.19447E+04-5.72267E+02-1.33458E+02
 -1      5975 2.93672E+04-1.81442E+05 8.33617E+02 2.88707E+04-3.66095E+01 1.76002E+02
 -1      5976 3.13032E+04-1.86034E+05 1.75551E+02 1.18545E+04-5.30190E+02-4.03606E+02
 -1      5977 2.28311E+04-1.88186E+05 2.98108E+02-6.59857E+03-3.71736E+02-7.64124E+02
 -1      5978 1.16713E+04-1.52891E+05-8.75816E+01 6.06739E+02 7.16445E+01-4.17466E+02
 -1      5979 1.12138E+04-1.31198E+05-3.72990E+02 6.43757E+03 1.74673E+02 4.99728E+01
 -1      5980 8.36342E+03-1.26940E+05 4.39916E+02 2.59443E+03 1.44591E+02-4.82595E+01
 -1      5981 6.27866E+04-3.24232E+04 1.42830E+03-5.76712E+04 3.41275E+03-1.00115E+03
 -1      5982 8.71869E+04-5.02895E+04-2.08235E+03-2.36520E+04 2.61799E+03-1.30101E+03
 -1      5983 1.00631E+05-1.22301E+05 8.07609E+02 1.23530E+04 2.04468E+03 5.52396E+02
 -1      5984 2.46955E+04-2.53119E+05 8.79197E+02-3.72815E+04-4.00645E+03-2.45485E+03
 -1      5985-2.17134E+03-2.43154E+05 4.60756E+03-3.51784E+04-1.32010E+03-7.68504E+03
 -1      5986 5.34732E+04-2.94778E+05 1.87545E+02-4.57221E+04-1.86309E+03-3.64819E+03
 -1      5987-2.25520E+04-3.07203E+05 9.43052E+03-5.10773E+04-2.87294E+03-1.64519E+04
 -1      5988 6.29102E+04-3.27478E+05 3.70513E+03-5.37387E+04-1.08901E+04-2.97376E+03
 -1      5989-3.03656E+04-2.38473E+05 1.39439E+04-2.84750E+04 9.98516E+02-1.50669E+04
 -1      5990 8.46073E+04-3.47389E+05-3.22334E+03-2.78233E+04-6.05462E+03 2.63379E+02
 -1      5991 7.19136E+03-3.43317E+05-1.00262E+03 1.18408E+05 2.46536E+04-2.95116E+03
 -1      5992 5.11944E+04-3.62283E+05-1.89507E+01 7.24167E+04 1.47645E+04 3.00411E+03
 -1      5993-2.23782E+04-3.31598E+05 6.65484E+03 1.25942E+05 4.52033E+04-7.58987E+03
 -1      5994 2.23850E+04-3.49509E+05-3.89923E+03 2.81535E+04 3.14261E+04-1.86703E+03
 -1      5995 3.68470E+04-3.61667E+05 2.38570E+02 4.04180E+04 2.16937E+04 7.43008E+02
 -1      5996 4.02174E+03-3.64613E+05-7.93154E+03 7.82030E+04 3.49397E+04-3.46826E+03
 -1      5997-8.19314E+04 2.52232E+05-8.28856E+02 7.28601E+04 2.71595E+03 6.55624E+03
 -1      5998-9.88368E+04 3.23010E+05 8.60107E+02 6.51389E+04 6.07466E+03-2.55233E+03
 -1      5999-6.73721E+04 2.76401E+05 2.85300E+03 3.83955E+04 2.93965E+03-1.67995E+03
 -1      6000-9.04030E+04 2.94509E+05 2.70597E+03 2.39500E+04 3.31860E+03-1.31653E+04
 -1      6001-4.25176E+04 2.50239E+05-4.77453E+02 3.71412E+04-5.84553E+03-1.52533E+04
 -1      6002-1.15999E+04 2.57408E+05-1.28834E+03 1.10068E+05-1.11124E+03-1.35790E+03
 -1      6003-2.25287E+04 2.47573E+05 5.58424E+02 8.78266E+04 7.44720E+02-6.90382E+01
 -1      6004-8.94883E+03 2.19547E+05-3.43051E+02 9.17206E+04 1.49463E+02-4.25197E+02
 -1      6005 9.78003E+03 1.96971E+05 6.91994E+02 9.69996E+04 3.02529E+02-6.97854E+01
 -1      6006 1.76772E+04 2.19715E+05 8.61600E+00 1.18011E+05-3.06627E+02-7.99770E+02
 -1      6007 9.27535E+03 2.43509E+05-1.02622E+03 1.24918E+05-1.91353E+03-7.91361E+02
 -1      6008 2.48563E+03 1.87040E+05-1.45797E+02 8.43212E+04 4.69561E+02-6.66962E+02
 -1      6009-2.54866E+04 1.46377E+05 1.09606E+02-9.73749E+04 1.09737E+03 1.78525E+03
 -1      6010-4.51515E+03 1.46268E+05-2.06973E+03-9.28230E+04 1.75299E+03-1.49321E+03
 -1      6011-9.24865E+03 1.62664E+05 2.31196E+02-8.28983E+04 9.95640E+02-6.43607E+02
 -1      6012-3.18116E+04 1.75786E+05 3.32239E+02-6.53420E+04 1.17222E+03 2.09147E-01
 -1      6013-6.09680E+04 1.69495E+05-1.20041E+03-8.39018E+04 6.37559E+02 1.43762E+03
 -1      6014-3.50164E+04 2.09848E+05-9.59722E+02-1.02906E+05-1.55855E+04 1.01046E+04
 -1      6015-3.71117E+04 2.09914E+05 1.43009E+03-7.82611E+04-3.98976E+04 4.94951E+03
 -1      6016-3.68104E+04 1.22406E+05-5.45212E+03-9.68508E+04-3.08585E+04 1.39816E+04
 -1      6017 1.98092E+04-1.81894E+05 5.03086E+01 5.22416E+04-3.24375E+02-4.42388E+02
 -1      6018 4.00999E+04-2.18172E+05 3.46640E+02 4.38711E+04-3.18327E+02 4.39996E+01
 -1      6019 6.35838E+03-1.82276E+05 3.93863E+02 7.26320E+04-6.29246E+02-5.12062E+02
 -1      6020 2.53963E+04-2.56594E+05-3.93386E+03-6.35701E+04 2.44885E+04 4.62363E+03
 -1      6021 1.55379E+04-2.24346E+05 1.38479E+03-5.37362E+04 3.05828E+04 1.09015E+04
 -1      6022 2.05647E+04-2.56522E+05 1.40028E+04-1.75240E+04 5.63775E+04 1.13467E+04
 -1      6023 7.32848E+03-3.19546E+05-8.01540E+03 1.16609E+04 4.30021E+04-2.42687E+03
 -1      6024 3.13905E+04-3.14113E+05-2.62710E+03-2.64018E+04 2.34152E+04 4.57528E+03
 -1      6025 1.59352E+04-1.29607E+05-3.43804E+02-2.00427E+03-6.58618E+02-3.33104E+02
 -1      6026 1.71863E+04-1.22603E+05-7.61667E+01-8.62975E+03-6.68522E+02 1.37710E+02
 -1      6027 2.16215E+04-1.28068E+05 4.37113E+02-2.08098E+04-1.88089E+02-1.23446E+02
 -1      6028 1.11034E+04 8.93550E+04 2.58026E+03-9.12995E+04-6.24655E+02-1.67218E+03
 -1      6029-3.24638E+03 3.15815E+05 4.00384E+02 1.27418E+05-1.32250E+04-5.69624E+03
 -1      6030 1.53214E+04 2.83203E+05 1.61538E+03 1.40346E+05-6.63548E+03-7.43298E+03
 -1      6031 1.51153E+04-2.37997E+05-1.65272E+04 3.19714E+03 1.08061E+04 3.35048E+02
 -1      6032 1.08268E+05-3.18626E+05 1.60208E+03-6.26576E+03-3.18674E+03 6.16777E+02
 -1      6033-4.66300E+03 1.41569E+05 3.93641E+04-1.58087E+05 3.79339E+01-2.40673E+03
 -1      6034-1.66476E+05 3.02036E+03-4.72793E+04-6.33395E+04-2.69707E+02 4.56012E+02
 -1      6035-9.63469E+04 5.07383E+04-1.42388E+04-9.29359E+04 6.89564E+02-2.24045E+03
 -1      6036-1.41365E+05 1.89376E+04-3.26301E+04-7.14330E+04-2.24693E+03 8.02071E+03
 -1      6037-7.40642E+04 7.47156E+04-1.33505E+03-1.09615E+05-4.57829E+02 1.63157E+02
 -1      6038-1.39409E+05 1.94951E+04-3.21192E+04-7.19279E+04 2.67818E+03-9.22621E+03
 -1      6039-5.78781E+04 8.60802E+04 6.32829E+03-1.18203E+05 6.76717E+02 5.85745E+02
 -1      6040 5.26576E+04 1.98173E+05 6.81617E+04-1.97121E+05-5.99046E+03 1.68624E+04
 -1      6041 5.27389E+04 1.80842E+05 6.19308E+04-2.28779E+05 3.00484E+03-1.15446E+04
 -1      6042-1.81282E+05-7.02365E+03-5.31425E+04-5.81733E+04-5.01864E+03 1.65072E+04
 -1      6043-1.81666E+05-8.24526E+03-5.40781E+04-5.85269E+04 5.73715E+03-1.66564E+04
 -1      6044-1.90129E+05-1.31139E+04-5.98846E+04-5.76824E+04-1.88542E+02-1.25935E+03
 -1      6045 1.34044E+05 2.58752E+05 1.17839E+05-2.32906E+05-2.30157E+03 7.52745E+03
 -1      6046-2.13268E+05-2.27512E+04-6.32953E+04-5.33445E+04-5.55793E+03 2.77755E+04
 -1      6047-2.05635E+05-1.99656E+04-6.76927E+04-5.68760E+04-3.07256E+03 1.00780E+04
 -1      6048-1.97508E+05-1.78430E+04-6.42018E+04-5.33551E+04-1.02029E+04 3.10088E+04
 -1      6049-2.05378E+05-1.81376E+04-6.70616E+04-5.88217E+04 3.46473E+03-1.13618E+04
 -1      6050-2.12645E+05-2.19090E+04-6.52658E+04-5.39847E+04 6.14530E+03-2.78903E+04
 -1      6051-1.99684E+05-1.94697E+04-6.53698E+04-5.25486E+04 1.02801E+04-3.14335E+04
 -1      6052 9.67675E+03 1.67873E+05 4.84860E+04-1.72908E+05-4.51274E+03 2.65224E+04
 -1      6053 2.10419E+05 3.46895E+05 1.67194E+05-3.00465E+05-1.02701E+04 3.35883E+04
 -1      6054 2.07613E+05 3.19175E+05 1.53665E+05-2.77108E+05 3.39823E+03 9.80159E+03
 -1      6055 1.91375E+05 3.65904E+05 1.67184E+05-3.28656E+05 9.20274E+03-3.00976E+04
 -1      6056 2.37597E+03 1.62749E+05 4.61301E+04-1.86719E+05 1.34836E+03-1.94545E+04
 -1      6057 2.89770E+05 4.02541E+05 1.93976E+05-3.52804E+05-2.48386E+04-1.56740E+03
 -1      6058-2.12472E+05-2.10625E+04-7.01299E+04-5.71059E+04-6.45046E+02 3.38256E+03
 -1      6059-2.11532E+05-2.06913E+04-6.96681E+04-5.83513E+04 1.08186E+03-3.54194E+03
 -1      6060-1.86809E+05-1.26978E+04-5.92083E+04-5.78565E+04 3.21111E+03-8.52661E+03
 -1      6061-1.86458E+05-1.21290E+04-5.95831E+04-5.81456E+04-2.19712E+03 7.18627E+03
 -1      6062-1.71949E+05-4.47175E+03-5.29264E+04-6.10393E+04 8.07921E+03-2.64232E+04
 -1      6063-1.52578E+05 1.06129E+04-4.18852E+04-6.64218E+04 7.37863E+03-1.91246E+04
 -1      6064-1.60802E+05 3.49495E+03-4.44659E+04-6.43503E+04 3.91512E+03-1.35876E+04
 -1      6065-1.17199E+05 3.27142E+04-2.53455E+04-8.08997E+04 3.29302E+03-1.07699E+04
 -1      6066-7.43995E+04 7.00136E+04-2.50117E+03-1.05187E+05 1.41828E+03-1.13887E+03
 -1      6067-2.56425E+04 1.16972E+05 2.73989E+04-1.38366E+05-3.03694E+03 9.93232E+03
 -1      6068-1.19391E+05 3.30741E+04-2.47881E+04-8.12367E+04 1.10347E+03-5.28377E+03
 -1      6069-9.03369E+04 5.39493E+04-1.09163E+04-9.39301E+04 1.68489E+03-5.51048E+03
 -1      6070-6.95152E+04 7.12754E+04-1.49235E+03-1.06079E+05-6.22104E+01-1.45865E+03
 -1      6071-7.87425E+02 1.41217E+05 3.91935E+04-1.56795E+05-2.39690E+03 6.37999E+03
 -1      6072-1.50930E+05 1.14176E+04-4.09125E+04-6.72342E+04-7.20317E+03 1.81179E+04
 -1      6073-1.71061E+05-3.81761E+03-5.24638E+04-6.14176E+04-7.81002E+03 2.55428E+04
 -1      6074-1.61348E+05 3.28931E+03-4.48007E+04-6.43154E+04-3.61687E+03 1.30319E+04
 -1      6075-8.66393E+04 6.43688E+04-7.14486E+03-1.02304E+05-1.74094E+03 2.45469E+03
 -1      6076-1.07850E+05 4.16528E+04-1.98594E+04-8.71360E+04-3.26835E+03 1.06892E+04
 -1      6077-1.02364E+05 4.67780E+04-1.66327E+04-9.06976E+04-8.57966E+02 4.25995E+03
 -1      6078-4.20447E+04 1.09764E+05 2.03159E+04-1.36737E+05 1.97189E+03-6.44904E+03
 -1      6079-1.10319E+04 1.35361E+05 3.72988E+04-1.52968E+05 1.86547E+03-6.10101E+03
 -1      6080 2.18255E+05 3.28986E+05 1.64172E+05-2.77780E+05-2.56092E+03 8.37563E+03
 -1      6081 2.45355E+05 3.54076E+05 1.79829E+05-2.94955E+05-2.18862E+03 7.15825E+03
 -1      6082 1.01401E+05 2.33059E+05 1.00338E+05-2.17195E+05-2.59500E+03 8.48692E+03
 -1      6083 1.16569E+05 2.49915E+05 1.09946E+05-2.29899E+05-9.53909E+02 3.12006E+03
 -1      6084-4.33205E+04 1.06663E+05 1.90028E+04-1.33819E+05 1.19576E+02-3.91054E+02
 -1      6085-6.70642E+04 8.24395E+04 4.69158E+03-1.12938E+05 4.46180E+02-3.02650E+02
 -1      6086-4.99267E+04 9.72800E+04 1.30456E+04-1.29496E+05-1.31633E+03-9.22611E+02
 -1      6087 3.74634E+04 1.76483E+05 6.13803E+04-1.87500E+05 4.49844E+03-4.91655E+03
 -1      6088 3.06082E+04 1.73744E+05 6.13057E+04-1.79172E+05-1.00750E+03 3.29501E+03
 -1      6089 6.32505E+04 1.99436E+05 7.88061E+04-1.94883E+05-7.14105E+02 2.33554E+03
 -1      6090-1.57168E+05 9.04945E+03-4.28469E+04-6.62641E+04-3.22377E+03 4.54354E+03
 -1      6091-1.47360E+05 1.25124E+04-4.04544E+04-7.02703E+04 5.73033E+01-1.87407E+02
 -1      6092-1.55285E+05 9.56894E+03-4.14897E+04-6.69463E+04 2.91201E+03-4.50258E+03
 -1      6093-1.74534E+05-5.39311E+03-5.38411E+04-6.14661E+04-2.16960E+03 6.91975E+03
 -1      6094-1.76024E+05-6.65929E+03-5.48052E+04-6.01988E+04 2.19088E+03-7.16533E+03
 -1      6095-1.76351E+05-6.14439E+03-5.34908E+04-6.03691E+04-2.88858E+02 3.35973E+01
 -1      6096-1.23978E+05 3.04575E+04-2.80562E+04-8.10201E+04-4.99289E+02 1.63297E+03
 -1      6097-7.76960E+04 6.63133E+04-3.41487E+03-1.02667E+05-6.29888E+01 2.06030E+02
 -1      6098-1.05772E+01 2.09759E+01-4.17595E+00 2.67958E+01 9.03534E+00 2.41900E+00
 -1      6099-1.49361E+01 2.70836E+01 4.15458E-01-3.20275E+01 6.64999E+00-2.80711E+00
 -1      6100 7.34691E+00-2.22306E+00-1.33986E+00-1.71900E+01-1.98486E+00 1.33733E+00
 -1      6101 7.08958E+00-1.26543E+00-1.55681E+00 1.63368E+01-2.04296E+00-5.76717E-01
 -1      6102-7.72362E+00 1.97124E+01 4.72323E-02 3.08598E+00-6.12861E-01 1.07203E+00
 -1      6103 1.44134E+01 2.50863E+00-1.62858E+00-3.34734E+01 1.21505E+00-2.31444E+00
 -1      6104-5.98924E+00 2.68749E+01 1.18390E+00-7.86177E+00-5.99557E+00-3.29836E+00
 -1      6105 2.13449E+01 6.43340E+00 2.47127E+00 3.61997E+01 5.75163E+00-1.64342E-01
 -1      6106 2.38639E+01-1.63065E+01-3.78419E-01 8.21090E+00 2.11068E+00 7.57058E-01
 -1      6107 2.01978E+01-1.79714E+01-4.18552E-01-6.55883E+00 1.64252E+00 4.81090E-01
 -1      6108 1.76377E+01-5.16327E+01 3.35534E-01-2.41318E+01 2.97619E+00 1.41484E+00
 -1      6109 2.04962E+01-8.56824E+01-6.48115E+00 2.22279E+01-4.42480E+00 2.59549E+00
 -1      6110 1.97173E+01-2.34534E+01 3.39985E+00 5.15773E+01-2.26481E+01 3.47989E+00
 -1      6111 4.75421E+01-2.92741E+01 3.23522E+00-4.48722E+01-1.99349E+00-6.34534E+00
 -1      6112 2.28153E+01-1.19404E+01 9.95483E-01 5.82303E+00-2.04568E-01 1.77134E+00
 -1      6113 1.96476E+01-1.14460E+01 1.41312E+00-1.12135E+00-1.56890E-01-1.30523E+00
 -1      6114 2.93765E+01-8.58017E+01-1.68486E-01 4.37975E+01-1.17090E+01 7.60203E+00
 -1      6115 2.19224E+01-6.50552E+01-1.87312E+00-4.06085E+01-1.06044E+01-1.09047E+01
 -1      6116 2.12915E+01-8.42956E+00-1.51059E+00-5.87746E+00-2.19548E-01-1.12251E-01
 -1      6117 2.38403E+01-1.26677E+01-1.81529E+00 4.11299E+00-4.21813E-01 3.88080E-01
 -1      6118-3.47109E+01-1.09606E+02-1.20852E+01 3.20786E+01-5.84216E+00-5.73300E+00
 -1      6119-7.83765E+00 1.58617E+02 9.32261E+00-6.77178E+00-3.42274E+00-4.88800E+00
 -1      6120-1.75837E+01 5.98845E+01 1.37176E+01 2.52810E+01 1.43662E+00-9.03395E+00
 -1      6121-7.53575E+00-1.04663E+02-6.11425E+00 1.09349E+01 1.41408E+01-6.41032E-01
 -1      6122 3.85609E+00 1.36076E+02 6.76066E+00 3.48822E+01-1.04732E+00-3.24710E+00
 -1      6123 3.21054E+01 4.84557E+01 1.78486E+00 3.84628E+01-1.33111E-01 5.01975E+00
 -1      6124 1.46076E+01 1.19105E+02 8.61641E-01-3.01510E+01-5.20778E+00 3.04804E+00
 -1      6125 4.80821E+01 1.06305E+01 3.72748E+00-2.83254E+01 3.57203E+00-5.29499E+00
 -1      6126 1.83958E+01-1.48295E-01-1.93954E+00-1.27505E+01 2.75857E+00 6.78921E-01
 -1      6127 3.37659E+01-2.12242E+00 1.84327E+00-1.32942E+01 6.25239E-01-1.90450E+00
 -1      6128 2.46484E+01 8.12731E+00-2.76212E+00-1.65220E+01 4.04199E-01-1.10604E+00
 -1      6129 2.14693E+01-1.20213E+01-1.36419E+00-7.78578E+00-3.21855E-01-1.83663E-01
 -1      6130-1.28092E+01 1.07225E+01 2.21794E+00 5.83718E+00-5.62278E+00 1.30477E+00
 -1      6131 3.08123E+00-4.77383E+00-4.00483E+00-8.74963E-01 2.44048E+00 1.57699E+00
 -1      6132 1.54842E+01-1.63761E+01 5.34271E-02 1.81406E+01-6.06042E+00-1.39808E+00
 -1      6133-1.04469E+01-3.56238E+01 3.78986E-01 2.42256E+01 7.62601E-02-2.45112E+00
 -1      6134 7.16517E+00-2.41754E+01 5.64698E-01-5.79413E+00-5.24176E-01 4.86101E-01
 -1      6135 8.24074E+00-1.71440E+01-1.62623E+00-1.73266E+01 1.42717E+00-1.59431E-01
 -1      6136 1.00003E+01 2.94951E+00 1.19886E-01-1.66416E+01-3.50286E+00 8.17458E-01
 -1      6137 1.84611E+01-6.76563E+00-1.81252E+00-1.68586E+01 7.73557E-01-1.73762E-01
 -1      6138 1.36243E+01-1.65010E+01 1.47809E-01-6.89697E+00 5.17589E-01 1.52231E+00
 -1      6139 2.78708E+01-3.66992E+00 2.61813E+00-1.09874E+01 2.44374E+00-1.88237E+00
 -1      6140 1.95778E+01-9.51616E+00 1.78598E-01-2.83647E+00 3.03113E-02-7.18633E-01
 -1      6141-3.51668E+00-6.96436E+01-1.18915E+01-2.55183E+01 9.45793E+00 3.87066E+00
 -1      6142 8.02932E+00-2.47603E+01 5.12131E+00-8.56904E+00 2.04309E+00-5.12989E+00
 -1      6143 7.04227E+00 2.47335E+01-2.94440E+00-2.45180E+01-3.46137E+00 2.58169E+00
 -1      6144 9.25867E+00-4.47701E+00 1.47512E+00-1.50144E+01-5.85976E+00-3.39383E-01
 -1      6145 2.33845E+01 3.38431E+01-9.99743E-02-3.34699E+01-9.22490E-01-2.93636E+00
 -1      6146-7.80722E+00-5.99045E+01 1.43273E+01-3.37328E+01-1.26305E+00-2.79217E+00
 -1      6147-2.58114E+01-7.55220E+01-1.43310E+01-2.44319E+01 6.09259E-01 4.25097E+00
 -1      6148-9.79571E+00 1.31563E+02 3.89942E+00 6.88547E+00 1.63596E-02 4.06885E+00
 -1      6149-1.11220E+01 6.08788E+01-1.63314E+00-2.23559E+01 4.45492E+00 7.52858E+00
 -1      6150-5.42392E-01 1.03631E+02 2.43462E+00-3.53171E+01-2.94338E+00 2.87719E+00
 -1      6151-5.30145E+01-1.24905E+02-1.56273E+01-6.42538E+01 1.24059E+01 1.08315E+01
 -1      6152-5.78810E+00-5.48985E+01 1.76069E+00-3.61021E+01 9.50679E+00-3.37216E+00
 -1      6153 3.85724E+00 1.09520E+02 2.28693E+00 2.46243E+00-2.40963E+00-1.71607E+00
 -1      6154-4.29560E+00 2.16530E+00 2.70060E+00-1.40410E+01 5.44657E+00-1.09882E+00
 -1      6155 6.82270E+00 1.03296E+02-2.15077E+00 2.54285E+01-2.18670E+00-2.92099E+00
 -1      6156-5.06487E+01-8.11367E+01 1.47251E+01-6.93791E+01 2.57955E+00-1.39404E+01
 -1      6157-8.95137E+01-1.29496E+02-1.67804E+01-1.13041E+02 6.39754E+00-3.15271E-01
 -1      6158 1.41666E+01 1.90353E+02 6.61107E+00 4.55578E+01-1.24745E+00 1.94159E+00
 -1      6159-1.72516E+01 6.84350E+01-8.02848E+00 2.23604E+01 1.96005E+00 2.09130E+01
 -1      6160 4.51721E+01 1.51663E+02-4.99333E+00 1.32277E+02-9.62989E+00 9.55572E+00
 -1      6161-8.70546E+01-1.62621E+02-1.80260E+01-3.79177E+01-1.73924E+01 4.47856E+00
 -1      6162 2.02780E+01-4.49948E+01-2.52802E+00-3.46236E+00-1.79731E+01-1.07199E+01
 -1      6163-9.30615E-01-1.46798E+02-2.68097E+00-7.22767E+01-8.14223E+00-2.63960E-01
 -1      6164-3.04048E+01-7.26795E+01 1.13217E+01-7.19006E+01 5.97032E+00 4.77921E+00
 -1      6165 3.05729E+01-5.55522E+01 1.07421E+00-3.84580E+01-4.00068E+00-2.60707E+00
 -1      6166-1.53823E+01-6.99858E+01-6.09482E+00-1.03209E+02-8.26426E-01-4.24856E+00
 -1      6167 8.99282E+01-3.97196E+01-2.84523E+00-3.47833E+01-2.52957E+00-7.94873E+00
 -1      6168 6.32665E+01-8.44982E+01-1.74115E+01-1.76610E+01-8.18766E+00-4.23522E+00
 -1      6169 5.58230E+01-5.68562E+00 3.52930E+00 2.86238E+01 4.78473E+00 6.40460E+00
 -1      6170-4.15461E+01-3.71808E+01-1.08807E+00-6.91015E+01-6.75424E+00-9.72348E+00
 -1      6171 3.83261E+01 1.62500E+01 3.52523E+01-1.14992E+02 9.00378E+00 5.96696E+00
 -1      6172-8.97194E+01 9.42870E+01 1.85591E+01 9.80611E+00 1.66621E+01 2.05105E+00
 -1      6173 3.45853E+01-1.67744E+01-9.17752E-01 1.29344E+01-8.79730E+00 1.99610E+01
 -1      6174 1.71848E+02-3.84872E+01-3.63891E+00 4.12141E+00-1.84442E+00 1.53878E+01
 -1      6175-1.44639E+01-7.87027E+01-4.94859E+00 1.53760E+02 4.51188E+00 5.20378E+00
 -1      6176-2.54776E+01-9.68040E+01 1.01718E+01 7.86003E+01 7.44056E-01-2.39268E+00
 -1      6177 7.14191E+01-1.98061E+02 1.40457E+01 6.64572E+01-1.95249E+01-7.37713E+00
 -1      6178 1.48488E+02-1.59819E+02-1.99952E+01 5.68696E+01-4.64644E+00-2.74278E+00
 -1      6179 5.23861E+01-5.60043E+01-1.08229E+00-1.60507E+01 3.87353E+00-8.12848E+00
 -1      6180-9.94712E+01-1.25910E+02-9.85887E+00 1.19687E+02-2.32132E+01 6.23977E+00
 -1      6181-4.09232E+01-8.78015E+01 2.33327E+01 7.43503E+01 6.47150E+00 1.04744E+01
 -1      6182 3.67708E+01-7.73980E+01-2.19457E+00 3.99588E+01-9.71566E+00 2.28377E+00
 -1      6183-8.40122E+00-6.22894E+01 2.12218E+00 3.62864E+01 1.06081E+01 4.14469E+00
 -1      6184-4.90064E+01-1.43622E+02-2.15734E+01 6.50898E+01 3.22320E+00 9.67405E-01
 -1      6185-1.40519E+01 1.83117E+02 6.57385E+00-4.97204E+01 6.53647E+00-7.47019E+00
 -1      6186-4.09828E+01 6.47113E+01 1.72402E+01-2.88864E+01-6.00805E+00-1.11542E+01
 -1      6187 3.48341E+01 1.71239E+02-4.27170E+00-1.38433E+02-4.00424E+00-2.18697E+01
 -1      6188-4.82295E+01-1.44106E+02-1.42360E+01 3.55309E+01-9.58387E+00-1.75304E+01
 -1      6189 3.58230E+01-5.69607E+01 9.96725E+00 4.92221E+00-5.07576E+00 5.61089E+00
 -1      6190-1.23546E+01-6.44521E+01 1.09765E+01 3.47083E+01-6.24476E+00 4.28720E+00
 -1      6191 6.46478E+00 1.10617E+02-1.22629E+00-7.34022E+00-6.28891E-01-6.53157E-01
 -1      6192-1.16344E+00 4.21324E+00 3.02396E+00 1.27964E+01 7.47718E+00 2.90037E-01
 -1      6193 5.93203E+00-2.95478E+01 1.85153E+00 7.00931E+00 9.33681E+00 6.99524E+00
 -1      6194 6.24685E+00-2.77084E+01-4.43236E+00 1.32426E+01 3.30400E+00 3.45471E-01
 -1      6195 8.07699E+00-3.08299E+01 5.35240E-02 2.35942E+00-7.87914E-01-1.94626E-01
 -1      6196 8.44705E+00 3.53518E+01-1.42176E+00 2.63761E+01-4.01944E+00-3.19617E+00
 -1      6197 1.12453E+01-7.36994E-01 2.48276E+00 1.47478E+01-7.29157E+00 3.55836E-01
 -1      6198 2.27794E+01 3.75390E+00-7.91282E-01 1.24897E+01 1.58999E-01 8.84306E-01
 -1      6199 2.77622E+01-1.28717E+01 8.12582E-01 6.32059E+00 2.63224E+00 1.99752E+00
 -1      6200 1.20038E+01 1.75528E+01 1.08572E+00 2.06218E+01-2.35531E+00 3.27316E-02
 -1      6201 1.97819E+01-6.35806E+00-1.41961E+00 2.13200E+01 4.97153E+00-8.22020E-01
 -1      6202 2.00584E+01-9.47551E-01-1.05676E+00 1.71286E+01-7.65203E-01-7.50231E-01
 -1      6203 2.50148E+01-1.76859E+01 4.48875E+00 1.09177E+01 4.02659E+00 1.28628E+00
 -1      6204 2.30895E+01-1.19555E+01-1.12328E+00 3.77300E+00 3.52110E-01 1.00220E+00
 -1      6205 5.05250E+01 2.98001E+00-2.99206E-01 2.14087E+01 4.36610E+00 4.22519E+00
 -1      6206 1.74007E+01-5.93680E+00-2.06870E+00 1.00910E+01 2.45647E+00-6.93301E-01
 -1      6207 2.20439E+01-1.57868E+01-1.42479E+00 6.20051E+00 1.90231E-01 3.04320E-01
 -1      6208 4.14834E+00-4.98277E+00-5.20739E+00 1.43489E-01 1.89221E+00-3.60493E-01
 -1      6209-7.84043E+00 6.62137E+00 3.81250E+00-7.40823E+00-4.19703E+00 1.17856E-01
 -1      6210 1.16901E+01-2.09885E+01 9.84520E-02-2.14482E+01-3.55227E+00 5.35315E+00
 -1      6211-6.39064E+00-2.63036E+01 3.77159E+00-2.08580E+01 5.46975E-02 1.29192E+00
 -1      6212-1.56226E+00 8.33435E+00 7.92944E+00-1.92514E+01-2.30208E+00-2.72029E+00
 -1      6213-2.04298E+00-5.13040E+00-3.57721E+00-6.57495E+00 2.34999E+00 1.28235E+00
 -1      6214-4.16570E+00-5.73888E+00-5.55759E+00 4.24467E+00 1.57947E+00-1.11491E+00
 -1      6215-1.98174E+01 1.41759E+01 3.69853E+00 1.70066E+01-6.62550E+00-4.11936E+00
 -1      6216 1.19542E+01-1.11018E+01 2.04812E+00-2.27813E+00-1.83557E+00 3.47044E-01
 -1      6217 7.77426E+00-1.97613E+01-1.61055E+00 5.35553E-01 1.40207E+00 2.30529E-01
 -1      6218 1.05430E+01-1.54948E+01-4.90234E-01-2.40413E+00 4.27737E-01-1.48695E-02
 -1      6219 4.00849E+00-2.23662E+01 2.87682E-01 2.90237E+00 2.91563E+00 5.33932E-01
 -1      6220 4.13637E+00-1.60943E+01 1.09161E+00 1.02551E+01-1.93475E+00-9.57516E-01
 -1      6221 3.80439E+00-1.65038E+01-2.05899E-01 6.81996E+00 7.77902E-01-6.78712E-01
 -1      6222 9.84535E+01 6.67558E+01 1.71264E+00 8.76369E+01-3.49854E+00 3.36978E+00
 -1      6223 6.74359E+01 3.14277E+01-7.22064E-01 5.07385E+01 4.69373E+00 1.25528E+00
 -1      6224 8.90190E+01 1.71258E+01-6.27020E+00 4.68860E+01-4.26119E+00-2.19976E+00
 -1      6225 6.89851E+01 2.10484E+01-2.73353E+00-5.94557E+01-1.58256E+00-3.68429E+00
 -1      6226 1.39017E+02 7.15902E+01 4.53562E-01-9.69370E+01 7.45714E+00 6.37015E+00
 -1      6227 9.45343E+01 1.01737E+01-8.06984E+00-5.48455E+01-6.31422E+00 5.81624E+00
 -1      6228-1.10663E+01 2.10904E+01-4.03938E+00 2.68908E+01-9.15931E+00-2.58342E+00
 -1      6229-1.27259E+01 2.75193E+01-1.29490E+00-3.03614E+01-4.43855E+00 2.97125E+00
 -1      6230 7.75042E+00-2.91089E+00-1.72303E+00-1.55542E+01 1.16285E+00-1.18414E+00
 -1      6231 8.46539E+00-1.59291E+00-7.78068E-01 1.54318E+01 1.69782E+00 1.64727E+00
 -1      6232-1.30539E+01 2.38871E+01-4.02627E+00 3.44572E+00 2.79461E+00-2.94583E+00
 -1      6233 1.20345E+01 3.41670E+00-1.37304E+00-3.54106E+01-4.04908E+00-6.44892E-01
 -1      6234-7.48828E+00 2.45518E+01 2.00761E+00-9.65269E+00 6.72802E+00 3.04321E+00
 -1      6235 1.88449E+01 2.26451E+00 2.67456E+00 3.92661E+01-5.29450E+00 6.14084E-01
 -1      6236 1.99118E+01-1.83649E+01-2.32047E-01 7.56971E+00-1.02337E+00 1.01062E-01
 -1      6237 1.99370E+01-1.56121E+01-6.38227E-01-5.38047E+00-1.31116E+00-5.42758E-01
 -1      6238 1.66014E+01-5.27582E+01-1.03934E+00-2.45118E+01-1.22027E+00-3.25211E+00
 -1      6239 1.91688E+01-8.84882E+01-8.28891E+00 2.10712E+01 8.43012E-01-4.22216E+00
 -1      6240 3.86253E+01-2.70774E+01 3.23051E+00 4.03136E+01 2.90390E+00-3.94477E+00
 -1      6241 4.83739E+01-1.78937E+01-4.83973E+00-4.30285E+01 4.68807E+00 5.60121E+00
 -1      6242 2.12246E+01-1.15848E+01 1.42247E+00 7.76020E+00 2.47257E-01-1.81894E+00
 -1      6243 1.99221E+01-1.21678E+01 1.84485E+00-2.80973E+00 9.30147E-01 1.68819E+00
 -1      6244 3.61216E+01-7.51756E+01 4.16796E+00 3.96427E+01 1.20798E+01-9.87141E+00
 -1      6245 1.95459E+01-7.65127E+01 6.87560E-01-4.37821E+01 1.08970E+01 6.54376E+00
 -1      6246 2.07035E+01-8.71424E+00-1.90111E+00-5.48349E+00 2.32899E-01 1.92623E-01
 -1      6247 2.13386E+01-1.11263E+01-1.64680E+00 3.89190E+00 5.50507E-01-6.10116E-01
 -1      6248-1.37551E+01 1.52670E+02 3.20581E+00-1.14410E+01 5.79828E+00 7.25823E+00
 -1      6249-3.33150E+01-1.00968E+02-1.58816E+01 2.71875E+01 4.74338E+00 5.26895E+00
 -1      6250-2.02219E+01 4.55274E+01-9.83162E+00 2.49919E+01-2.78531E+00 8.82779E+00
 -1      6251-9.09394E+00-9.88892E+01-9.45755E+00 1.84217E+01-1.31284E+01 7.52528E-01
 -1      6252-4.80835E-01 1.28981E+02 2.06447E+00 3.79498E+01-8.02682E-01 5.87487E+00
 -1      6253 2.88907E+01 4.85806E+01-7.17712E-01 4.01485E+01 8.29892E-01-4.42853E+00
 -1      6254 1.29477E+01 1.19073E+02 1.03872E+00-3.05361E+01 5.58948E+00-3.24451E+00
 -1      6255-1.42725E+01-6.71779E+01 1.07589E+01 3.35777E+01 6.09589E+00-4.38271E+00
 -1      6256 3.65333E+00-3.12823E+01 1.79329E+00 8.44760E+00-9.35930E+00-7.42515E+00
 -1      6257-8.32355E+00-6.18826E+01 2.20978E+00 3.62679E+01-1.05972E+01-4.06259E+00
 -1      6258-5.00775E+01-1.44307E+02-2.14949E+01 6.60430E+01-2.78685E+00-1.11683E+00
 -1      6259-1.19395E+00 4.19883E+00 2.93776E+00 1.27699E+01-7.54459E+00-2.97938E-01
 -1      6260 6.21620E+00 1.10361E+02-1.14059E+00-7.10561E+00 6.04513E-01 4.13506E-01
 -1      6261 7.56276E+00-2.89482E+01-1.47790E+00 1.56383E+01-7.90368E-01 4.78074E-01
 -1      6262 8.04828E+00-3.16294E+01 1.18649E-01 3.44255E+00 8.33158E-01 1.02032E-01
 -1      6263 7.84806E+00 3.60655E+01-1.42985E+00 2.54241E+01 2.23497E+00 2.41245E+00
 -1      6264 1.05352E+01-3.12375E-01 1.83562E+00 1.46178E+01 7.65340E+00 6.44979E-01
 -1      6265 2.24440E+01 3.19022E+00-2.62141E+00 1.31342E+01 1.95537E-01-1.91172E+00
 -1      6266 3.06867E+01-1.26679E+01 2.24081E+00 5.10817E+00 5.91599E-01-2.26292E+00
 -1      6267 1.83382E+01-5.85024E+00-2.45484E+00 2.01094E+01-2.01999E+00 8.95211E-01
 -1      6268 1.24832E+01 1.86324E+01 1.36178E+00 2.06890E+01 3.28425E+00 9.86934E-01
 -1      6269 2.44483E+01-1.66879E+01 2.91590E+00 9.76930E+00-3.54218E+00-2.59545E+00
 -1      6270 1.75397E+01-1.76711E+00-1.30781E+00 1.84328E+01 1.29296E+00 1.57162E+00
 -1      6271 1.83680E+01-1.34296E+01-7.41307E-01 3.51485E+00 3.57074E-01-1.80683E+00
 -1      6272 4.72545E+01 6.26716E+00 4.79133E+00 2.66416E+01-2.41787E+00-2.50269E+00
 -1      6273 1.56136E+01-4.58865E+00-1.97399E+00 9.07781E+00-2.61611E+00 8.93598E-01
 -1      6274 2.26356E+01-1.20338E+01-1.19492E+00 6.48983E+00-9.05105E-02-6.04219E-01
 -1      6275 6.88981E+00-5.77422E+00-6.74163E+00 1.45517E+00-1.49884E+00 1.16690E-01
 -1      6276-1.14748E+01 6.77689E+00 3.72408E+00-8.86929E+00 6.05965E+00 2.30027E+00
 -1      6277 2.48435E+01-1.80137E+01 3.85987E+00-1.68792E+01 4.52499E+00 6.17061E-01
 -1      6278-6.06124E+00-3.30974E+01 1.65411E+00-2.08488E+01-1.50418E+00-2.14582E-01
 -1      6279-1.30201E+01 1.19251E+01 1.80084E+00-1.67901E+01 7.23710E+00-4.82513E+00
 -1      6280-1.91707E+00-6.46715E+00-6.77350E+00-5.37663E+00-1.57396E+00-9.81184E-02
 -1      6281-4.53778E+00-5.23626E+00-4.65888E+00 4.16214E+00-1.70122E+00 1.73635E+00
 -1      6282-9.06965E+00 1.07981E+01 5.63406E+00 1.62042E+01 4.56833E+00 9.78244E-01
 -1      6283-1.08140E+01 7.98112E+00 3.38638E+00 5.81035E+00 3.58419E+00-1.38349E+00
 -1      6284 2.20744E+00-4.88489E+00-4.77200E+00 4.85389E-01-1.79371E+00-1.73256E+00
 -1      6285 1.81075E+01-2.79788E+00-2.58438E+00-1.13596E+01-1.83719E+00-1.96392E-01
 -1      6286 5.35313E+01 9.48412E+00 6.32863E+00-2.91764E+01-2.70119E+00-9.82352E-01
 -1      6287 1.72239E+01-1.95212E+01-5.15328E+00 1.83626E+01-1.34241E+00 3.92265E+00
 -1      6288-7.57404E+00-3.36511E+01-3.70157E-02 2.71029E+01-2.25701E+00 4.60489E+00
 -1      6289 3.33532E+01-3.53441E+00 1.27232E+00-1.34162E+01-7.85858E-01 2.37361E+00
 -1      6290 2.40108E+01 7.81966E+00-1.71085E+00-1.61006E+01-9.88756E-01 8.94344E-02
 -1      6291 1.99829E+01-1.06677E+01-5.95277E-01-7.07905E+00-1.16613E-01 4.36590E-01
 -1      6292 7.29975E+00-2.50641E+01-7.31133E-01-4.57168E+00 1.29819E+00-4.06168E-01
 -1      6293 1.02027E+01-1.70609E+01-1.04409E+00-1.72495E+01-3.57337E+00 8.14065E-01
 -1      6294 1.10412E+01 2.70986E+00-6.03600E-01-1.61065E+01 1.36642E+00-6.07284E-01
 -1      6295 1.77804E+01-1.02655E+01 2.49832E-01-1.66733E+01-3.32947E+00 1.76780E+00
 -1      6296 1.32445E+01-1.43930E+01-6.30006E-01-6.63941E+00 1.24945E-01-9.46444E-01
 -1      6297 2.83702E+01-5.82914E+00 4.20689E+00-1.34209E+01-3.10543E+00 2.53135E+00
 -1      6298 1.97489E+01-1.00884E+01-4.57915E-01-3.41433E+00 5.85738E-01 6.10947E-01
 -1      6299-5.09311E+00-6.37563E+01-2.73505E+00-2.41458E+01-1.24317E+01-6.12484E+00
 -1      6300 1.00305E+01-2.03424E+01 6.81532E+00-7.96954E+00-3.68848E+00 5.26351E+00
 -1      6301 7.93040E+00-5.15799E+00 8.22222E-01-1.42459E+01 6.36527E+00 7.67265E-01
 -1      6302 6.50130E+00 2.58272E+01-2.19740E+00-2.36289E+01 2.59921E+00-1.35878E+00
 -1      6303 2.06727E+01 3.75172E+01-1.81406E+00-3.61428E+01 7.84278E-01 1.47157E+00
 -1      6304-8.68254E+00-5.76664E+01 1.23076E+01-3.33576E+01 7.72128E-01 3.06433E+00
 -1      6305-3.05109E+01-7.22701E+01-1.49226E+01-2.48472E+01 1.19825E+00-8.06280E+00
 -1      6306-1.21399E+01 1.30893E+02 1.37838E+00 5.58097E+00 3.03251E+00-4.29269E+00
 -1      6307-1.07787E+01 5.20442E+01-8.83335E-01-2.54757E+01-4.56099E+00-8.91845E+00
 -1      6308 1.97764E+00 1.06500E+02 3.06419E-01-3.20469E+01 8.35313E-01-1.93698E+00
 -1      6309-5.47526E+01-1.23083E+02-2.55502E+01-7.03269E+01-8.88104E+00-7.68532E+00
 -1      6310-5.50419E+00-5.81745E+01 2.09937E+00-3.64620E+01-8.30676E+00 1.86454E+00
 -1      6311 3.07051E+00 1.09212E+02 1.30142E+00 4.55379E+00 2.68125E+00 2.02239E+00
 -1      6312-3.05241E+00 6.08765E-01 1.72623E+00-1.32161E+01-7.18740E+00 1.40701E+00
 -1      6313 5.33792E+00 1.06544E+02-1.38404E+00 2.46515E+01 3.88656E+00 1.60590E+00
 -1      6314-4.82182E+01-8.13557E+01 1.95016E+01-6.97175E+01-7.66577E+00 9.98168E+00
 -1      6315-1.03369E+02-1.14380E+02-1.08559E+01-1.15728E+02 1.90811E+01 5.23367E+00
 -1      6316-1.80126E+01 9.70554E+01-1.16103E-02 3.32610E+01 3.11923E+00-1.47676E+01
 -1      6317 6.15391E+00 1.83157E+02 5.44846E+00 4.46412E+01 6.10425E+00-2.24853E+00
 -1      6318-6.29648E+01-1.37040E+02-1.93355E+01-3.71114E+01 5.01182E+00-1.66697E+01
 -1      6319 5.69822E+01 1.69557E+02-3.21859E-01 1.27758E+02 3.96453E+00-1.41659E+01
 -1      6320 2.75031E+01-4.99032E+01 1.08161E+01-7.29339E+00 5.41949E+00 5.74911E+00
 -1      6321-2.01583E+00-1.47466E+02-1.97173E+00-7.22324E+01 8.94059E+00-1.86552E+00
 -1      6322-2.52312E+01-7.25412E+01 8.81386E+00-6.80593E+01-4.96618E+00-3.92796E+00
 -1      6323 2.81388E+01-5.98411E+01 2.35861E-01-3.54847E+01 4.98173E+00 2.80200E-01
 -1      6324 9.16377E+01-3.96915E+01-3.03490E+00-3.46478E+01 2.38987E+00 8.03314E+00
 -1      6325-1.47530E+01-7.02740E+01-6.48929E+00-1.03252E+02 7.98803E-01 4.16778E+00
 -1      6326 6.32961E+01-8.47701E+01-1.75444E+01-1.81381E+01 8.02505E+00 4.22486E+00
 -1      6327 5.20514E+01-6.25275E+00 1.44989E+00 2.90556E+01-4.53656E+00-7.08717E+00
 -1      6328 3.75853E+01 1.87226E+01 3.82161E+01-1.15950E+02-7.38562E+00-5.37919E+00
 -1      6329-3.91693E+01-3.72405E+01-1.62419E+00-6.84123E+01 6.53437E+00 9.56940E+00
 -1      6330 4.03994E+01-1.71146E+01-1.44571E+00 1.18707E+01 7.66523E+00-1.94930E+01
 -1      6331-9.35708E+01 9.49455E+01 1.55709E+01 4.79430E+00-1.55687E+01-5.34575E+00
 -1      6332-1.50509E+01-8.10760E+01-5.27182E+00 1.56518E+02-4.55684E+00-5.02780E+00
 -1      6333 1.73715E+02-4.04542E+01-3.36037E+00 6.03140E+00 1.64876E+00-1.48683E+01
 -1      6334-3.40199E+01-9.64388E+01 1.22316E+01 8.43989E+01-4.28023E+00 4.18587E+00
 -1      6335 7.05966E+01-2.00748E+02 1.30142E+01 6.87265E+01 1.78839E+01 4.64787E+00
 -1      6336 1.46182E+02-1.61852E+02-1.94698E+01 5.83447E+01 5.14074E+00 2.35645E+00
 -1      6337 5.43222E+01-5.60257E+01 1.62870E-01-1.59233E+01-4.90890E+00 7.16621E+00
 -1      6338-1.01811E+02-1.29541E+02-1.09678E+01 1.14285E+02 2.35468E+01-8.66665E+00
 -1      6339-3.98317E+01-8.27781E+01 2.64406E+01 7.54965E+01-1.98268E+00-1.11778E+01
 -1      6340 3.70801E+01-7.82335E+01-9.54225E-01 4.09200E+01 8.35486E+00-3.20271E+00
 -1      6341-1.41631E+01 1.83899E+02 6.65973E+00-4.94785E+01-6.76821E+00 7.26399E+00
 -1      6342-4.16336E+01 6.58349E+01 1.70229E+01-2.81904E+01 6.81302E+00 1.08843E+01
 -1      6343 3.00207E+01 1.71805E+02-6.98610E+00-1.40522E+02 4.81309E+00 2.02491E+01
 -1      6344-5.14916E+01-1.43507E+02-1.80430E+01 3.99157E+01 1.29516E+01 1.87940E+01
 -1      6345 3.80626E+01-4.85472E+01-1.10551E+00 5.83443E+00 9.96828E+00-6.07952E+00
 -1      6346 1.45825E+01-1.09061E+01 1.76620E+00-3.14331E+00 4.39820E+00-1.25215E+00
 -1      6347 7.09380E+00-2.00282E+01-1.36115E+00 1.23439E+00-1.20511E+00 1.68410E+00
 -1      6348 8.50637E+00-1.34626E+01-1.24022E+00-2.84220E+00 8.00297E-01 8.37807E-01
 -1      6349 4.02658E+00-1.99700E+01 3.19464E-01 3.13386E+00-1.49555E+00-6.67743E-01
 -1      6350 4.86664E+00-1.56913E+01 2.30398E+00 9.23623E+00 2.27594E+00 8.72822E-01
 -1      6351 3.06168E+00-1.74786E+01-9.82854E-01 6.97822E+00-5.86087E-02-1.75685E-01
 -1      6352 1.23539E+02 6.65067E+01 1.06289E+00 8.90248E+01-4.15093E+00 7.79659E+00
 -1      6353 6.16099E+01 3.15286E+01-1.18471E+00 5.07372E+01-3.61418E+00-4.66677E+00
 -1      6354 8.34750E+01 1.00249E+01-6.22057E+00 4.94281E+01 6.97613E+00 5.20672E+00
 -1      6355 7.07758E+01 1.85874E+01-3.05639E+00-5.88457E+01 2.85758E-01 1.59695E+00
 -1      6356 1.20930E+02 6.80993E+01-2.77288E+00-9.73755E+01-2.53584E+00 3.26704E-02
 -1      6357 1.00909E+02 1.63055E+01-5.15982E+00-5.29507E+01 3.77517E+00-2.71872E+00
 -1      6358 1.63640E+05 5.08880E+04 3.23476E+04-7.61700E+04-6.33190E+02 2.02052E+03
 -1      6359-1.32280E+05-1.68995E+04-4.21972E+04-2.23216E+04-2.75164E+02-3.32369E+02
 -1      6360-1.01368E+05-6.99353E+05-6.28891E+04 2.18342E+05-3.62284E+03 3.77730E+03
 -1      6361-3.49843E+04-1.32372E+05 1.98260E+04 8.75151E+04-1.09733E+04 1.02005E+04
 -1      6362 8.80607E+04 8.20400E+04-1.31583E+04 1.22717E+05-1.36731E+04-1.30606E+04
 -1      6363 2.57573E+05 4.94798E+04 3.11325E+04-9.59481E+04 2.31775E+03-6.09548E+02
 -1      6364 7.13868E+04 1.14600E+04-5.36698E+02-4.42093E+04 9.81735E+02-1.36822E+02
 -1      6365 2.42530E+05 2.86990E+05 6.78766E+04 2.96095E+05 1.11021E+04 1.69663E+04
 -1      6366-1.53722E+05-9.48046E+05-1.41701E+05 2.18776E+05-3.69982E+03-6.08131E+03
 -1      6367 2.69465E+05 4.67518E+05 1.21070E+05 3.61255E+05 3.97999E+02 6.13174E+03
 -1      6368 3.42648E+05 4.90244E+05 1.35440E+05 4.09007E+05-5.07084E+04-2.31453E+04
 -1      6369-2.07405E+05-1.29913E+06-2.91318E+05 8.41378E+04-8.09731E+04 3.78273E+04
 -1      6370-1.03372E+05-1.14479E+06-1.61728E+05 2.38063E+05 2.35114E+03-2.79626E+03
 -1      6371 3.57253E+04-5.06582E+04 1.37201E+04 2.22525E+04 1.53337E+04-1.73278E+04
 -1      6372 7.60974E+04 1.35270E+03 1.46324E+04-2.27813E+04-9.74378E+03 1.23026E+04
 -1      6373-5.72424E+04-1.42221E+04-2.60859E+04 1.41560E+04 3.01012E+03-2.13430E+04
 -1      6374-1.01227E+04 2.37082E+04-2.89449E+04 6.56634E+04 1.25182E+04 2.24008E+04
 -1      6375-8.84190E+04-3.00893E+05 1.81980E+03 1.58137E+05 2.51809E+04-1.57643E+04
 -1      6376-8.52714E+04-2.92801E+05 2.02235E+03 1.37416E+05-3.06073E+04 1.19637E+04
 -1      6377 2.20582E+05 7.18143E+04 2.33677E+04-8.29860E+04-4.50621E+03-2.32807E+03
 -1      6378 2.49825E+05 5.80290E+04 2.04992E+04-9.50752E+04-1.03217E+03-7.78082E+02
 -1      6379-5.74258E+04-2.46373E+04-1.88445E+04-3.11330E+04 1.00568E+03 9.88292E+03
 -1      6380-4.83752E+04-2.67426E+04-1.52886E+04-3.10108E+04-1.54804E+03-1.02402E+04
 -1      6381 1.54044E+05 3.06183E+04 1.16943E+04-5.64778E+04-4.35536E+03 1.00773E+04
 -1      6382 1.49749E+05 3.27246E+04 1.31859E+04-5.15478E+04 2.30566E+03-1.11160E+04
 -1      6383 4.15567E+05 8.39824E+05 2.95338E+05 4.82379E+05 8.58587E+03-1.87024E+04
 -1      6384 3.68054E+05 8.21346E+05 3.13345E+05 5.06272E+05 1.02346E+05 7.81020E+04
 -1      6385 1.79564E+05 1.60262E+05 3.19647E+03 1.71723E+05-4.93931E+04-3.86969E+04
 -1      6386 5.11386E+05 9.79156E+05 3.94730E+05 5.24992E+05-3.84540E+04 1.03563E+04
 -1      6387 3.99870E+05 8.65010E+05 3.22874E+05 5.11651E+05-1.41213E+05-8.31184E+04
 -1      6388 1.88668E+05 1.54327E+05-1.96601E+04 1.98032E+05 3.27020E+04 2.33893E+04
 -1      6389-1.44013E+05-9.94627E+05-9.63300E+04 2.42284E+05 4.67671E+04 1.10310E+04
 -1      6390-3.27695E+04-1.51261E+06-4.20360E+05 8.39996E+04-2.32719E+05 8.46775E+04
 -1      6391-1.26984E+05-1.55369E+06-3.87588E+05 1.08355E+05-5.92810E+04-4.11367E+04
 -1      6392-1.06226E+05-7.44405E+05-5.75488E+03 2.50308E+05-7.59299E+04 3.02317E+04
 -1      6393-1.21051E+05-1.64630E+06-4.07053E+05 3.14083E+05 1.49683E+05-3.72465E+04
 -1      6394-1.86598E+05-1.58977E+06-3.98514E+05 2.57144E+05 5.98515E+04 1.16102E+04
 -1      6395 4.47345E+05 6.37164E+05 2.53928E+05 4.91154E+05 4.09088E+02-4.02531E+03
 -1      6396 4.10663E+05 7.24672E+05 2.92085E+05 4.52083E+05 7.59084E+03 1.42356E+04
 -1      6397 3.46122E+05 5.01740E+05 1.88511E+05 3.82777E+05 3.31628E+04-1.79274E+03
 -1      6398 1.71947E+05 1.26760E+05 4.68317E+03 1.94176E+05-1.41884E+04-1.54878E+04
 -1      6399 2.41872E+05 2.75402E+05 5.30447E+04 2.48892E+05-1.45038E+04-1.86143E+04
 -1      6400 2.75326E+05 3.53191E+05 1.00270E+05 3.48314E+05-1.56704E+03 1.77459E+04
 -1      6401-1.14174E+05-3.60305E+05 7.61073E+03 2.15913E+05 4.55725E+04-2.40866E+04
 -1      6402-6.95225E+04-1.92097E+05 4.82011E+03 1.19038E+05 2.35519E+04-2.47442E+04
 -1      6403-2.85486E+05-1.41274E+06-3.00385E+05 2.15717E+05-4.29169E+04 3.10596E+03
 -1      6404-1.08656E+05-6.87546E+05-2.84996E+04 2.54118E+05 5.11052E+04-7.73166E+03
 -1      6405-1.63828E+05-6.24764E+05-7.66529E+04 2.25209E+05 1.92256E+04-1.16525E+04
 -1      6406 8.89111E+04 2.07973E+04 8.62370E+03-4.60291E+04 1.59979E+04-1.79134E+04
 -1      6407 1.71119E+04-4.61283E+04 1.26468E+04 3.52911E+04 2.12893E+04-2.13482E+04
 -1      6408-4.98708E+04-1.75958E+05-3.95636E+03 8.62349E+04 2.13852E+04-1.85404E+04
 -1      6409 1.97760E+05 6.48319E+04 1.72372E+04-9.88080E+04-2.85443E+03-1.13794E+04
 -1      6410 2.49860E+05 4.48149E+04 1.94732E+04-8.99379E+04-1.02500E+04 6.83340E+03
 -1      6411 9.84074E+04 4.14847E+03 2.24302E+04-3.14355E+04 8.84773E+03-4.73049E+03
 -1      6412 1.58905E+05 6.08901E+04 1.79652E+04-9.05511E+04 4.32085E+03-7.86220E+03
 -1      6413 2.16183E+05 7.96716E+04 3.53342E+04-9.38056E+04 1.98351E+03-9.89544E+02
 -1      6414 2.00002E+05 2.49733E+04 9.13338E+03-6.92837E+04-8.18816E+03 1.56701E+04
 -1      6415 1.10299E+05 1.64563E+04 9.57617E+03-5.27463E+04-2.14092E+03 1.72362E+04
 -1      6416 2.60460E+05 5.94687E+04 3.05179E+04-9.58359E+04 6.80177E+03-1.84358E+03
 -1      6417 2.52202E+05 3.17156E+04 1.86874E+04-8.37524E+04-2.28291E+03 7.37924E+03
 -1      6418 2.34696E+05 4.80544E+04 2.94445E+04-7.75694E+04-1.74511E+02 3.59319E+03
 -1      6419-1.00297E+05-1.89807E+04-1.78328E+04-3.18369E+04 1.85988E+03 9.36133E+03
 -1      6420-2.73895E+04-1.95491E+04-1.76042E+04-4.16977E+04 7.00897E+02 1.59210E+04
 -1      6421 5.79546E+04 4.95928E+03-1.38205E+03-4.41293E+04 1.48880E+03 1.08071E+04
 -1      6422-2.07244E+04-9.92691E+03-1.88552E+04-3.59020E+04-5.22390E+02 6.18102E+03
 -1      6423 1.24150E+05 2.86921E+04 7.50209E+03-5.24522E+04 6.73927E+02 4.23708E+03
 -1      6424 7.23920E+03-3.34007E+03-8.80547E+03 2.27321E+04-7.18761E+03-3.91430E+04
 -1      6425-8.21474E+04-1.88867E+04-1.98652E+04-1.05575E+04 9.62167E+03-4.93278E+03
 -1      6426-1.35699E+05-1.31978E+04-2.99150E+04-2.67888E+04-2.84482E+03 9.22415E+02
 -1      6427-1.24888E+05-1.42350E+04-3.94053E+04-1.13427E+04-4.43863E+03-9.10094E+03
 -1      6428-9.73399E+04-2.12298E+04-2.86010E+04-2.60564E+04-3.50628E+03 5.96163E+03
 -1      6429 6.88387E+04 6.44258E+03-3.07826E+04 5.88881E+04-2.99868E+04-3.32027E+04
 -1      6430-5.94996E+03 3.15426E+04-3.11458E+04 5.67084E+04-5.51318E+03-1.68558E+04
 -1      6431-8.46722E+04-3.59798E+05 1.40311E+04 1.92195E+05-4.61271E+04 2.12026E+04
 -1      6432-5.68881E+04-2.04424E+05-3.83511E+03 1.06607E+05-2.33552E+04 1.89154E+04
 -1      6433-1.21551E+05-5.86090E+05-2.57479E+04 2.70355E+05-3.77876E+04 1.95635E+04
 -1      6434-7.72474E+04-9.63451E+05-1.24075E+05 2.22510E+05 1.91900E+04-1.36085E+04
 -1      6435-1.31519E+05-4.98971E+05-3.62624E+04 2.03264E+05-2.87665E+04 1.47215E+04
 -1      6436 1.28293E+05 2.69739E+04 9.33383E+03-5.08971E+04-1.72324E+03 1.09073E+04
 -1      6437 3.50935E+04-4.94235E+04 1.42539E+04 1.36866E+04-1.53338E+04 1.51166E+04
 -1      6438 1.68989E+04-4.76177E+04 1.88130E+04 1.95827E+04-1.11953E+04 1.40102E+04
 -1      6439-3.03002E+04-1.20181E+05 1.00901E+04 6.78548E+04-1.33343E+04 1.94571E+04
 -1      6440-6.85207E+04-2.30418E+05 8.67694E+03 1.21222E+05-1.51053E+04 8.94000E+03
 -1      6441 2.41587E+05 5.77695E+04 2.20105E+04-9.53456E+04-2.29339E+03 5.42105E+03
 -1      6442 2.24435E+05 5.58078E+04 1.34572E+04-9.47959E+04 2.08932E+03-5.97219E+03
 -1      6443 1.94311E+05 5.33758E+04 2.97887E+04-8.65978E+04-1.80780E+03 8.57081E+03
 -1      6444 1.12778E+05 2.62114E+04 2.48379E+04-4.81930E+04-1.10960E+04 1.25762E+04
 -1      6445 2.52851E+05 7.10712E+04 4.61649E+04-1.03386E+05-9.05057E+02-7.97190E+02
 -1      6446 2.06715E+05 4.86203E+04 1.92599E+04-7.22334E+04 5.24641E+03-1.01162E+04
 -1      6447 1.16290E+05 2.05842E+04 9.34613E+03-4.46141E+04 1.94951E+03-1.99921E+04
 -1      6448 2.46171E+05 5.13034E+04 2.56835E+04-8.98409E+04 8.78978E+02-5.81426E+03
 -1      6449 2.41291E+05 4.87001E+04 2.26109E+04-9.13672E+04-3.13802E+03 3.72850E+03
 -1      6450 2.28283E+05 4.82349E+04 2.87679E+04-7.82452E+04 1.08424E+03-8.52420E+03
 -1      6451-1.06210E+05-2.23844E+04-1.91762E+04-3.18537E+04-1.60500E+03-1.01804E+04
 -1      6452-2.68366E+04-1.71452E+04-1.57510E+04-3.15773E+04-2.88839E+03-2.21784E+04
 -1      6453-2.30476E+04-1.80820E+04-2.02232E+04-3.67910E+04 6.92342E+02-6.58472E+03
 -1      6454 5.37779E+04 2.13889E+03-1.42793E+03-3.52394E+04-2.03005E+02-1.49722E+04
 -1      6455 1.21342E+05 2.66577E+04 1.29667E+04-4.68389E+04-4.67310E+02-6.28941E+03
 -1      6456 3.58730E+04 3.75201E+03-8.87806E+03 4.23945E+04 1.37311E+04 4.40886E+04
 -1      6457-7.70622E+04-1.54927E+04-2.19096E+04-6.31431E+03-1.47604E+03 1.13362E+04
 -1      6458-1.03925E+05 1.55141E+03-4.21435E+04 2.72494E+03 3.11365E+03 5.68361E+03
 -1      6459-1.37293E+05-1.49435E+04-3.33796E+04-2.72277E+04 3.45557E+03 1.77830E+01
 -1      6460-9.71622E+04-2.16923E+04-3.12059E+04-2.67615E+04 3.09518E+03-5.03125E+03
 -1      6461 1.51526E+05 8.26150E+04-6.78010E+02 1.20572E+05 4.28284E+04 4.64042E+04
 -1      6462 9.36437E+04 7.74656E+04-2.81487E+04 1.43180E+05 2.36224E+04 2.41267E+04
 -1      6463-2.12437E+05-1.53260E+06-4.08070E+05 2.64186E+05 2.56686E+04-2.11866E+04
 -1      6464-2.45600E+05-1.57436E+06-4.32865E+05 2.71756E+05-6.69154E+04-3.62691E+04
 -1      6465-1.35771E+05-1.32019E+06-3.07875E+05 2.36161E+05 4.28446E+04 5.85478E+03
 -1      6466-1.07646E+05-7.81787E+05-9.40029E+04 1.98232E+05-1.80829E+04 2.78952E+03
 -1      6467-2.44190E+03-8.58980E+04 2.06832E+04 4.88580E+04-3.18655E+02-2.85167E+03
 -1      6468 6.58730E+04-3.42855E+03 3.15490E+04-1.45101E+04-5.89734E+03 9.48529E+03
 -1      6469 2.46414E+05 6.94033E+04 4.60946E+04-1.09104E+05 2.71312E+03-1.23903E+03
 -1      6470-7.05422E+04 2.36178E+04-3.62519E+04 3.62682E+04-4.11765E+03-7.46957E+03
 -1      6471 2.38850E+04 3.62088E+04-3.00070E+04 9.51729E+04-1.85577E+03-4.08090E+03
 -1      6472-6.08676E+04-6.81046E+03-2.95937E+04-2.45496E+04 1.51448E+03 1.79873E+03
 -1      6473-1.41896E+05-5.24071E+05-5.14497E+04 2.09881E+05 1.14541E+04-8.37438E+03
 -1      6474-9.90212E+04-4.07896E+05-1.97645E+04 1.72103E+05-1.06154E+04 1.40941E+04
 -1      6475-5.02836E+04-2.12085E+05 1.22945E+04 1.18748E+05-2.76900E+03 5.32768E+03
 -1      6476 1.86021E+05 4.25065E+04 2.21813E+04-7.33041E+04 1.51258E+03 4.86117E+00
 -1      6477 5.32848E+01 5.04674E+01 2.48833E+00-4.93828E+01 6.32208E+00-4.94202E+00
 -1      6478 4.26916E+01 5.23463E+01 2.83251E+00-5.34301E+01-8.71040E+00 7.15208E+00
 -1      6479 3.45251E+01 4.64056E+01 4.28029E+00-4.16122E+01-5.83550E-02 9.14570E-02
 -1      6480 2.25772E+01 3.80085E+01-2.19094E+00-2.68906E+01 8.03667E+00-4.56913E+00
 -1      6481 8.69045E+01 5.64968E+01 8.58108E+00-6.15247E+01 5.06338E+00-7.91230E+00
 -1      6482 2.62189E+01 3.42601E+01-5.77447E+00-3.44171E+01 4.34374E+00-4.48987E+00
 -1      6483 1.17568E+02 7.74222E+01 3.41099E+01-7.64556E+01 3.11064E+00-4.06283E+00
 -1      6484 7.39246E+01 5.85935E+01 9.34571E+00-6.36628E+01-6.04361E+00 7.10300E+00
 -1      6485 2.03866E+01 3.73884E+01-3.13639E+00-2.75268E+01-7.66755E+00 6.44379E+00
 -1      6486 9.25977E+01 7.38106E+01 2.43633E+01-6.83554E+01-5.10698E+00 9.60268E+00
 -1      6487 2.88018E+01 3.32437E+01-5.26702E+00-3.71495E+01-7.18877E+00 6.40155E+00
 -1      6488 2.80164E+01 3.02973E+01-4.56578E+00-3.06330E+01-1.66968E+00 1.08563E+00
 -1      6489 2.31814E+01 3.20786E+01-3.82460E+00-3.31584E+01 1.53276E+00-1.01145E+00
 -1      6490 4.35683E+01 5.11433E+01 7.06144E+00-4.94367E+01 2.10861E+00-3.30163E+00
 -1      6491 4.58499E+01 5.35161E+01 5.17703E+00-5.05744E+01-1.72695E+00 3.59135E+00
 -1      6492 9.44045E+01 8.35990E+01 3.49648E+01-7.66402E+01-4.54131E-01 6.02208E-01
 -1      6493 9.08599E+01 7.88143E+01 3.13294E+01-6.55527E+01 2.79407E+00-3.39842E+00
 -1      6494 1.20140E+02-3.58198E+00-5.58467E-01-1.81245E+01-7.71681E-01 6.44600E-01
 -1      6495 1.32476E+02 7.06226E+00 3.03095E+00-2.64969E+01-5.22745E-01-7.95279E-01
 -1      6496 1.32749E+02 1.11987E+00 1.24978E+00-2.23472E+01 1.08701E-01-1.21439E+00
 -1      6497 1.60109E+02 2.33661E+01 1.31516E+01-4.07665E+01-2.44246E+00-7.57770E-01
 -1      6498 1.04635E+02 5.05886E-02-3.17343E+00-1.98225E+01 2.23201E+00 1.09420E+00
 -1      6499 1.83216E+02 3.87856E+01 3.62000E+01-5.09050E+01-1.29086E+00-1.72640E+00
 -1      6500 1.02134E+02-4.14410E+00-1.32993E+01-1.89961E+01-6.74158E-01-2.12745E+00
 -1      6501 1.05788E+02-1.71727E+00-4.25810E+00-1.84252E+01-1.69191E+00-1.38103E+00
 -1      6502 1.60446E+02 2.56728E+01 1.42749E+01-3.75121E+01 3.19843E+00 4.58530E-01
 -1      6503 1.01316E+02-2.56846E+00-1.36331E+01-1.54284E+01 2.83852E-01 1.40697E+00
 -1      6504 1.63754E+02 3.94885E+01 3.06860E+01-3.68337E+01 5.41888E+00-5.09438E+00
 -1      6505 1.65411E+02 2.43397E+01 2.90184E+01-3.16458E+01-2.51035E+00 5.00107E+00
 -1      6506 1.81903E+02 1.89235E+01 3.52509E+01-3.64774E+01 1.47967E+00-3.41932E+00
 -1      6507 1.34753E+02 2.68800E+00 7.08556E+00-2.39502E+01-1.56994E+00-1.10304E+00
 -1      6508 1.40050E+02 5.83741E+00 5.61137E+00-2.12797E+01 2.38718E-01 1.71261E+00
 -1      6509 1.03398E+02-6.65478E+00-1.20153E+01-2.04823E+01-5.62836E-02-9.63171E-01
 -1      6510 1.01883E+02-2.99318E+00-1.33333E+01-2.07042E+01-5.60638E-01 8.61568E-02
 -1      6511 1.36389E+02 1.43851E+01 1.32125E+00-4.89131E+01 3.16242E+00-5.07098E+00
 -1      6512 1.36750E+02 1.38593E+01 2.67346E+00-4.28848E+01-1.71259E-01 4.99779E+00
 -1      6513 1.52336E+02 1.41775E+01 1.28054E+01-4.84415E+01 4.49248E-01 2.50039E+00
 -1      6514 9.98911E+01 8.71888E+00-4.67976E+00-3.69153E+01 4.35561E+00-2.98854E+00
 -1      6515 1.97847E+02 2.91754E+01 1.73528E+01-3.95658E+01-2.32006E+00-4.94632E+00
 -1      6516 1.88564E+02 3.86782E+01 3.52116E+01-4.07479E+01 8.31722E-01-1.35846E+01
 -1      6517 9.10574E+01 9.42077E+00-1.49291E+01-3.96023E+01 5.30750E-01-2.94821E+00
 -1      6518 1.96691E+02 2.19139E+01 1.80712E+01-3.66077E+01 3.58187E-01 6.78581E+00
 -1      6519 1.04826E+02 8.32369E+00-4.51950E+00-3.45104E+01-3.76909E+00 4.24938E+00
 -1      6520 2.23140E+02 3.98252E+01 4.60626E+01-3.82059E+01 4.35054E+00 6.31286E+00
 -1      6521 1.01397E+02 9.83826E+00-1.30270E+01-3.72574E+01 4.00804E-01 1.46857E+00
 -1      6522 9.37027E+01 7.83701E+00-1.04447E+01-3.97418E+01-1.26349E+00 1.65440E+00
 -1      6523 9.30306E+01 9.55609E-01-1.57016E+01-3.97836E+01 4.23031E-01-9.94146E-01
 -1      6524 1.50292E+02 1.87646E+01 1.00693E+01-4.83627E+01 1.09284E+00-1.46761E+00
 -1      6525 1.54644E+02 1.66768E+01 1.22298E+01-4.62391E+01-1.33903E-01 2.14197E+00
 -1      6526 2.09805E+02 3.76955E+01 4.34544E+01-4.11004E+01 5.32550E-01 6.26617E+00
 -1      6527 2.22015E+02 3.66233E+01 4.82818E+01-4.29265E+01 1.49614E+00-5.46690E+00
 -1      6528 1.40886E+02 1.32841E+01 3.32374E+00 4.23330E+01-9.25882E-01-5.47873E+00
 -1      6529 1.18815E+02 1.10056E+01-2.33584E+00 4.30011E+01 3.87444E-01 7.02706E+00
 -1      6530 1.42846E+02 1.36841E+01 1.20734E+01 4.57428E+01-2.96597E-01 9.55305E-01
 -1      6531 1.83764E+02 1.81248E+01 1.63675E+01 4.08769E+01-1.48024E+00 7.76433E+00
 -1      6532 9.68397E+01 7.65229E+00-4.34042E+00 3.35696E+01 3.53635E+00 5.04967E+00
 -1      6533 9.40531E+01 7.26409E+00-1.34273E+01 3.39624E+01 9.11890E-02 2.72571E+00
 -1      6534 2.08841E+02 3.68923E+01 3.87888E+01 4.38858E+01-1.33443E+00 9.16915E+00
 -1      6535 2.00395E+02 2.04267E+01 1.49229E+01 3.58997E+01 2.15374E+00-6.09541E+00
 -1      6536 1.02022E+02 1.05020E+01-2.88029E+00 3.37093E+01-6.28538E+00-2.25284E+00
 -1      6537 9.20146E+01 3.99627E+00-1.50341E+01 3.60954E+01 3.37122E-02-4.43403E+00
 -1      6538 2.19276E+02 3.83707E+01 4.26543E+01 3.74079E+01 1.01497E+00-1.06766E+01
 -1      6539 2.21299E+02 3.66696E+01 4.96241E+01 4.06586E+01-2.95682E+00 8.29215E+00
 -1      6540 2.12486E+02 3.44360E+01 4.53522E+01 4.07527E+01 2.22814E-01-6.70098E+00
 -1      6541 1.43431E+02 1.95313E+01 9.42815E+00 4.71354E+01 1.36712E+00 2.13583E+00
 -1      6542 1.51579E+02 1.33814E+01 1.20225E+01 4.25166E+01 2.66856E-01-1.47596E+00
 -1      6543 9.61731E+01 2.35432E+00-1.12433E+01 3.71428E+01-2.60784E-01-1.34574E+00
 -1      6544 9.33658E+01 1.12239E+01-9.74595E+00 3.62733E+01 1.22131E+00 1.99371E+00
 -1      6545 1.30677E+02 9.79215E+00 6.14827E+00 2.29222E+01-7.23169E-01 1.65857E+00
 -1      6546 1.17511E+02-1.41601E+00 1.68180E+00 2.03568E+01-7.91144E-01-3.79823E-01
 -1      6547 1.24706E+02 5.94981E+00 1.31794E+00 2.25958E+01 3.17086E-01-1.46580E+00
 -1      6548 9.92414E+01-2.15143E+00-4.22359E+00 1.54149E+01 2.05287E+00-1.67370E-01
 -1      6549 1.47273E+02 2.17845E+01 1.35019E+01 3.38560E+01-2.22851E+00 2.55718E+00
 -1      6550 1.71673E+02 4.23226E+01 3.68249E+01 4.84387E+01-8.93827E-01 3.24043E+00
 -1      6551 9.41523E+01-2.46896E+00-1.24983E+01 1.36108E+01-3.34127E-01 3.51136E+00
 -1      6552 1.44142E+02 2.04005E+01 1.18027E+01 2.97987E+01 4.97767E-01-3.26319E+00
 -1      6553 1.01132E+02 5.10265E-02-2.97580E+00 1.66980E+01-3.06671E+00-1.31605E+00
 -1      6554 1.65083E+02 3.37774E+01 3.11761E+01 4.18078E+01 2.67514E+00-1.69609E+00
 -1      6555 9.45950E+01-5.37850E+00-1.39592E+01 1.64354E+01 6.61889E-01-1.64168E+00
 -1      6556 9.72767E+01-5.16932E+00-1.20358E+01 2.00953E+01 1.03477E-01-1.13264E+00
 -1      6557 9.76396E+01-1.56987E+00-1.04505E+01 1.78416E+01 8.93110E-02 1.10675E-01
 -1      6558 1.27869E+02 4.38818E+00 6.34984E+00 2.44441E+01-4.93004E-01 1.95169E+00
 -1      6559 1.30310E+02 6.56215E+00 7.50151E+00 2.54307E+01 8.47065E-01-1.83910E+00
 -1      6560 1.67602E+02 2.53905E+01 3.45733E+01 4.05535E+01 1.78722E+00 2.45030E+00
 -1      6561 1.60107E+02 2.97939E+01 3.29718E+01 3.57079E+01-2.11854E+00-4.67075E+00
 -1      6562 4.04915E+01 3.83224E+01 3.53749E-01 3.87515E+01-6.30895E+00-4.95907E+00
 -1      6563 3.11648E+01 3.76019E+01 4.90690E+00 3.38057E+01 2.24330E-01 1.32822E-01
 -1      6564 3.79855E+01 4.19954E+01 2.96895E+00 4.10575E+01 6.75804E+00 4.65128E+00
 -1      6565 6.79066E+01 5.42364E+01 7.34591E+00 5.26114E+01 5.83328E+00 7.45637E+00
 -1      6566 1.85951E+01 2.96451E+01-2.50754E+00 2.04200E+01 6.82225E+00 4.61140E+00
 -1      6567 2.32450E+01 2.52517E+01-3.51163E+00 2.74165E+01 6.02778E+00 5.97174E+00
 -1      6568 9.27552E+01 6.50139E+01 2.73542E+01 6.19882E+01 5.69191E+00 6.56263E+00
 -1      6569 7.86825E+01 4.67986E+01 1.03284E+01 5.19408E+01-4.06977E+00-5.47799E+00
 -1      6570 1.93573E+01 2.87453E+01-1.97627E+00 2.05093E+01-7.96820E+00-4.94107E+00
 -1      6571 2.16322E+01 2.53310E+01-3.89711E+00 2.63470E+01-5.00146E+00-4.41049E+00
 -1      6572 1.04092E+02 6.67727E+01 3.07712E+01 6.56068E+01-5.15717E+00-5.68964E+00
 -1      6573 8.60233E+01 7.25117E+01 3.18539E+01 6.71687E+01-7.95200E-02-1.17814E+00
 -1      6574 8.63225E+01 7.07248E+01 3.15268E+01 6.04265E+01-8.03998E-01-1.27135E+00
 -1      6575 4.25335E+01 4.27074E+01 6.97398E+00 4.17461E+01 2.99595E+00 3.88515E+00
 -1      6576 3.72416E+01 4.09707E+01 6.49170E+00 4.09348E+01-2.92518E+00-2.71460E+00
 -1      6577 1.94938E+01 2.34262E+01-2.21834E+00 2.49506E+01-1.79484E+00-1.87203E+00
 -1      6578 2.15945E+01 2.32486E+01-3.10457E+00 2.42911E+01 2.15369E+00 1.63833E+00
 -1      6579 1.97825E+01 4.53722E+00 2.06083E+00 8.66098E+00 5.06451E+00 6.05873E+00
 -1      6580 1.77170E+01 2.83020E+00-4.45742E-01 9.08755E+00-1.18625E-03-4.40162E-02
 -1      6581 2.04004E+01 3.97304E+00 1.58204E+00 9.60033E+00-5.40383E+00-5.79760E+00
 -1      6582 1.83853E+01 1.43594E+01 1.19862E+00 1.45668E+01 4.25338E+00 4.57732E+00
 -1      6583 2.33484E+01-6.01472E+00 5.01428E+00 8.20713E+00 7.40483E+00 5.96828E+00
 -1      6584 1.40878E+01-1.00675E+01 7.76803E-02 1.79974E+00 5.50975E+00 5.65116E+00
 -1      6585 1.65456E+01 8.01770E+00-2.77273E+00 1.38176E+01 4.70471E+00 5.40145E+00
 -1      6586 1.79428E+01 8.56455E+00-1.08691E+00 1.32242E+01-4.42935E+00-4.47540E+00
 -1      6587 2.44216E+01 1.69116E+00 5.13738E+00 7.80811E+00-6.67087E+00-8.01538E+00
 -1      6588 1.40488E+01-1.02802E+01-6.30685E-01 2.64668E+00-5.86005E+00-5.50554E+00
 -1      6589 1.57460E+01 5.72740E+00-2.82903E+00 1.44523E+01-4.18510E+00-4.76909E+00
 -1      6590 1.78287E+01 6.26193E+00-3.69684E+00 1.33283E+01-1.72291E+00-2.81722E+00
 -1      6591 1.83346E+01 6.47008E+00-3.23688E+00 1.32211E+01 1.68179E+00 2.76170E+00
 -1      6592 1.84507E+01 2.96751E+00 1.10345E+00 8.15748E+00 3.06226E+00 3.63563E+00
 -1      6593 1.86533E+01 2.55264E+00 8.06293E-01 8.14138E+00-2.57290E+00-3.77904E+00
 -1      6594 1.01145E+01-5.56350E+00-2.39030E-02 1.98228E+00-1.45347E+00-2.57055E+00
 -1      6595 9.96509E+00-5.71673E+00-1.02813E-01 1.72208E+00 1.14433E+00 2.23346E+00
 -1      6596-2.07994E+00-5.92054E+01-3.92298E-01-4.82183E-01 7.93226E+00 5.84693E-01
 -1      6597-3.01956E+00-5.90223E+01-5.37558E-01-2.02824E-01-8.22452E+00-7.01763E-01
 -1      6598 3.43595E+00-5.77150E+01 4.73721E+00-2.99578E+00-1.77180E-01 1.64626E-01
 -1      6599-1.36762E+00-5.88920E+01-6.95480E+00 1.14290E+00 8.40748E+00 1.83454E+00
 -1      6600 6.23456E+00-5.59781E+01 3.72940E+00-1.66574E+00 6.46228E+00 2.57317E-01
 -1      6601 2.97202E+00-5.79105E+01 1.18047E+01-7.42890E+00 6.60903E+00 1.93040E+00
 -1      6602-5.10815E+00-5.49879E+01-7.04362E+00-2.90030E+00 7.93729E+00 1.54974E+00
 -1      6603-9.85481E-01-5.77648E+01-6.57486E+00 3.37113E+00-9.20688E+00-2.10572E+00
 -1      6604 7.16589E+00-5.63080E+01 4.44891E+00-1.15261E+00-6.95237E+00-2.25378E-01
 -1      6605 2.43609E+00-6.00839E+01 1.11100E+01-7.52637E+00-6.70525E+00-1.83891E+00
 -1      6606-5.83688E+00-5.29774E+01-6.64450E+00-2.57333E+00-6.85029E+00-1.21404E+00
 -1      6607-1.24719E+00-5.49300E+01-4.75431E+00-3.21645E+00-3.87464E+00-8.99285E-01
 -1      6608-1.40122E+00-5.45674E+01-5.01977E+00-2.86198E+00 3.63188E+00 1.39641E+00
 -1      6609-1.16184E+00-6.08598E+01 4.52201E-01-2.79228E+00 5.20975E+00 1.96432E+00
 -1      6610-1.05051E+00-6.16089E+01 4.96698E-01-2.57574E+00-5.64895E+00-2.25025E+00
 -1      6611 7.32738E+00-5.70980E+01 1.10871E+01-6.64816E+00-4.10814E+00-7.85675E-01
 -1      6612 7.11679E+00-5.74880E+01 1.05020E+01-7.68151E+00 3.38216E+00 8.06906E-01
 -1      6613-8.50302E+00-1.24355E+02-4.20359E+00-4.23343E+01 2.71641E-01-6.92719E-01
 -1      6614-9.87793E+00-8.31920E+01 4.84731E+00-3.17314E+01 1.50094E+01 5.23614E+00
 -1      6615-4.89526E+00-9.11985E+01 3.77681E+00-2.76838E+01-1.39014E+01-4.14478E+00
 -1      6616-5.90570E+00-6.43560E+01 5.83654E+00-2.41791E+01 1.19439E+01 7.04876E+00
 -1      6617-2.22900E+01-1.55211E+02-8.05958E+00-5.76673E+01 1.83934E+01 9.13393E+00
 -1      6618-3.42761E+01-2.05859E+02-3.89158E+01-5.19756E+01 1.08776E+01 5.75406E+00
 -1      6619-4.16678E+00-7.42839E+01 1.10271E+01-2.55030E+01 1.21127E+01 2.78131E+00
 -1      6620-5.09099E+00-6.45919E+01 5.65519E+00-2.33335E+01-1.47004E+01-7.74919E+00
 -1      6621-1.28386E+01-1.53964E+02-8.65461E+00-6.11768E+01-1.87714E+01-1.02945E+01
 -1      6622-3.47921E+01-2.16688E+02-4.27299E+01-4.33552E+01-1.17347E+01-5.34806E+00
 -1      6623 2.87904E+00-7.54217E+01 1.31507E+01-2.11910E+01-7.72299E+00-1.18810E+00
 -1      6624-1.84718E+00-8.21655E+01 9.50419E+00-2.95890E+01-6.55692E+00-3.76641E+00
 -1      6625 3.56213E+00-8.66670E+01 8.87384E+00-3.02391E+01 5.98326E+00 2.19210E+00
 -1      6626-7.43849E+00-1.24815E+02-6.01392E+00-3.96155E+01 1.03664E+01 4.01341E+00
 -1      6627-6.93208E+00-1.24744E+02-3.91504E+00-3.95857E+01-8.63575E+00-4.34258E+00
 -1      6628-2.75309E+01-2.14018E+02-3.90775E+01-5.54079E+01-6.36815E+00-4.59390E+00
 -1      6629-3.85955E+01-2.31511E+02-4.99960E+01-4.64125E+01 6.42171E+00 3.24632E+00
 -1      6630-2.99600E+01-1.56457E+02 2.18252E+00 7.47493E+01-3.21517E+00 1.70745E+00
 -1      6631-2.92457E+01-1.56826E+02 2.51266E+00 7.42116E+01 2.38498E+00-1.16075E+00
 -1      6632-2.21613E+01-2.15208E+02-1.35682E+01 7.76647E+01 9.72527E-01-8.84622E-02
 -1      6633-4.67891E+01-2.17852E+02-2.01777E+01 9.93566E+01-6.04799E-01 1.90847E+00
 -1      6634-1.97701E+01-1.48118E+02 1.11011E+01 7.00807E+01-1.21694E+00 4.02283E+00
 -1      6635-1.26654E+01-1.49674E+02 1.99539E+01 6.62483E+01 3.97564E+00-1.53105E+00
 -1      6636-5.55161E+01-2.52111E+02-4.51050E+01 8.47173E+01 1.39358E+00 1.57979E+00
 -1      6637-1.98604E+01-1.48204E+02 1.10287E+01 6.95126E+01 1.23306E+00-3.86589E+00
 -1      6638-4.10456E+01-2.12454E+02-2.03973E+01 1.02827E+02-3.63062E-01-1.24142E+00
 -1      6639-5.96952E+01-2.58415E+02-4.65582E+01 8.57280E+01-3.96903E-01-6.23008E-01
 -1      6640-1.11993E+01-1.48763E+02 2.02816E+01 6.52688E+01-4.40517E+00 2.06175E+00
 -1      6641-6.14553E+01-2.89533E+02-6.08025E+01 5.83293E+01-1.02637E+01 2.41922E+00
 -1      6642-6.02643E+01-2.80887E+02-5.82408E+01 6.66753E+01 5.27570E+00-2.67806E+00
 -1      6643-3.29393E+01-2.03866E+02-1.25792E+01 7.90216E+01 1.21416E+00 1.81048E+00
 -1      6644-3.39427E+01-2.00612E+02-1.43531E+01 7.70043E+01-2.27748E+00-1.53917E+00
 -1      6645-9.07869E+00-1.64114E+02 1.75869E+01 6.83985E+01-5.81102E-01 2.49050E-01
 -1      6646-7.66577E+00-1.64023E+02 1.94344E+01 6.89006E+01 1.90809E+00-8.00356E-02
 -1      6647-2.41857E+00-2.65508E+02-5.91315E+00 5.27676E+01 8.23386E+00-5.02565E+00
 -1      6648-2.84043E+00-2.65073E+02-6.28910E+00 5.23149E+01-8.31077E+00 4.97673E+00
 -1      6649-2.06833E+01-2.91555E+02-3.76763E+01 8.17566E+01-8.38116E-04-6.68990E-02
 -1      6650-3.15733E+00-1.78033E+02 1.28795E+01 2.02651E+01 9.58235E+00-1.30224E+00
 -1      6651-4.75394E+01-3.54671E+02-3.21906E+01 1.00502E+02 5.57963E+00-1.42823E+01
 -1      6652-1.11047E+02-4.31954E+02-9.44418E+01 1.20010E+02 6.11269E+00-1.11348E+01
 -1      6653 5.97745E+00-1.98584E+02 2.16608E+01 4.04384E+01 7.95899E+00-5.61093E+00
 -1      6654-4.82841E+01-3.54831E+02-3.21323E+01 1.01084E+02-4.98974E+00 1.41915E+01
 -1      6655-3.08571E+00-1.77226E+02 1.28984E+01 2.02438E+01-9.55623E+00 1.42387E+00
 -1      6656 6.07445E+00-1.98184E+02 2.11555E+01 3.97325E+01-7.94916E+00 5.71286E+00
 -1      6657-1.11148E+02-4.31765E+02-9.44939E+01 1.19795E+02-6.32435E+00 1.10244E+01
 -1      6658 5.41627E+00-2.04068E+02 1.38132E+01 4.47317E+01-3.49451E+00-8.64462E-01
 -1      6659 4.87015E+00-2.03774E+02 1.37737E+01 4.52034E+01 3.64869E+00 7.94808E-01
 -1      6660-2.98675E+01-3.09301E+02-3.40918E+01 8.32054E+01 6.80047E-01 4.79753E-01
 -1      6661-2.99496E+01-3.08628E+02-3.41602E+01 8.30297E+01-8.56545E-01-5.67727E-01
 -1      6662-1.20009E+02-4.19380E+02-1.22123E+02 1.45525E+02 1.27951E+01-1.50397E+01
 -1      6663-1.18325E+02-4.18597E+02-1.21294E+02 1.44834E+02-1.30506E+01 1.47289E+01
 -1      6664-2.13627E+02-1.75827E+02-8.82602E+01 2.05996E+02-3.14672E-01 6.95335E-01
 -1      6665-2.19090E+02-1.25477E+02-2.59537E+01 1.71084E+02 2.10679E+01-2.03956E+01
 -1      6666-2.27589E+02-1.35411E+02-2.81409E+01 1.84061E+02-2.29140E+01 2.13447E+01
 -1      6667-2.49357E+02-2.29969E+02-4.41317E+01 2.07518E+02-2.23901E+01 7.94929E+00
 -1      6668-1.79599E+02-1.01973E+02-1.11100E+00 1.31487E+02-1.51913E+01 2.65223E+01
 -1      6669-1.54438E+02-9.64161E+01-2.67559E+01 1.38528E+02-2.95144E+01 2.59961E+01
 -1      6670-2.77934E+02-2.45916E+02-1.04506E+02 2.01107E+02-3.29525E+01 2.69214E+01
 -1      6671-2.48809E+02-2.29425E+02-4.42708E+01 2.07596E+02 2.05149E+01-7.38389E+00
 -1      6672-1.69535E+02-8.87185E+01-1.06838E-03 1.24049E+02 1.58183E+01-2.56164E+01
 -1      6673-1.52775E+02-7.83491E+01-2.22874E+01 1.32341E+02 2.72558E+01-2.56816E+01
 -1      6674-2.84911E+02-2.50175E+02-1.07973E+02 2.01589E+02 3.23123E+01-2.69321E+01
 -1      6675-2.66461E+02-2.69104E+02-1.32429E+02 2.18942E+02-1.48434E+00-1.17285E+00
 -1      6676-2.66821E+02-2.69136E+02-1.31870E+02 2.19236E+02 7.08021E-01 1.64263E+00
 -1      6677-2.31440E+02-1.65835E+02-7.68038E+01 1.94940E+02-1.58472E+01 1.87868E+01
 -1      6678-2.31263E+02-1.68456E+02-7.75094E+01 1.92694E+02 1.59326E+01-1.75358E+01
 -1      6679-1.44892E+02-1.17309E+02-5.37490E+01 1.55013E+02 1.14671E+01-1.11989E+01
 -1      6680-1.46367E+02-1.18221E+02-5.58316E+01 1.53323E+02-1.08605E+01 1.14582E+01
 -1      6681-6.49676E+01-1.92100E+02-8.58585E+01 1.12920E+02 4.99954E-01-2.59867E+00
 -1      6682-1.07320E+02-1.97076E+02-8.00628E+01 1.29889E+02-5.10492E+01 2.13002E+01
 -1      6683-9.88202E+01-1.90359E+02-7.43325E+01 1.25186E+02 4.92057E+01-1.97244E+01
 -1      6684-1.17722E+02-1.67406E+02-3.34766E+01 1.20139E+02-2.78615E+01 2.09514E+01
 -1      6685-1.42270E+01-2.66159E+02-8.50629E+01 1.12283E+02-5.11912E+01 2.98127E+01
 -1      6686 3.22861E+01-1.95595E+02-6.92328E+01 1.07459E+02-4.23001E+01 2.73137E+01
 -1      6687-9.25617E+01-1.48143E+02-4.67299E+01 1.34240E+02-3.66986E+01 1.70217E+01
 -1      6688-7.70387E+01-1.61711E+02-1.68976E+01 1.10831E+02 2.57037E+01-1.62294E+01
 -1      6689-1.95010E+01-2.68973E+02-8.95779E+01 1.14787E+02 5.26831E+01-2.98460E+01
 -1      6690 2.24622E+01-2.07897E+02-8.29894E+01 1.03733E+02 3.68440E+01-3.19607E+01
 -1      6691-8.00504E+01-1.48870E+02-4.86033E+01 1.33016E+02 3.36354E+01-1.59596E+01
 -1      6692-6.60499E+01-1.47579E+02-5.85511E+01 1.22016E+02 1.31716E+01-1.09676E+01
 -1      6693-6.75326E+01-1.50763E+02-6.37892E+01 1.20479E+02-1.18027E+01 7.53709E+00
 -1      6694-7.25771E+01-1.74836E+02-9.04336E+01 1.25244E+02-3.02203E+01 1.64032E+01
 -1      6695-8.49475E+01-1.84423E+02-8.91676E+01 1.11193E+02 3.13383E+01-2.04839E+01
 -1      6696 9.96856E+01-1.72022E+02-3.84042E+01 9.52981E+01 1.61450E+01-8.60787E+00
 -1      6697 4.68723E+01-2.03776E+02-7.23311E+01 1.07832E+02-1.00029E+01-1.10027E+01
 -1      6698 5.94947E+02-2.21514E+01 5.36644E+01 3.99201E+00 7.26672E+00 1.72506E+01
 -1      6699 5.95222E+02-2.16134E+01 5.43096E+01 4.75957E+00-7.34655E+00-1.69746E+01
 -1      6700 6.56404E+02-2.53661E+01 5.19565E+01 4.42964E+01 9.15143E-01-7.72263E-01
 -1      6701 5.04891E+02 2.70881E+01 7.44004E+01 6.22666E+01-8.67450E+00 1.95075E+01
 -1      6702 5.54601E+02-2.74037E+00 1.78987E+01-4.25771E+01 2.62803E+00 2.46502E+01
 -1      6703 5.29704E+02-4.25162E+01 1.11737E+00-6.16155E+01-7.91771E+00 1.58642E+01
 -1      6704 4.87267E+02-1.06961E+01 4.81201E+01 6.58780E+01-2.03655E+01 3.66012E+01
 -1      6705 5.03128E+02 2.64283E+01 7.42488E+01 6.41817E+01 9.34789E+00-2.03556E+01
 -1      6706 5.57256E+02-3.80658E+00 1.75978E+01-4.28439E+01-2.66909E+00-2.46481E+01
 -1      6707 5.32819E+02-4.07784E+01 1.60586E+00-6.02942E+01 7.84570E+00-1.63415E+01
 -1      6708 4.87271E+02-9.52807E+00 4.89071E+01 6.49122E+01 1.95568E+01-3.70944E+01
 -1      6709 5.28236E+02-1.59881E+01 6.34760E+01 1.29083E+02 1.51647E+01-5.69483E-02
 -1      6710 5.25621E+02-1.94191E+01 6.11919E+01 1.31436E+02-1.41941E+01-2.91297E+00
 -1      6711 6.38910E+02 6.82660E+00 7.61839E+01 4.63582E+00-4.67654E+00 2.14802E+01
 -1      6712 6.39555E+02 5.65042E+00 7.76990E+01 5.32805E+00 5.77478E+00-2.20114E+01
 -1      6713 5.90087E+02-3.49526E+01 1.94378E+01-4.98031E+01 1.23244E+00-2.92247E+01
 -1      6714 5.86801E+02-3.37678E+01 1.49907E+01-5.05598E+01 1.32112E-02 2.90501E+01
 -1      6715 5.92315E+02 1.30788E+02 7.80504E+01-2.66183E+02 2.45737E+00-2.43852E+00
 -1      6716 5.95581E+02 1.27884E+02 6.27306E+01-2.83344E+02-5.49693E-01 4.78144E+01
 -1      6717 5.98619E+02 1.25915E+02 6.57125E+01-2.83780E+02-1.35988E-02-4.38973E+01
 -1      6718 5.57331E+02 7.30245E+01 2.18320E+01-1.94362E+02-3.96497E+00 4.13117E+01
 -1      6719 8.27428E+02 1.73385E+02 1.24947E+02-2.75360E+02-1.22178E+00 2.34681E+01
 -1      6720 8.74772E+02 2.22354E+02 2.13039E+02-2.90208E+02-2.40165E+01 5.75627E+00
 -1      6721 5.67973E+02 5.64418E+01 2.05491E+01-2.37835E+02-2.85848E-01 3.78436E+01
 -1      6722 8.36286E+02 1.74001E+02 1.27097E+02-2.79036E+02 8.33622E-01-2.57613E+01
 -1      6723 5.61806E+02 7.12874E+01 2.31931E+01-1.95812E+02 3.69176E+00-3.99694E+01
 -1      6724 7.95490E+02 2.12799E+02 1.89500E+02-2.90983E+02 2.41654E+01 3.24140E+00
 -1      6725 5.69967E+02 5.72914E+01 2.25717E+01-2.37202E+02 1.39558E+00-3.87359E+01
 -1      6726 5.67475E+02 8.41803E+01 3.73331E+01-2.39934E+02 1.93528E+01-3.49248E+01
 -1      6727 5.70400E+02 8.81343E+01 3.93362E+01-2.40829E+02-1.71468E+01 3.11067E+01
 -1      6728 6.45829E+02 1.45996E+02 9.17795E+01-3.11814E+02-1.80650E+01 2.25393E+01
 -1      6729 6.95270E+02 1.57985E+02 1.11492E+02-2.99899E+02 1.88462E+01-2.26881E+01
 -1      6730 8.26087E+02 1.72608E+02 1.88706E+02-2.83555E+02-2.10385E+01-2.30217E+00
 -1      6731 7.62449E+02 1.91956E+02 1.65063E+02-2.66581E+02 1.00609E+01-5.59165E+00
 -1      6732 3.91551E+02 5.35137E+01 2.69871E+01 1.39814E+02-1.72266E+00-2.53091E+00
 -1      6733 3.34867E+02 5.47992E+01 2.71555E+00 1.38777E+02-1.69810E+01-6.04408E+01
 -1      6734 3.41648E+02 5.52891E+01-2.48596E+00 1.40568E+02 1.64394E+01 6.70864E+01
 -1      6735 6.22856E+02 6.77423E+01 6.81846E+01 1.19399E+02-1.38096E+01-6.10593E+01
 -1      6736 2.75640E+02 2.39506E+01-3.11722E+00 7.53937E+01-1.51336E+01-4.57938E+01
 -1      6737 2.89688E+02 2.19668E+01-2.42642E+01 1.15804E+02-1.49700E+01-4.94935E+01
 -1      6738 7.27139E+02 1.47572E+02 1.73383E+02 1.47553E+02-1.74760E+01-5.65781E+01
 -1      6739 6.14769E+02 6.84488E+01 6.79921E+01 1.19066E+02 1.58545E+01 6.63314E+01
 -1      6740 2.78562E+02 2.42217E+01-4.76589E+00 7.58307E+01 1.52785E+01 4.86416E+01
 -1      6741 2.90999E+02 2.13400E+01-3.00798E+01 1.17580E+02 1.38862E+01 4.85916E+01
 -1      6742 8.49882E+02 1.81609E+02 1.95119E+02 1.46665E+02 2.60349E+01 6.65767E+01
 -1      6743 8.98250E+02 1.48435E+02 1.98883E+02 1.56526E+02-3.83168E-01 2.25210E+01
 -1      6744 8.22729E+02 1.57195E+02 2.08145E+02 1.27244E+02-8.21956E+00-3.02614E+01
 -1      6745 4.63413E+02 6.60994E+01 4.60721E+01 1.70336E+02-1.31608E+01-4.35687E+01
 -1      6746 4.00441E+02 4.62520E+01 1.71878E+01 1.88629E+02 1.43411E+01 3.83860E+01
 -1      6747 3.06024E+02 3.05002E+01-1.78049E+01 1.19728E+02 1.60207E+01 3.62191E+01
 -1      6748 3.03124E+02 2.71496E+01-1.97896E+01 1.17978E+02-1.61877E+01-3.84449E+01
 -1      6749 1.88839E+02-1.25228E+01 5.76715E+00-1.90477E+01-5.07504E+00-3.61398E+01
 -1      6750 2.08344E+02-2.75620E+01-1.95831E+01-4.43291E+01-4.38473E-01 1.95879E-01
 -1      6751 1.88576E+02-1.26269E+01 5.31961E+00-1.91844E+01 5.38934E+00 3.56023E+01
 -1      6752 2.12132E+02-8.60604E+00 4.18072E+00-2.28609E+00-3.67283E+00-3.43421E+01
 -1      6753 9.57728E+01-1.21160E+01 8.93066E+00-6.41769E+01-8.15279E+00-3.98522E+01
 -1      6754 7.71775E+01-1.29609E+01-1.17822E+01-5.70884E+01-9.98095E+00-4.06927E+01
 -1      6755 1.92579E+02-2.60788E+01-3.91321E+01 2.54849E+01-1.23406E+01-3.13432E+01
 -1      6756 2.13036E+02-8.63342E+00 4.07514E+00-2.75100E+00 3.88267E+00 3.42979E+01
 -1      6757 9.65492E+01-1.22853E+01 8.50275E+00-6.39457E+01 8.28413E+00 3.99348E+01
 -1      6758 7.83688E+01-1.26662E+01-1.15363E+01-5.66766E+01 1.03053E+01 3.98463E+01
 -1      6759 1.90898E+02-2.73054E+01-4.04864E+01 2.60462E+01 1.23594E+01 3.07013E+01
 -1      6760 2.19621E+02-2.60655E+01-3.64091E+01 1.76494E+01 4.57345E+00 3.51017E+01
 -1      6761 2.21425E+02-2.64045E+01-3.44753E+01 1.71226E+01-4.93466E+00-3.46555E+01
 -1      6762 2.02827E+02-1.61732E+00 5.27319E-01-2.45159E+01-3.30849E+00-3.33923E+01
 -1      6763 2.02533E+02-1.62235E+00-2.78935E-01-2.42127E+01 3.04048E+00 3.32194E+01
 -1      6764 8.84897E+01-5.79170E+01-2.65713E+01-9.15161E+01 5.10184E-01 1.38685E+01
 -1      6765 8.76236E+01-5.79322E+01-2.58492E+01-9.19444E+01-1.18613E+00-1.39078E+01
 -1      6766-7.44186E+01-1.85899E+02-3.84217E+01-1.24289E+02-7.15795E-01 1.61287E-01
 -1      6767-8.20553E+01-1.77738E+02-3.13005E+01-1.22116E+02-1.87468E+01-8.75848E+00
 -1      6768-9.47102E+01-1.83929E+02-3.76560E+01-1.28277E+02 1.94289E+01 1.09163E+01
 -1      6769-8.73667E+01-2.24525E+02-5.84999E+01-1.26938E+02-2.80930E+01-1.96763E+01
 -1      6770-6.13421E+01-1.40678E+02 2.33712E+00-1.01553E+02-8.92539E+00-5.50328E+00
 -1      6771-7.46633E+01-1.46151E+02-1.52821E+01-1.22633E+02-1.31040E+01-6.12921E+00
 -1      6772-9.35743E+01-1.99676E+02-7.06979E+01-1.26097E+02-1.83440E+01-2.39356E+01
 -1      6773-9.38497E+01-1.46457E+02-1.03671E+01-1.07262E+02 1.05725E+01 6.97619E+00
 -1      6774-8.48070E+01-2.22888E+02-5.53704E+01-1.27456E+02 2.80855E+01 1.92089E+01
 -1      6775-8.77657E+01-1.47459E+02-1.47169E+01-1.26550E+02 1.38115E+01 6.51296E+00
 -1      6776-8.15841E+01-1.91034E+02-5.71740E+01-1.21560E+02 1.63233E+01 1.53333E+01
 -1      6777-7.37391E+01-1.98219E+02-5.75037E+01-1.26718E+02 5.20518E+00 2.11874E+00
 -1      6778-7.57032E+01-1.96991E+02-5.13724E+01-1.26042E+02-5.71337E+00-4.23748E+00
 -1      6779-7.87590E+01-1.79676E+02-4.25972E+01-1.21758E+02-1.25025E+01-7.78151E+00
 -1      6780-7.66702E+01-1.79153E+02-4.36371E+01-1.22771E+02 1.16292E+01 8.26154E+00
 -1      6781-6.84818E+01-1.50126E+02-2.04515E+01-1.20967E+02-8.16766E+00-2.86529E+00
 -1      6782-6.85509E+01-1.51669E+02-2.06289E+01-1.21349E+02 7.41956E+00 2.72743E+00
 -1      6783-1.97657E+02-7.63567E+01-1.39920E+01-1.47628E+02-2.08546E+01-1.70785E+01
 -1      6784-2.10741E+02-1.23475E+02-2.10644E+01-1.72433E+02 1.80842E+01 1.38785E+01
 -1      6785-2.03440E+02-1.66254E+02-6.55087E+01-1.95925E+02-1.61479E-01 1.41408E-01
 -1      6786-1.55916E+02-7.57473E+01 1.87847E+00-1.09409E+02-1.27780E+01-2.03307E+01
 -1      6787-2.38643E+02-1.39087E+02-3.37902E+01-2.01677E+02-1.20564E+01-1.12995E+01
 -1      6788-2.93705E+02-2.11537E+02-9.38331E+01-2.06406E+02-1.47218E+01-1.38116E+01
 -1      6789-1.38529E+02-8.01639E+01-5.29857E+00-1.24852E+02-1.83565E+01-1.39552E+01
 -1      6790-1.69602E+02-9.87625E+01-1.49778E+00-1.21602E+02 9.15422E+00 2.03352E+01
 -1      6791-2.35954E+02-2.08849E+02-4.11692E+01-1.93335E+02 1.58837E+01 1.71928E+00
 -1      6792-2.64095E+02-2.28847E+02-9.53376E+01-1.88593E+02 2.66386E+01 2.31046E+01
 -1      6793-1.40858E+02-9.34489E+01-5.99041E+00-1.30233E+02 2.05655E+01 1.62060E+01
 -1      6794-1.38273E+02-1.11653E+02-2.68517E+01-1.46639E+02 6.50454E+00 6.40543E+00
 -1      6795-1.35329E+02-1.10132E+02-2.40991E+01-1.47687E+02-7.62695E+00-6.65077E+00
 -1      6796-2.10884E+02-1.48220E+02-5.51273E+01-1.78209E+02-1.26415E+01-1.49055E+01
 -1      6797-2.16798E+02-1.54007E+02-5.72887E+01-1.83095E+02 1.27023E+01 1.47944E+01
 -1      6798-2.53079E+02-2.53539E+02-1.11811E+02-2.06956E+02-6.59666E-01 5.23070E-01
 -1      6799-2.61280E+02-2.57515E+02-1.16791E+02-2.12545E+02 7.50851E-01-3.79716E-01
 -1      6800 1.81687E+00-2.49151E+02-2.71557E+00-3.74492E+01 9.99700E+00 3.82911E+00
 -1      6801-1.31237E+00-2.22477E+02 2.66411E+00-3.01249E+01-9.62655E+00-4.29490E+00
 -1      6802-2.73520E+01-2.89325E+02-3.88465E+01-8.60629E+01-4.18467E-01 3.33996E-01
 -1      6803-3.72130E+01-3.40566E+02-2.63151E+01-7.89261E+01 8.69038E+00 7.60439E+00
 -1      6804-6.01320E+00-1.61241E+02 1.34795E+01-1.79015E+01 7.40655E+00 4.28914E-01
 -1      6805 3.42994E+00-1.71973E+02 1.91408E+01-2.45296E+01 1.15682E+01 3.58565E+00
 -1      6806-8.58443E+01-4.16428E+02-8.99480E+01-1.17290E+02 6.75474E+00 1.18351E+01
 -1      6807-3.86523E+01-3.34042E+02-2.65085E+01-7.35698E+01-1.02646E+01-5.28301E+00
 -1      6808-1.85854E+00-1.58449E+02 1.52995E+01-2.00021E+01-9.41144E+00-4.10213E+00
 -1      6809 6.95513E+00-1.83859E+02 1.80986E+01-3.38967E+01-1.12818E+01-5.68024E+00
 -1      6810-6.63781E+01-4.10984E+02-8.38923E+01-9.88892E+01-5.95354E+00-8.67889E+00
 -1      6811-1.22689E+02-4.07538E+02-1.16120E+02-1.49547E+02 4.41698E+00 9.16224E+00
 -1      6812-1.32808E+02-4.13959E+02-1.24559E+02-1.53846E+02-3.51407E+00-1.15021E+01
 -1      6813-1.33320E+01-2.79563E+02-2.73778E+01-6.81822E+01 9.32946E+00-1.28628E+00
 -1      6814-1.05593E+01-2.69857E+02-2.29438E+01-5.81420E+01-4.77219E+00 3.04412E+00
 -1      6815 8.95791E+00-1.93432E+02 1.24413E+01-4.78591E+01-7.06620E+00 7.67908E-01
 -1      6816-1.49996E+00-1.92620E+02 9.04402E+00-4.61809E+01 5.26019E+00 3.48762E-01
 -1      6817-2.13842E+01-1.45002E+02 1.56824E+00-6.18485E+01 7.35399E-01 3.96501E-01
 -1      6818-2.55963E+01-1.63756E+02-2.41969E+00-6.33774E+01-1.24273E+00 6.82202E-01
 -1      6819-2.67325E+01-1.76145E+02-7.96021E+00-6.45695E+01-1.02617E+00-1.57128E-01
 -1      6820-1.64515E+01-1.35993E+02 9.53763E+00-5.95616E+01-6.12718E-02-4.26912E+00
 -1      6821-3.86751E+01-1.96843E+02-1.93353E+01-6.89570E+01 3.68264E+00 1.76349E+00
 -1      6822-4.31073E+01-2.38649E+02-4.44094E+01-7.09933E+01 1.65711E+00 3.41912E+00
 -1      6823-1.10040E+01-1.41974E+02 1.48908E+01-5.79458E+01 4.07130E+00 3.15256E+00
 -1      6824-3.48476E+01-2.11253E+02-2.17882E+01-6.71889E+01-2.57433E+00-1.13346E+00
 -1      6825-1.93278E+01-1.39837E+02 7.87273E+00-6.05385E+01-1.25401E+00 4.26908E+00
 -1      6826-5.39142E+01-2.35946E+02-4.62599E+01-5.61421E+01 5.91268E+00-1.79568E+00
 -1      6827-7.88345E+00-1.32033E+02 2.18835E+01-5.64518E+01-3.80368E+00-1.32254E+00
 -1      6828-9.82609E+00-1.45128E+02 1.65132E+01-5.92908E+01-7.03732E-01-1.51792E+00
 -1      6829-1.41646E+01-1.48459E+02 1.54799E+01-6.25328E+01 3.98272E-01 8.53592E-01
 -1      6830-2.79445E+01-1.72261E+02-8.57923E+00-7.05446E+01 1.90731E+00 1.15729E+00
 -1      6831-3.10665E+01-1.83510E+02-1.29598E+01-6.68925E+01-3.61104E+00-4.03416E-01
 -1      6832-4.34393E+01-2.59392E+02-5.36412E+01-5.48761E+01 4.46387E+00-9.09664E-02
 -1      6833-5.04852E+01-2.46437E+02-5.43322E+01-5.39736E+01-1.10631E+01 3.32750E+00
 -1      6834 3.01414E-01-8.64737E+01 1.19205E+00 2.17968E+01 1.18640E+01-3.22303E+00
 -1      6835-4.16732E+00-9.26050E+01-4.23311E-01 2.51495E+01-1.22374E+01 5.35485E+00
 -1      6836-3.41547E+00-1.33741E+02-1.25755E+01 2.83832E+01 8.54457E-01-1.37212E+00
 -1      6837-8.38342E+00-1.42713E+02-7.07433E+00 1.97615E+01 1.59635E+01-3.51652E-01
 -1      6838-2.72050E+00-5.27722E+01 4.01542E+00 1.61931E+01 1.04948E+01-6.91015E+00
 -1      6839-4.10345E+00-5.86635E+01 7.21178E+00 1.63104E+01 1.06024E+01-2.63799E+00
 -1      6840-2.84479E+01-2.04079E+02-3.79475E+01 2.29683E+01 1.25419E+01-1.11025E+00
 -1      6841-9.26711E+00-1.56744E+02-9.30857E+00 2.07387E+01-1.57975E+01 1.83499E+00
 -1      6842-4.93423E+00-5.62372E+01 4.19422E+00 1.64078E+01-8.81063E+00 7.53098E+00
 -1      6843-5.08688E+00-5.28481E+01 9.23470E+00 2.02785E+01-1.09965E+01 3.16928E+00
 -1      6844-3.12228E+01-1.73788E+02-3.67225E+01 2.16145E+01-1.84920E+01 1.88374E+00
 -1      6845-3.05412E+01-1.82775E+02-3.86264E+01 2.37085E+01 1.29888E+00 2.78030E-01
 -1      6846-2.43032E+01-2.14901E+02-4.43438E+01 1.96527E+01 4.60078E+00-2.76807E+00
 -1      6847 4.17476E-03-1.24112E+02-9.88363E+00 2.68086E+01 6.33842E+00-4.74203E+00
 -1      6848-4.05617E+00-1.21069E+02-9.33816E+00 2.62991E+01-8.35114E+00 4.09253E+00
 -1      6849 3.08701E+00-6.42018E+01 8.95683E+00 2.02913E+01-2.69055E+00 2.15627E+00
 -1      6850-3.13324E+00-6.16145E+01 6.43008E+00 1.96541E+01 5.17872E+00-2.96396E+00
 -1      6851 1.94139E-01-3.56537E+01-2.64949E-01-2.17259E+00 8.83249E+00-1.22047E+00
 -1      6852 1.79432E+00-3.87403E+01 8.42667E-01 9.09362E-03-7.84750E+00 1.43157E+00
 -1      6853 2.28389E+00-3.28137E+01 3.71816E+00-2.26936E+00-2.01543E-02 1.20951E-01
 -1      6854 6.71816E+00-3.87617E+01 2.88312E+00 5.48850E-01 6.43125E+00-4.03993E-01
 -1      6855 2.70948E+00-3.04105E+01-4.59513E+00-8.10011E+00 9.88850E+00-2.93160E+00
 -1      6856 3.44207E+00-1.76883E+01 1.15009E-01-7.75892E+00 8.73027E+00-1.77994E+00
 -1      6857-5.64072E-01-4.31472E+01 4.95918E+00 4.17917E+00 7.48317E+00-1.48405E+00
 -1      6858 6.55901E+00-3.93564E+01 3.48820E+00 7.43850E-01-6.22239E+00 1.30137E+00
 -1      6859 3.08142E+00-2.97573E+01-3.25960E+00-7.60218E+00-9.23105E+00 1.94055E+00
 -1      6860 5.29776E+00-2.02386E+01 2.54318E+00-4.54911E+00-8.31891E+00 1.83662E+00
 -1      6861 4.28810E-01-4.71146E+01 4.65221E+00 5.64837E+00-6.06631E+00 1.22079E+00
 -1      6862 3.08961E+00-4.27382E+01 7.47146E+00 4.00712E+00-2.92834E+00-2.41591E-01
 -1      6863 3.11497E+00-4.14122E+01 7.83477E+00 3.61166E+00 4.09177E+00-2.59895E-01
 -1      6864 1.81362E+00-3.37040E+01 3.60852E+00-2.40480E+00 5.17824E+00-1.14253E+00
 -1      6865 1.72440E+00-3.46263E+01 2.21264E+00-1.68439E+00-5.48651E+00 6.48116E-01
 -1      6866 2.50685E+00-2.15012E+01-1.15707E-03-4.62652E+00-2.73907E+00 2.03821E+00
 -1      6867 3.42365E+00-1.78465E+01 4.35025E-01-7.42854E+00 2.50015E+00-1.71430E+00
 -1      6868 3.01843E+01 1.11745E+01 9.18415E-01-2.01638E+01 3.85818E+00-4.54868E+00
 -1      6869 3.18190E+01 1.52416E+01 2.60749E+00-2.15009E+01-4.59109E+00 5.52979E+00
 -1      6870 3.04033E+01 1.09475E+01 6.00574E-01-1.80098E+01-5.15902E-01 4.90825E-01
 -1      6871 3.73442E+01 1.12954E+01 5.77831E+00-2.15734E+01 5.34703E+00-5.76509E+00
 -1      6872 2.72472E+01 1.21665E+01-2.02707E+00-1.99531E+01 3.14571E+00-2.81682E+00
 -1      6873 2.37496E+01 1.24887E+01-4.83245E+00-2.29077E+01 3.97551E+00-4.06783E+00
 -1      6874 2.89209E+01 1.04852E+01 4.94761E+00-1.69539E+01 4.73800E+00-5.02518E+00
 -1      6875 3.66037E+01 1.06093E+01 6.46531E+00-2.12906E+01-5.82964E+00 5.90075E+00
 -1      6876 2.84885E+01 2.08394E+01 1.43970E+00-2.24704E+01-4.33436E+00 2.84956E+00
 -1      6877 2.67563E+01 1.61919E+01-4.16961E+00-2.39146E+01-4.33165E+00 4.93362E+00
 -1      6878 2.94062E+01 1.27673E+01 6.20309E+00-1.82933E+01-5.02373E+00 5.43743E+00
 -1      6879 2.81575E+01 1.22264E+01-4.35891E+00-2.08662E+01-1.28292E+00 1.94053E+00
 -1      6880 2.39976E+01 1.06701E+01-6.95487E+00-2.12888E+01 1.42408E+00-2.97500E+00
 -1      6881 3.10116E+01 1.20525E+01 1.42458E+00-1.88559E+01 2.29222E+00-3.65315E+00
 -1      6882 3.02995E+01 1.26199E+01 1.85835E+00-1.99881E+01-2.76932E+00 4.00731E+00
 -1      6883 3.00993E+01 1.37028E+01 7.50716E+00-1.72672E+01-3.20954E+00 2.04389E+00
 -1      6884 2.89054E+01 1.19714E+01 6.92239E+00-1.67412E+01 1.69294E+00-1.82762E+00
 -1      6885-1.05127E+04 1.19692E+05-5.70818E+03-1.17786E+05-1.03144E+03 2.86603E+02
 -1      6886-2.23551E+03-1.73278E+04-2.87608E+01 1.42497E+04 8.09482E+01 2.20819E+01
 -1      6887-4.84477E+03-2.65642E+03 1.14680E+01 3.85868E+04-1.00729E+01 6.98774E+00
 -1      6888 1.13005E+05-2.96713E+05-5.05902E+02 3.48635E+04 2.33105E+02-4.66106E+01
 -1      6889 1.00923E+04 2.89333E+04 2.30167E+02-1.25755E+05 7.25179E+02-4.65905E+02
 -1      6890-1.19037E+04 1.52493E+05 1.00095E+03 1.72852E+04 4.47128E+02 5.28986E+02
 -1      6891-2.22898E+04 2.31517E+05-7.87101E+02 8.06835E+04-2.14723E+02-1.11292E+03
 -1      6892-3.66452E+04 2.05019E+05 1.03488E+03 5.76414E+04 2.09495E+02-6.73124E+02
 -1      6893-1.51081E+03-9.74948E+04-2.21161E+01 3.01009E+04-2.05108E+01 2.03649E+01
 -1      6894 3.01380E+04-4.23559E+05 4.37305E+04 8.96119E+04-1.28731E+02 3.76815E+02
 -1      6895 1.38140E+05-2.55670E+05-1.62857E+04-5.32988E+04 6.10150E+03-8.84658E+01
 -1      6896 6.76950E+04-3.42668E+05 7.72650E+03-3.90404E+04 8.00703E+02-1.00225E+03
 -1      6897-1.03492E+04-5.17531E+05 6.74054E+04-8.71859E+03 8.68901E+02 1.93028E+02
 -1      6898 5.03219E+04-2.64629E+05 3.18796E+02 7.55171E+04-6.36001E+01 2.11194E+02
 -1      6899 3.79251E+03-1.85978E+05 1.40535E+03-1.33562E+04 1.23174E+02-3.59964E+02
 -1      6900-1.29607E+04 3.54252E+04-1.35641E+03-1.63388E+05-6.85486E+01-1.07609E+03
 -1      6901 2.88393E+04 5.54361E+05-7.11488E+04 1.71518E+04-1.94053E+03 4.09884E+02
 -1      6902-8.90143E+03 3.49373E+05-2.05319E+04 1.25211E+05-2.19489E+01 1.49279E+03
 -1      6903-4.60697E+03-2.00053E+03 2.17941E+01 1.53246E+04-1.95531E+00-1.79912E+01
 -1      6904 5.46497E+04-2.42103E+05 6.63200E+02 9.01910E+03-2.04874E+02-3.13830E+02
 -1      6905 8.78800E+04-2.56842E+05 1.74166E+03 1.30712E+04 2.42792E+02-3.08061E+02
 -1      6906-1.50328E+05 2.40764E+05 1.06335E+04-3.04790E+04-8.03792E+01 1.72529E+03
 -1      6907-1.77955E+04 2.46590E+05-2.05538E+04-9.25951E+04 2.73471E+02 3.59711E+02
 -1      6908-1.13967E+04 1.39150E+05-6.87834E+02-3.48642E+04-9.15472E+02 5.39132E+01
 -1      6909-6.88174E+04 2.98456E+05-1.72118E+03 6.31041E+04-1.02830E+03-1.35442E+03
 -1      6910 2.45027E+04-1.45408E+05-4.28960E+01-6.26411E+03 6.56301E+02 1.07965E+01
 -1      6911-3.78273E+03-7.56495E+04-3.13011E+03-1.21914E+05-5.71677E+02 5.94127E+02
 -1      6912 3.35382E+04-1.88971E+05 9.57098E+03-8.27834E+04 9.57079E+01-2.70181E+01
 -1      6913-4.27511E+04 1.78824E+05 1.21168E+03-6.70732E+04 2.04028E+01 9.25977E+01
 -1      6914-3.55791E+04 3.20590E+05-1.48077E+04 2.04762E+04 2.67519E+02-2.06677E+01
 -1      6915 4.57250E+04-3.75586E+04-2.94814E+03-6.89884E+04 2.08521E+02 5.47006E+01
 -1      6916-1.26281E+04-2.91166E+05 5.44848E+04-1.49686E+05 5.22902E+03 1.99357E+03
 -1      6917-2.48220E+04-1.37088E+05 3.00284E+04-6.75274E+04 3.70059E+02 4.64622E+03
 -1      6918-1.11596E+05 3.61602E+05 3.61161E+03 3.20864E+04-2.09864E+03 5.48399E+03
 -1      6919 5.58365E+04 5.44056E+05-7.48876E+04 1.36053E+05 3.03650E+04 8.09616E+03
 -1      6920 1.14336E+05 7.81492E+05 5.34601E+04 2.27321E+05-1.62659E+03 1.36669E+03
 -1      6921-1.36711E+04 1.82736E+05 1.19946E+03 5.86571E+04 3.37705E+02-1.64393E+02
 -1      6922 1.30242E+04 4.29228E+05-5.84421E+04-1.32715E+05 5.94766E+03-8.98921E+02
 -1      6923-4.65621E+04 1.94033E+05 1.02875E+03 1.66160E+04-3.86348E+01-7.00134E+01
 -1      6924 3.00983E+04-1.36399E+05-1.02604E+03-5.45724E+04 8.43520E+01 2.93766E+02
 -1      6925-1.01793E+05-7.25741E+03-3.40889E+03-1.07620E+05-7.77760E+02 1.51030E+02
 -1      6926 1.78347E+04-1.50296E+05-3.52898E+02 1.98870E+04-3.42435E+02-6.01606E+01
 -1      6927-5.16921E+02-5.94984E+02-8.34672E+01 3.10473E+00 9.25898E+00 1.61185E+01
 -1      6928 1.26383E+05-2.51159E+05-2.75562E+02 3.86058E+04-2.20862E+03 1.93663E+03
 -1      6929 1.18654E+05-2.22021E+05-2.74797E+03 3.69223E+04-1.02131E+01-1.71231E+03
 -1      6930-6.94666E+01-1.10754E+02-1.36938E+01-5.64716E+01 1.55316E+00 3.19231E-01
 -1      6931 1.39973E+05 1.59758E+06-2.77855E+03 1.40658E+05-5.11799E+01 7.66736E+02
 -1      6932 7.39971E+04-4.81857E+04-3.54837E+03-1.98732E+05-3.06471E+03-6.98187E+02
 -1      6933 7.67971E+03-1.18769E+05-5.94373E+01 2.04174E+03 1.77822E+02 4.44380E+01
 -1      6934-7.31496E+04-1.33013E+06 1.36033E+03 8.58067E+04 2.80453E+02-3.53657E+01
 -1      6935-6.62574E+03 1.25100E+05-2.06362E+03-9.21233E+04 1.18413E+03 3.61957E+02
 -1      6936-5.04898E+04 2.37370E+05-7.53445E+03 3.60648E+04-6.04248E+01-1.06572E+03
 -1      6937 7.92378E+04-3.11837E+05 5.37986E+03 6.18245E+04-5.78078E+02-3.75209E+02
 -1      6938 2.49643E+04-1.89496E+05-1.13045E+03 4.72984E+04 3.02571E+02 2.08712E+02
 -1      6939 1.12973E+04 2.38232E+05-2.62387E+03 1.20046E+05 1.88329E+03 9.28829E+02
 -1      6940 2.23148E+04 3.91146E+04 4.38712E+02-9.95550E+04-1.30393E+02 5.46837E+02
 -1      6941 2.18484E+04 1.94570E+05-1.14835E+03 1.08243E+05 3.04796E+02-9.36733E+02
 -1      6942 9.94617E+04-9.05577E+04-3.29939E+03 4.96885E+03 1.48192E+03 1.25258E+03
 -1      6943 3.34019E+03-2.58579E+04 1.55145E+03-1.40869E+05 2.43226E+03 1.12110E+03
 -1      6944 9.00031E+04-3.00295E+05 2.39219E+03 2.85666E+03 2.47719E+02 4.07091E+01
 -1      6945 8.90447E+04-2.98030E+05 1.13776E+03 1.72775E+03-5.49320E+02-4.92509E+02
 -1      6946 1.36411E+04 1.46988E+05 7.05706E+03-1.02063E+05 2.16254E+01 8.34342E+02
 -1      6947-4.96730E+01 1.58231E+02 6.63158E+01-4.54392E+01 1.86673E+00-6.68261E-01
 -1      6948-1.08243E+03 1.78212E+02 1.10152E+01 2.11126E+02 3.26893E+00 1.81145E+00
 -1      6949-5.99697E+01 1.25894E+02 8.20866E+01-4.66788E+01-6.87391E-01 2.58474E+01
 -1      6950-1.08293E+03 1.95595E+02 2.44573E+01 2.03801E+02-7.69313E+00-1.16201E+01
 -1      6951-2.67914E+03-9.66209E+02 6.90574E+01-1.67020E+03 1.41958E+02-1.05470E+01
 -1      6952-8.03716E+03-5.65713E+02-1.21303E+02-1.17250E+03 1.57956E+02 2.70413E+01
 -1      6953-5.69060E+03 4.99377E+01-5.53085E+01-1.27637E+03 3.77285E+00-5.53761E+01
 -1      6954-9.02974E+03 6.13993E+02-7.55706E+01-1.32551E+02-2.44828E+01 9.54711E+00
 -1      6955-7.93175E+03-5.51997E+02-2.26070E+02-1.24711E+03-1.34279E+02-3.34710E+01
 -1      6956-1.37565E+03 1.36430E+02 1.40086E-01 3.29552E+02 1.83900E+00 3.81347E+00
 -1      6957 7.18210E+01 6.46713E+01 5.49409E+01-1.06425E+02-5.53979E-01 1.63026E+01
 -1      6958-1.61429E+01 5.84126E+01 4.36089E+01-7.86070E+01-8.73742E+00-1.37534E+00
 -1      6959-1.27918E+04 2.70090E+05-7.99285E+03 9.94742E+04 2.34235E+01 1.59639E+03
 -1      6960-6.99165E+03 3.06046E+05-9.98798E+03 1.18862E+05-1.73941E+03 1.09678E+03
 -1      6961-1.98701E+04 2.56442E+05-8.36887E+02 9.55725E+04-3.84346E+02-2.49799E+02
 -1      6962-4.09828E+04 2.67966E+05-7.80422E+02 7.33942E+04-2.21564E+03-1.51011E+03
 -1      6963-4.13771E+04 2.91778E+05-1.62296E+03 8.58326E+04-2.28358E+02-1.04006E+03
 -1      6964-3.41901E+04 3.04099E+05-7.61460E+03 9.04401E+04 1.34008E+00-3.95634E+02
 -1      6965 1.40766E+04-4.04393E+05 2.97102E+04-3.43794E+03 2.22470E+04 3.85229E+03
 -1      6966-7.31618E+03-4.82059E+05 5.15607E+04 4.45731E+04-1.52384E+02 3.40743E+02
 -1      6967 2.73597E+04-3.89923E+05 1.77430E+04 4.90915E+04 1.37299E+04 2.04232E+03
 -1      6968 6.22886E+04-2.97721E+05 4.63882E+03 1.32547E+03 5.55790E+03 2.36516E+03
 -1      6969 6.06671E+04-3.34837E+05 1.71469E+04 5.18306E+04-5.07325E+02 1.46830E+01
 -1      6970 4.88792E+04-3.36623E+05 2.74730E+04 1.78124E+03 3.23074E+02-9.79029E+01
 -1      6971 1.41784E+04-4.07230E+05 3.09984E+04-2.66981E+03-2.19245E+04-3.80272E+03
 -1      6972 2.76126E+04-3.90100E+05 1.86660E+04 4.92367E+04-1.38584E+04-2.02169E+03
 -1      6973 6.21901E+04-2.98505E+05 3.99349E+03 1.99702E+03-6.03354E+03-2.18084E+03
 -1      6974-5.68783E+03 9.32090E+04-2.67043E+03-1.18766E+05-8.82135E+02-1.51866E+03
 -1      6975 7.72522E+03 5.64742E+04 6.54648E+02-1.25457E+05-4.66412E+02-1.43570E+03
 -1      6976-1.28613E+04 1.62369E+05 1.65837E+03-7.04184E+04-6.01274E+02 7.80652E+02
 -1      6977-1.76053E+03 1.03005E+05-7.92479E+02-8.03605E+04 5.03322E+02-4.36658E+02
 -1      6978 1.88717E+03 8.32680E+04-5.55713E+02-8.91703E+04-3.22910E+02-6.61350E+02
 -1      6979-1.34436E+05-9.66383E+05-1.29986E+05 1.38998E+05 1.62986E+03 1.78049E+03
 -1      6980-7.78249E+04-6.99351E+05 3.18962E+04 4.03584E+04-8.35391E+04 2.81044E+04
 -1      6981-5.80229E+04-6.96242E+05 4.37697E+04 4.06751E+04 8.31250E+04-2.83219E+04
 -1      6982-6.49844E+04-5.86199E+05 3.47621E+04-3.66133E+04 7.58679E+04-2.28318E+04
 -1      6983-2.52997E+04-4.19963E+05 5.97966E+04-7.38842E+04 3.57093E+03 3.25782E+02
 -1      6984-7.57443E+04-6.02361E+05 1.58118E+04-3.44626E+04-6.67201E+04 2.32678E+04
 -1      6985 2.16138E+04 2.43333E+05 4.01224E+04-1.74617E+05-2.21786E+03-5.36968E+02
 -1      6986-2.15525E+04-2.76210E+03-1.11258E+04-1.91941E+05-2.12872E+04-2.83664E+03
 -1      6987-1.06769E+04 1.04954E+05-6.59526E+03-1.77267E+05-8.49516E+03 1.88677E+04
 -1      6988-2.77636E+04-7.68093E+04-4.08363E+03-1.74952E+05-1.29126E+04-2.25346E+04
 -1      6989 1.02025E+03 1.18359E+05 2.21540E+02-1.67082E+05 1.14404E+04-2.54315E+04
 -1      6990-3.18856E+04-9.11842E+04 6.64570E+03-1.64953E+05 1.32721E+04 2.39747E+04
 -1      6991-6.36465E+04-2.72334E+05-5.19774E+04-1.76695E+05 5.79077E+03-1.46630E+03
 -1      6992-4.61960E+04-2.84577E+05 2.50877E+04-1.45188E+05 3.16968E+04 2.56740E+04
 -1      6993-4.96205E+04-3.04502E+05 9.81758E+03-1.57356E+05-2.55887E+04-1.73273E+04
 -1      6994-1.68170E+04-1.24212E+05 1.74307E+04-1.55722E+05 1.27161E+03 1.73439E+03
 -1      6995 1.19492E+05-2.83587E+05-7.55305E+02 3.52281E+04 2.54139E+02 9.89414E+02
 -1      6996 1.27024E+05-2.65547E+05 4.43102E+02 3.66407E+04-2.29440E+03 1.91717E+03
 -1      6997 1.19139E+05-2.91526E+05 4.87403E+01 3.74731E+04-1.12455E+02 1.03547E+03
 -1      6998 1.17138E+05-2.61436E+05-3.02217E+03 3.41082E+04 2.77604E+02-7.78053E+02
 -1      6999 1.25055E+05-2.44528E+05 8.18661E+02 3.53114E+04-2.49749E+02 3.17930E+02
 -1      7000 1.26209E+05-2.26034E+05-1.70208E+03 3.88616E+04-3.14052E+03 1.20710E+03
 -1      7001 2.30146E+04 3.49185E+05-1.27544E+04-1.42777E+05-2.43731E+04 1.93784E+04
 -1      7002-6.14998E+03 2.20382E+05-2.41907E+04-1.51162E+05 2.93183E+03-1.90127E+03
 -1      7003 2.65192E+04 3.37314E+05-8.27949E+03-1.40541E+05 2.87919E+04-2.50697E+04
 -1      7004 3.63674E+04-2.70140E+05 7.89516E+03-4.52783E+04 8.71719E+03 2.44567E+03
 -1      7005 5.87226E+04-2.24097E+05 4.40011E+03-3.18132E+04 1.48680E+02-1.80589E+02
 -1      7006 1.67608E+04-3.23790E+05 3.37347E+04-4.43673E+04 7.32706E+02 6.03198E+00
 -1      7007 3.65939E+04-2.70553E+05 8.28884E+03-4.49055E+04-8.91352E+03-2.52935E+03
 -1      7008-2.62036E+05-8.58256E+05-6.65855E+04 4.07031E+05 8.16364E+04-4.04888E+04
 -1      7009-1.57124E+05-5.78869E+05 3.13968E+04 2.55860E+05-4.21690E+02 3.19454E+02
 -1      7010-8.23187E+04-5.53948E+05 3.35822E+04 1.77432E+05 6.23023E+04-2.43608E+04
 -1      7011-9.05856E+04-6.61950E+05 3.36460E+04 1.25526E+05 8.40476E+04-4.04894E+04
 -1      7012-1.03923E+05-6.46698E+05 4.04943E+04 1.86470E+05-1.46530E+03 1.91791E+03
 -1      7013-7.67814E+04-5.50996E+05 3.56323E+04 1.77040E+05-6.32858E+04 2.42786E+04
 -1      7014-2.62331E+05-8.51534E+05-6.17140E+04 4.05495E+05-8.33218E+04 3.88655E+04
 -1      7015-9.24507E+04-6.74326E+05 3.28756E+04 1.32567E+05-8.11172E+04 3.92126E+04
 -1      7016 1.32623E+04-4.13107E+05 1.15896E+04 9.64251E+04-2.24708E+04-8.52704E+01
 -1      7017-8.71873E+03-3.72820E+05 3.32455E+04 1.01116E+05-3.78156E+04 2.33261E+03
 -1      7018 5.09306E+03-4.45816E+05 2.65623E+04 4.67956E+04-3.20017E+04-3.90599E+03
 -1      7019-5.01983E+04-4.48609E+05 2.39684E+04 8.08000E+04-5.03219E+04 1.66018E+03
 -1      7020-1.02074E+04-3.73318E+05 3.29854E+04 1.01216E+05 3.73455E+04-2.38015E+03
 -1      7021 1.40073E+04-4.13147E+05 1.14011E+04 9.60178E+04 2.24245E+04 8.06533E+02
 -1      7022-4.91244E+04-4.50960E+05 2.16785E+04 8.02966E+04 5.15822E+04-2.54702E+03
 -1      7023 5.64517E+03-4.45632E+05 2.45860E+04 4.52855E+04 3.26004E+04 4.04072E+03
 -1      7024-1.13911E+05-4.10363E+05-7.00953E+03 2.04074E+05-1.49867E+05 7.19926E+04
 -1      7025-1.14622E+05-4.11542E+05-6.95039E+03 2.02235E+05 1.49107E+05-7.15394E+04
 -1      7026-8.50447E+03-8.17091E+03 1.29170E+03-1.55613E+05-3.20161E+03-4.53621E+03
 -1      7027 1.68725E+03 3.11507E+04 2.16346E+03-1.39870E+05 1.08043E+02-4.36517E+02
 -1      7028 2.86364E+03-6.03684E+03 1.91815E+03-1.38779E+05-8.32849E+02-3.49404E+02
 -1      7029 1.36499E+04-1.22254E+05 6.65985E+03-1.18594E+05-3.49285E+03-2.31363E+03
 -1      7030 2.01228E+04-8.03615E+04 3.00996E+03-1.09090E+05 4.21397E+00-2.03402E+02
 -1      7031 5.06715E+03-9.27010E+04 1.00930E+04-1.25477E+05-3.41406E+02-1.12436E+03
 -1      7032-6.89964E+03 1.93209E+03-5.01941E-01 3.19737E+03-7.54544E+00 9.36710E+00
 -1      7033-6.63809E+03 1.67663E+03 3.00854E+01 2.06604E+03-2.07527E+01-1.68536E-01
 -1      7034-8.05243E+03 1.68460E+03 7.06512E-01 1.67689E+03-1.27096E+00 2.06162E+00
 -1      7035-8.04812E+03 2.16026E+03 5.34213E+01 2.87661E+03-8.58529E+00 1.04487E+01
 -1      7036-7.65966E+03-8.74802E+05-1.08981E+02 9.75588E+04-2.10569E+01 1.56743E+02
 -1      7037-1.44251E+04-7.71864E+05 8.26935E+02 8.77067E+04 1.75466E+02-1.44838E+02
 -1      7038-4.60426E+04-9.99072E+05 2.20844E+03 7.66363E+04-6.09964E+02-7.75040E+02
 -1      7039-3.44204E+04-1.11001E+06 2.30748E+02 8.85583E+04 2.29812E+02 1.56730E+03
 -1      7040-3.38471E+04-1.11011E+06 1.45033E+03 8.77728E+04 1.15345E+02-8.21944E+02
 -1      7041 8.24667E+03-1.67918E+05 8.49767E+02-6.90204E+03 1.69979E+02-9.76375E+02
 -1      7042 1.58644E+04-1.69542E+05 4.69668E+02 2.04804E+03 9.70993E+01-2.59144E+02
 -1      7043 1.35747E+04-1.51278E+05-1.85293E+02 6.69598E+03-1.35865E+02-1.98471E+02
 -1      7044 8.67843E+03-1.34054E+05 3.09650E+02 4.51814E+02-3.00230E+01-3.82112E+02
 -1      7045 1.35065E+04-1.32915E+05 6.99032E+02 8.67710E+03 1.23692E+02-2.89349E+02
 -1      7046 8.00458E+03-1.52133E+05 3.75107E+02-3.03535E+03-3.30570E+01-2.33974E+01
 -1      7047-1.50947E+04-4.13029E+05 2.69321E+04 3.21769E+04-4.56815E+04-5.11826E+03
 -1      7048-1.03101E+04-4.09761E+05 2.78988E+04 2.95458E+04 4.52732E+04 5.36172E+03
 -1      7049-2.44023E+04-6.68122E+05-4.22233E+01 7.43205E+04 2.32119E+02-2.58358E+02
 -1      7050-4.52407E+04-9.95186E+05 2.67311E+03 7.76194E+04 1.04472E+03 1.01275E+03
 -1      7051 1.73174E+04-1.60883E+05 1.58385E+03-3.46900E+03 2.25402E+02-2.10542E+02
 -1      7052 1.91934E+04-1.55335E+05 1.76114E+03-2.48998E+03 1.31747E+02-3.95962E+02
 -1      7053 6.16962E+03-1.76752E+05 1.46624E+03-5.98673E+03 7.86868E+02-1.01158E+03
 -1      7054-1.01471E+04-2.18086E+05 7.58725E+02-1.57394E+04-7.34146E+02-5.33292E+02
 -1      7055-4.56356E+03-2.10802E+05-2.19979E+03-1.20035E+04 1.89875E+03-1.22382E+03
 -1      7056 1.83182E+04-1.90075E+05 9.12674E+02-4.81797E+03-1.08560E+02-3.69068E+02
 -1      7057 1.11778E+04-1.27273E+05-5.88713E+01 1.15022E+04-1.19313E+02-1.31296E+02
 -1      7058 7.65880E+03-1.12611E+05 9.16687E+01 3.74749E+03-4.01580E+01-1.09457E+02
 -1      7059-1.68057E+05-9.38501E+05-9.57361E+04 2.59254E+05 3.64397E+03 5.83818E+03
 -1      7060-2.44428E+05-9.00028E+05-8.53765E+04 3.55181E+05-2.89290E+03-5.05166E+02
 -1      7061-2.89296E+03-1.88030E+05-2.45641E+01 6.11922E+04 1.04349E+02 5.71381E+00
 -1      7062-3.69747E+03-9.69764E+04-2.53208E+02 6.43015E+04-2.23166E+02-1.09192E+01
 -1      7063-4.09476E+03-1.17470E+05-2.24089E+02 6.52355E+04-9.68769E+01-5.66929E+01
 -1      7064-3.80256E+03-1.12165E+05 3.50236E+02 6.88435E+04 2.33875E+02-5.86740E+00
 -1      7065-3.35508E+03-1.25938E+05 1.92829E+02 6.71787E+04 2.51837E+02-3.79506E+02
 -1      7066-2.88608E+03-2.11556E+05 1.69967E+01 6.46748E+04 1.17003E+02-1.93388E+02
 -1      7067-2.67601E+03-2.38742E+05 6.34463E+02 9.28045E+04 3.06073E+02-1.14620E+02
 -1      7068-4.05675E+03-2.16388E+05 2.40607E+02 9.44242E+04 3.83614E+02 9.45933E+00
 -1      7069-2.43830E+03-3.99406E+05 1.58487E+02 8.87045E+04 8.60114E+01-1.44207E+02
 -1      7070-2.92589E+03-1.88827E+05-3.73308E+02 5.94307E+04-9.67574E+01-1.16064E+02
 -1      7071-3.96480E+03-9.77971E+04-1.84797E+02 6.27657E+04-2.71190E+02-1.70614E+02
 -1      7072-1.20223E+05-8.33574E+05-1.27966E+05 4.37632E+04 1.66633E+04-5.25228E+03
 -1      7073-6.50366E+04-4.91291E+05 9.61043E+03-1.15692E+05-5.39865E+04 1.73504E+03
 -1      7074-3.17124E+03-1.60159E+05 4.17707E+02 7.55281E+04 1.41995E+02-2.68086E+02
 -1      7075-2.99373E+03-2.68849E+05-5.09651E+01 7.27000E+04 1.06304E+02-1.80584E+02
 -1      7076-3.93318E+03-1.45788E+05 4.21958E+02 7.73863E+04 2.30763E+02-6.67194E+00
 -1      7077-3.31662E+03-1.97656E+05 4.44045E+02 8.40761E+04-2.57949E+02 2.71641E+02
 -1      7078-3.88136E+03-1.80083E+05 6.99300E+02 8.58222E+04-5.42234E+01 4.49640E+01
 -1      7079-2.99121E+03-3.31168E+05-8.93267E+01 8.06223E+04-1.00021E+02 2.96085E+02
 -1      7080 2.02048E+04-1.28042E+05 7.46421E+02-1.76627E+04 1.83037E+02-7.52474E+01
 -1      7081 2.78574E+04-1.42040E+05 2.55178E+02-9.41625E+03 7.57888E+02 2.28809E+02
 -1      7082 1.64879E+04-1.23638E+05 1.80877E+02-7.43217E+03 5.49862E+02 2.48870E+01
 -1      7083 2.73181E+04-1.43156E+05 6.48579E+02-1.01714E+04 3.95658E+01-3.21535E+01
 -1      7084 2.04555E+04-1.28901E+05 4.55900E+01-1.78417E+04-5.20863E+01 1.39001E+02
 -1      7085 1.63657E+04-1.24196E+05-2.65466E+01-8.29262E+03-6.97154E+01-1.63044E+01
 -1      7086-2.25199E+03-5.28533E+02 1.47097E+01-1.34560E+03-1.93153E+01 3.57962E+01
 -1      7087-2.61587E+03-1.01041E+03-6.41563E+01-1.59376E+03-1.53540E+02-2.12334E+01
 -1      7088 2.76561E+03 2.99253E+04 1.07307E+03-1.34544E+05 5.55347E+02 6.31417E+02
 -1      7089-2.93532E+03 3.03646E+04 1.18427E+02-1.45216E+05 4.36248E+02-1.78572E+03
 -1      7090-2.66765E+03-2.62348E+05-3.28342E+02 5.90787E+04 9.51426E+01-2.39267E+02
 -1      7091-2.79346E+03-4.97492E+05-3.87076E+02 8.12320E+04 1.29886E+02-2.84299E+02
 -1      7092-1.56825E+04-3.90751E+05 3.72205E+04-4.10100E+03-5.35875E+04-1.33059E+04
 -1      7093-8.56661E+04-4.53477E+05-4.43744E+04 6.03924E+04-1.70424E+05 3.48739E+04
 -1      7094-6.14659E+03-2.74482E+05 3.51727E+04-8.43424E+04-4.67915E+04-1.50589E+04
 -1      7095-1.15893E+05-7.26076E+05-1.29911E+05-5.92062E+04 1.44626E+04 4.44825E+03
 -1      7096-6.38350E+04-4.79303E+05 3.21977E+04-1.12208E+05 6.19492E+04 2.98928E+03
 -1      7097-2.91477E+03-4.11492E+05-4.23194E+02 7.39695E+04-4.41691E+01 5.00066E+02
 -1      7098 4.30005E+04-3.05580E+05 6.83006E+03 7.09256E+04 1.41179E+04-7.89428E+03
 -1      7099 2.74638E+04-3.16847E+05 1.93187E+04 4.24646E+04 8.13031E+03-7.09471E+03
 -1      7100 8.54225E+04-3.46846E+05-3.73925E+03-7.58457E+02 5.65925E+03-7.57893E+02
 -1      7101 1.27711E+05-2.85059E+05 3.52291E+03 2.87605E+04 3.11029E+03-2.56578E+02
 -1      7102 9.07108E+04-3.32286E+05-7.63069E+03 1.23264E+04-4.33988E+03-5.49135E+02
 -1      7103 4.35620E+04-2.51536E+05 6.17307E+03 7.38707E+04 6.20112E+03 1.50968E+03
 -1      7104-2.95806E+03-3.33152E+05-3.62073E+02 6.65386E+04 6.99590E+00-3.64800E+02
 -1      7105-1.59392E+03-2.47296E+05 4.43125E+02 5.75351E+04 1.52451E+02-2.19688E+02
 -1      7106-4.32173E+03-2.25968E+05-5.41481E+02 9.07566E+04 2.52237E+02 4.03227E+02
 -1      7107-2.63465E+03-3.65266E+05 6.23918E+00 8.50338E+04-1.23393E+01 1.20063E+02
 -1      7108-3.61274E+03-1.90399E+05-1.15943E+02 8.98149E+04 2.91140E+02-1.01403E+02
 -1      7109-1.52439E+03-4.75956E+05 4.59619E+02 7.95968E+04 5.94935E+01 2.65173E+02
 -1      7110 2.53267E+02-1.45289E+06-3.65508E+01 6.90869E+04 3.52089E+01 3.83894E+01
 -1      7111-6.53948E+02-1.28054E+06-8.09121E+02 7.97254E+04 1.12629E+02 3.85408E+02
 -1      7112 7.18127E+02-1.14778E+06 4.33189E+01 9.00489E+04 3.01613E+02-9.02505E+01
 -1      7113-3.22503E+03-2.77639E+05 4.26302E+01 7.92026E+04-1.57320E+02-9.68706E+01
 -1      7114-4.13241E+03-1.85830E+05-3.50148E+02 8.22244E+04-2.46176E+02-2.74105E+02
 -1      7115-2.79716E+03-2.99628E+05 5.68573E+01 7.70504E+04-2.20865E+02-1.10350E+02
 -1      7116-1.76883E+03-3.91893E+05 3.85640E+02 7.22560E+04-2.20468E+02 1.18351E+02
 -1      7117-3.54680E+03-1.56500E+05-3.03644E+02 8.12676E+04-4.18671E+02-7.58379E+01
 -1      7118-4.05773E+03-1.49556E+05-2.62125E+02 7.37380E+04 7.54098E+01 2.33713E+02
 -1      7119-2.59021E+03-2.40604E+05 1.15972E+02 6.91086E+04-5.78819E+01 9.51982E+01
 -1      7120-1.60781E+03-3.15429E+05 5.47616E+02 6.47498E+04-1.96032E+02 3.29194E+02
 -1      7121-1.73221E+05 2.74680E+05-5.14439E+03 5.82852E+04-9.08127E+03 1.43912E+03
 -1      7122-1.15762E+04 2.36406E+05 1.35913E+04 5.11452E+04-6.69629E+03-1.49413E+04
 -1      7123-2.92818E+04 4.85784E+05 7.24501E+04 1.01373E+05-9.13146E+03 1.24517E+04
 -1      7124-5.40128E+04 3.51361E+05 3.19576E+04 5.64578E+04-1.16878E+04 3.55792E+03
 -1      7125-8.51019E+04 2.17324E+05-2.38630E+04 5.65193E+02-3.75646E+03-1.67213E+04
 -1      7126-2.50619E+04 2.24231E+05 6.04299E+03 4.64806E+04 1.16451E+03-1.55616E+03
 -1      7127 2.84076E+02-1.58061E+06 2.48705E+02 5.67632E+04 3.14767E+01 3.42220E+02
 -1      7128 2.04210E+02-1.75782E+06 1.41876E+01 4.48627E+04-2.55698E+02 2.87731E+01
 -1      7129-3.68914E+03-1.25964E+05-2.83289E+02 7.27861E+04-1.43089E+01 6.44753E+01
 -1      7130 1.10614E+05-3.01418E+05 2.90728E+02 3.77645E+04-7.81186E+02-8.54539E+01
 -1      7131 9.19536E+04-2.91444E+05-9.04203E+02 3.75013E+04-5.55038E+02 8.06247E+02
 -1      7132 1.00597E+05-3.02153E+05 8.87397E+02 2.47230E+04-1.16956E+03-3.79097E+02
 -1      7133 8.22221E+04-2.83336E+05-2.82992E+02 2.55931E+04-8.47788E+02 9.36080E+01
 -1      7134 1.02567E+05-3.00113E+05 3.43507E+02 1.83058E+04-4.65981E+02 5.55576E+01
 -1      7135-1.09756E+05-4.39890E+05-2.93237E+04 1.66300E+05-1.39286E+05 4.44005E+04
 -1      7136-1.14277E+05-4.33047E+05-2.52079E+04 1.64543E+05 1.40595E+05-4.55152E+04
 -1      7137-7.28029E+03 1.07750E+03 5.72979E+01 2.69868E+02-3.57891E+01 2.19528E+01
 -1      7138-4.68083E+03 3.91888E+02-2.69176E+01-4.32240E+02 8.75556E+00 1.30684E+01
 -1      7139-3.24554E+03-5.17745E+05-3.99893E+02 9.98993E+04 1.79129E+02 2.75486E+02
 -1      7140-3.78513E+03-2.47800E+05-1.83686E+01 1.06827E+05-2.04385E+02 1.92091E+02
 -1      7141-3.22043E+03-4.85505E+05-1.57042E+02 1.02475E+05-3.49462E+00 2.18017E+02
 -1      7142-1.18530E+02 1.31412E+02 7.17143E+01-6.65866E+01 5.55527E+00-1.19444E+01
 -1      7143-1.71776E+03 2.29379E+02 1.11756E+01 3.33489E+02-1.18881E+01-2.20423E+00
 -1      7144-8.02938E+02 4.76743E+01-2.27610E+01 2.81611E+01 2.00892E+00-9.21655E+00
 -1      7145 4.42518E+04-3.78138E+05 1.63547E+04 7.92805E+04 8.47760E+03 8.70364E+02
 -1      7146 7.46786E+04-3.12034E+05 1.94554E+03 3.46665E+04 2.76300E+03 7.66763E+02
 -1      7147 4.40944E+04-3.76795E+05 1.71472E+04 7.85646E+04-7.75419E+03-9.77555E+02
 -1      7148 7.72465E+04-3.11607E+05 1.96178E+03 3.45374E+04-2.37441E+03-1.02814E+03
 -1      7149-2.46071E+03-2.27610E+05 5.02311E+02 6.52330E+04 2.21082E+01 6.65610E+01
 -1      7150-2.71069E+04 1.05472E+05-7.08982E+03 8.11624E+04 5.15497E+03 1.14168E+04
 -1      7151-3.50490E+04 1.62716E+05-1.55117E+03 5.19871E+04 1.02557E+03 4.39714E+03
 -1      7152-1.91829E+04 9.48867E+04-9.77927E+03 5.21765E+04 5.25119E+03 6.29996E+03
 -1      7153-3.65371E+04 2.22763E+05-2.84435E+03 8.40596E+04 9.81649E+03 8.82745E+03
 -1      7154-5.17425E+04 2.36706E+05-2.75037E+03 4.98881E+04-1.32993E+03-1.57591E+03
 -1      7155-6.27776E+04 2.61385E+05 7.02449E+02 7.36212E+04 3.09930E+03 5.73902E+03
 -1      7156 9.26917E+04-2.43863E+04-9.73433E+02-4.73031E+04-7.41323E+02-1.14837E+03
 -1      7157 1.18947E+05 1.06037E+04 4.55969E+03-5.91225E+04-2.06159E+03 6.51197E+02
 -1      7158 1.48164E+05 2.79919E+04 4.58310E+03-4.73868E+04-8.05263E+03-2.07416E+03
 -1      7159 1.17708E+05-4.71642E+04 2.56366E+03-1.91603E+04-1.79730E+03-1.08197E+03
 -1      7160 1.35548E+05-1.43074E+04 3.91020E+03-2.98194E+04-1.75730E+03 1.06575E+03
 -1      7161 8.49105E+04-5.32144E+04 2.58544E+03-3.33767E+04 2.78069E+02 5.74766E+02
 -1      7162-3.27596E+04 2.44830E+05-2.32951E+01 6.52783E+04-4.40203E+02 4.06774E+02
 -1      7163-3.36863E+04 2.36784E+05 3.36453E+03 6.10936E+04-2.90762E+03-1.53741E+03
 -1      7164-4.62662E+04 2.38546E+05 9.52666E+02 5.23521E+04-2.76433E+03 3.82715E+02
 -1      7165-4.47895E+04 2.55172E+05-3.77834E+01 5.05561E+04-1.95813E+03-3.22961E+03
 -1      7166-4.87815E+04 2.47177E+05-4.24777E+03 6.89286E+04-4.46233E+02-3.55274E+03
 -1      7167 1.73678E+03-8.65244E+05 3.69747E+02 1.03788E+05 4.06638E+02-2.28530E+02
 -1      7168 2.69726E+02-8.57686E+05-1.15807E+02 1.03619E+05 4.11462E+02-1.41876E+02
 -1      7169-8.49037E+03 9.39756E+05-1.15865E+02 8.70346E+04-5.37593E+01 2.97343E+02
 -1      7170-8.64009E+03 9.74433E+05 4.21003E+02 8.26811E+04-1.43906E+02-2.00450E+02
 -1      7171-7.82798E+03 6.88949E+05 5.31398E-01 1.00576E+05 1.44628E+01-5.33544E+01
 -1      7172-7.22666E+03 6.54704E+05 3.21040E+02 1.03944E+05-7.07406E+01 3.65899E+02
 -1      7173-2.55617E+03 2.98189E+02-5.15644E+00 7.68264E+02-2.01067E+00-3.70568E+00
 -1      7174-1.07202E+03 1.85525E+02 2.58611E+01 1.97682E+02-3.17626E+00 2.87288E+00
 -1      7175 1.55378E+04-3.70843E+04 4.98826E+02-1.22777E+05-8.66117E+02 3.32890E+02
 -1      7176-9.22801E+03 9.38761E+02-7.83583E+01 1.35044E+03-3.37463E+01 3.30266E+01
 -1      7177 4.01297E+04-3.45936E+05 1.07615E+04 9.87350E+04 4.53776E+03 1.67224E+03
 -1      7178-8.11730E+03-3.92307E+05 9.87277E+03 1.30203E+05 1.64678E+04-7.80652E+03
 -1      7179 5.71607E+04-2.84520E+05 1.28723E+03 7.85754E+04 3.37931E+02 4.86583E+02
 -1      7180 2.14017E+04-2.96226E+05 2.09156E+03 1.11406E+05 8.88357E+03-5.34568E+03
 -1      7181 4.70885E+04-3.25155E+05 1.78462E+04 9.25761E+04-1.49685E+01 1.16467E+03
 -1      7182-3.33661E+03-2.39760E+05 8.46388E+00 9.50440E+04 3.55151E+02-1.84534E+02
 -1      7183-2.14516E+03-4.23114E+05 2.53456E+02 8.89078E+04 8.76476E+01-1.64407E+02
 -1      7184-3.82939E+04 1.66147E+05-4.94147E+02 5.40754E+04-4.17708E+03-5.17855E+03
 -1      7185-6.04159E+04 2.55573E+05 9.74504E+02 7.41020E+04-1.73523E+03-2.50909E+03
 -1      7186-6.56563E+04 2.88283E+05 8.83064E+03 9.06548E+04-5.70311E+03-2.91510E+03
 -1      7187-8.37532E+04 3.21478E+05 1.15954E+02 5.90896E+04-4.87642E+03-2.95512E+03
 -1      7188-7.34076E+04 2.62342E+05-2.42969E+03 6.81413E+04-1.96812E+03-1.40486E+03
 -1      7189-3.13987E+03-1.48990E+05 2.40951E+04-1.43463E+05-9.00697E+03-7.16133E+03
 -1      7190 1.54782E+04-2.19758E+05 2.63681E+04-1.09482E+05 1.79902E+03 7.48322E+02
 -1      7191-4.93353E+03-5.40699E+03-2.17498E+01 6.69017E+04-1.43331E+02 9.28641E+00
 -1      7192-4.31962E+03-2.24282E+04 2.82085E+02 6.79322E+04-9.02820E+01 1.00502E+02
 -1      7193-9.77383E+01-9.97881E+05-9.59505E+01 9.54716E+04 2.83780E+02 1.17660E+02
 -1      7194-2.27351E+03-2.86442E+05 4.86394E+02 7.32720E+04-8.69926E+01 1.94848E+02
 -1      7195-2.34799E+03-3.51382E+05 3.99853E+02 8.12837E+04 4.48058E+01-2.14490E+02
 -1      7196-5.24533E+03-5.97046E+04-5.23045E+02 9.71825E+04 2.19225E+02 1.80805E+02
 -1      7197-4.83962E+03-3.30453E+04 8.36442E+01 9.94014E+04 1.02858E+02 3.00119E+01
 -1      7198-4.94279E+03 9.45244E+04 1.39626E+02 1.13417E+05-7.61325E+01-6.25302E+01
 -1      7199-5.59871E+03-8.91343E+04-6.11792E+02 1.16421E+05 2.26105E+02 3.70752E+02
 -1      7200-4.29451E+03-2.14860E+05-2.10895E+01 1.14351E+05 1.41533E+02 1.30400E+02
 -1      7201-4.68022E+03-1.29312E+04 2.24377E+01 7.28395E+04-5.21248E+01-8.05540E+01
 -1      7202-4.59653E+03-2.88771E+04-3.98696E+02 7.08780E+04-6.34696E+01-3.40079E+02
 -1      7203-4.78750E+03-4.01171E+04-1.89202E+02 7.97550E+04 5.40845E-01-4.74580E+02
 -1      7204-4.66548E+03-2.34809E+04 5.81941E+01 8.19626E+04-8.31797E-01 2.14553E+02
 -1      7205 5.30525E+02-1.32278E+06 5.02629E+02 7.98402E+04 3.15032E+02-3.28524E+02
 -1      7206-4.56791E+03-4.92611E+04-3.73841E+02 8.87367E+04-2.87434E+00 3.90533E+02
 -1      7207-4.53635E+03-2.95470E+04 2.31697E+01 9.07312E+04 8.05041E+01 1.50382E+01
 -1      7208-2.91489E+03-3.69200E+05-3.13926E+02 8.36452E+04-8.95149E+01-9.93413E+01
 -1      7209-2.61992E+04-6.92722E+04-4.08600E+03-1.16799E+05-3.02194E+04-4.85994E+04
 -1      7210-1.24885E+04 2.61815E+04-1.03565E+03-1.48683E+05 1.61556E+03-2.13975E+04
 -1      7211-1.11488E+04-1.29191E+05 1.83826E+04-1.41612E+05-1.21440E+04-1.90146E+04
 -1      7212-3.14763E+03-4.56024E+05-3.54312E+02 1.06946E+05 2.11545E+01 5.10576E+02
 -1      7213-2.87720E+02-1.63292E+06-4.31951E+02 5.68792E+04 1.63771E+02-3.09618E+02
 -1      7214-2.93989E+03-3.03255E+05-2.14584E+02 7.54775E+04-2.91606E+01-2.38699E+02
 -1      7215-3.94078E+03-1.59430E+05 1.27770E+02 7.96160E+04-2.92607E+02-1.43823E+02
 -1      7216 1.00940E+04 1.37847E+05-4.93232E+03 1.02888E+05-7.47162E+03-9.05733E+03
 -1      7217 2.50491E+04 1.25808E+05-2.36208E+03 7.57226E+04-4.17042E+03-2.24041E+03
 -1      7218-3.47367E+04 2.40134E+05 9.96383E+02 1.00670E+05-9.42171E+03-4.99536E+03
 -1      7219-3.39154E+03-2.01645E+05 1.00781E+03-1.70897E+04 4.12703E+02-2.70014E+03
 -1      7220-1.55436E+04-2.38566E+05-1.12924E+03-1.92989E+04 7.59757E+02-2.89477E+03
 -1      7221-6.33272E+03 3.64828E+05-3.73862E+02 1.11253E+05 2.53323E+02-3.25879E+01
 -1      7222-8.37575E+03 5.43088E+05-9.39008E+02 1.04944E+05 1.24693E+02 3.88288E+02
 -1      7223-3.32543E+03 4.01578E+05 4.24056E+02 1.19631E+05 2.47087E+01-5.07160E+01
 -1      7224-6.90406E+03 6.48940E+05-6.07925E+02 1.11614E+05 6.80039E+01 5.16901E+02
 -1      7225-5.75668E+03 7.66602E+05 1.69293E+02 1.08959E+05 9.91202E+01 3.64391E+01
 -1      7226-3.68396E+04 9.00411E+04-4.14113E+03 6.28436E+04 1.86066E+03-1.18901E+04
 -1      7227-2.48545E+04 8.08241E+04-5.96114E+03 2.60972E+04 9.15854E+02-2.66037E+03
 -1      7228 1.13999E+04-1.27759E+05-1.74247E+02 1.84447E+04 9.30501E+01 3.54618E+01
 -1      7229 1.88442E+04-1.53488E+05 1.73821E+02 1.20760E+04 3.15355E+02 2.34399E+02
 -1      7230 1.17918E+04-1.36834E+05 3.62020E+02 3.24314E+03 5.42042E+01 3.59040E+01
 -1      7231 7.07972E+03-1.13241E+05-1.79284E+01 7.83229E+03 3.28915E+02-1.08725E+02
 -1      7232-1.30377E+04 2.09900E+04-1.61282E+03-1.51000E+05-1.44234E+03 2.11683E+04
 -1      7233-2.55142E+04-7.01358E+04-5.01013E+03-1.13101E+05 3.14042E+04 4.79418E+04
 -1      7234-9.81212E+03-1.21886E+05 1.46931E+04-1.37776E+05 1.30332E+04 2.12307E+04
 -1      7235-2.72960E+03-2.42846E+05 2.24109E+02 6.76339E+04 1.38533E+01-9.67796E+01
 -1      7236-2.50134E+03 6.65299E+05 1.16718E+03 1.14985E+05-1.70885E+02-8.59743E+01
 -1      7237-7.52583E+03 1.08776E+06-2.05041E+02 9.17991E+04-3.58914E+02-3.01890E+01
 -1      7238 7.85799E+04 8.74910E+05-1.89281E+03 9.77596E+04 8.44985E+02-5.52723E+02
 -1      7239 6.23161E+04 1.07125E+06 8.57324E+02 1.13944E+05 4.29290E+02 1.66970E+02
 -1      7240 1.07549E+05 1.19214E+06-1.29987E+03 1.05596E+05 1.91310E+02 7.57834E+02
 -1      7241 8.50857E+04 1.39591E+06 6.16009E+02 1.19425E+05-4.30290E+02 2.54470E+01
 -1      7242 1.06233E+05-3.13677E+05 1.92038E+03 9.13140E+03 2.51072E+03-8.02454E+02
 -1      7243 7.43136E+04-3.15402E+05 3.79984E+03-1.13072E+04 1.10839E+03 6.53577E+02
 -1      7244 1.06542E+05-2.95701E+05 2.20480E+03 1.81126E+04-4.59385E+02 7.63325E+02
 -1      7245 1.39887E+05-8.13313E+04 1.72090E+03-5.97473E+03-9.63823E+02-2.65723E+03
 -1      7246 1.18281E+05-1.10417E+05 3.16528E+02 5.91911E+03-3.31486E+02-2.60072E+03
 -1      7247 1.14581E+05-1.53051E+05-4.28286E+02 1.98551E+04 1.44395E+03-6.50213E+02
 -1      7248-4.22037E+03-2.76504E+05-3.82248E+02 1.07781E+05 2.11177E+02 2.71908E+02
 -1      7249-4.38568E+03-3.61169E+04 4.76102E+02 1.11937E+05-7.69145E+01 2.99699E+02
 -1      7250-1.88986E+03-6.12511E+05 6.76949E+02 9.78498E+04-3.92010E+01 4.85470E+02
 -1      7251-2.60042E+03-1.89198E+05-3.04210E+01 5.80861E+04-6.60224E+01-9.94156E+01
 -1      7252-8.37598E+04-4.60716E+05-4.42369E+04 5.62574E+04 1.74918E+05-3.42095E+04
 -1      7253-1.53251E+04-3.85255E+05 3.76731E+04-7.62525E+03 5.27121E+04 1.46017E+04
 -1      7254-4.83904E+03-2.49368E+05 3.48286E+04-8.20137E+04 4.54647E+04 1.79423E+04
 -1      7255-4.96063E+03-4.03361E+05 2.65638E+04-1.74980E+04-3.84343E+04-8.32323E+03
 -1      7256-1.24806E+04-3.35061E+05 1.34904E+04-8.62085E+04-3.39255E+04-8.91084E+03
 -1      7257-3.48137E+03-1.37503E+05 5.71533E+02 1.14306E+05 9.94744E+00-2.51833E+02
 -1      7258-3.60594E+03-4.80258E+05 3.08527E+02 1.04461E+05-1.01132E+02-6.07003E+01
 -1      7259-8.01891E+04-3.38619E+05-1.17069E+05-3.54483E+03-1.60307E+05-3.81040E+03
 -1      7260-6.20212E+03 8.11654E+04 4.16506E+01 6.54178E+04-2.58820E+02 5.25363E+01
 -1      7261-5.61833E+03 6.37339E+04-2.20563E+02 6.71789E+04-2.27410E+02-1.77538E+01
 -1      7262-2.31338E+05-4.96225E+05-1.74494E+04 2.84119E+05 6.64580E+04-3.21496E+04
 -1      7263-1.89896E+05-3.44817E+05-8.16577E+03 2.31885E+05 9.74584E+04-4.75717E+04
 -1      7264-9.78048E+04-4.14581E+05 3.07599E+04 1.93150E+05 3.83104E+04-1.39976E+04
 -1      7265-9.67392E+04-4.50554E+05 5.10848E+04 2.16392E+05-4.30309E+02 3.40315E+02
 -1      7266-1.90193E+05-3.45179E+05-7.90240E+03 2.32417E+05-9.69970E+04 4.69306E+04
 -1      7267-2.31303E+05-4.96098E+05-1.73993E+04 2.84461E+05-6.63486E+04 3.18643E+04
 -1      7268-9.68816E+04-4.14750E+05 3.04171E+04 1.92986E+05-3.89828E+04 1.43025E+04
 -1      7269-2.57087E+03-1.41896E+05 3.49273E+02 5.16003E+04 4.33953E+00 5.02783E+01
 -1      7270-3.88025E+03-7.36864E+04 2.49374E+02 5.42677E+04 7.78926E+01 5.83752E+01
 -1      7271-2.81306E+03-1.41933E+05-1.31024E+01 5.32345E+04 2.92719E+01-5.26781E+01
 -1      7272-3.67828E+03-7.34305E+04-2.73104E+02 5.56920E+04 2.28128E+02-8.51105E+01
 -1      7273 1.19724E+05-3.04009E+05 3.47721E+02 3.03262E+04 2.24806E+03-1.58325E+03
 -1      7274 1.01804E+05-3.00517E+05 8.51229E+02 1.92288E+04 5.35226E+02-2.80357E+02
 -1      7275-7.79107E+03 1.05427E+06-4.83843E+00 8.95862E+04-3.42870E+02 5.69462E+02
 -1      7276-5.30535E+03-1.99427E+04-3.39208E+02 1.00904E+05 3.76137E+01 5.07171E+02
 -1      7277-3.87328E+03-2.26654E+05 1.66239E+02 9.67895E+04 2.61360E+02 4.30100E+02
 -1      7278-6.85320E+02-1.03229E+06-2.08348E+02 9.57331E+04 4.34148E+02-2.31906E+02
 -1      7279 9.94379E+04 9.28071E+05-5.95438E+02 6.80397E+04 3.26737E+02-8.36957E+02
 -1      7280 1.18222E+05-2.28058E+05 1.38358E+03 3.43643E+04-3.57898E+02 3.19277E+03
 -1      7281 1.12925E+05-2.14513E+05-1.38828E+03 2.83880E+04 3.23426E+02 5.15633E+02
 -1      7282 1.29266E+05 9.45122E+05 1.29496E+05 1.48714E+05-4.87779E+03 5.53807E+03
 -1      7283 1.51115E+05 9.53162E+05 9.61956E+04 2.02150E+05-9.96280E+04-3.88183E+04
 -1      7284 1.49992E+05 9.08384E+05 1.13483E+05 1.92874E+05 9.90285E+04 2.37919E+04
 -1      7285 6.93864E+04 6.56328E+05 7.51396E+03-8.63549E+03 6.96876E+04 2.70889E+04
 -1      7286 7.63670E+04 6.62572E+05 2.97628E+03 2.70014E+04 4.41133E+03 2.11664E+03
 -1      7287 6.77461E+04 6.56008E+05-2.14734E+04-1.09452E+04-6.39215E+04-2.75819E+04
 -1      7288 9.50188E+02-4.68189E+05-7.43518E+02 1.03076E+05 2.20728E+02-1.64430E+02
 -1      7289 1.01158E+03-3.61551E+05 1.51470E+03 8.86442E+04-2.81165E+01-1.40319E+02
 -1      7290-4.27054E+03-4.29649E+04 2.11661E+01 6.97272E+04 1.32934E+01-1.05638E+02
 -1      7291-5.69969E+03-3.23259E+05-1.52434E+03 6.09462E+04-6.20984E+01-5.14663E+01
 -1      7292 2.79119E+04-1.43403E+05 3.56560E+03-1.01010E+05-7.54645E+02 9.15816E+02
 -1      7293-4.10116E+03-2.80713E+05 7.48118E+01 1.04851E+05-4.70630E+02-2.14023E+00
 -1      7294-2.40175E+03-5.48507E+05 9.70903E+01 9.66115E+04-2.19254E+02 3.55291E+02
 -1      7295-4.79498E+03-8.26359E+04-8.08349E+01 9.63306E+04 3.01891E+02 8.91458E+01
 -1      7296-7.43367E+03 2.39445E+03-2.07135E+00 4.20446E+03 3.80608E+00 3.24554E+01
 -1      7297-8.53021E+03 2.81397E+03 7.90558E+01 3.75175E+03 1.16907E+01 3.18200E+01
 -1      7298-7.30499E+03 1.68997E+05-1.23891E+02 6.37349E+04-1.24915E+02 1.00338E+01
 -1      7299-3.31061E+03-1.27124E+05-1.56775E+02 6.96969E+04 1.68430E+02-5.20303E+01
 -1      7300-4.91058E+03-1.19400E+04 1.34634E+02 7.42620E+04 9.26270E+01-1.82238E+02
 -1      7301-4.69975E+03-6.83125E+04-6.10095E+01 8.73727E+04-2.87215E+02 6.80948E+01
 -1      7302 1.26494E+05 1.40588E+06 3.79917E+03 1.24272E+05 2.97032E+02-2.33337E+03
 -1      7303 1.23501E+05 1.41264E+06-9.67460E+02 1.24296E+05-7.84729E+02 3.16785E+03
 -1      7304 1.12200E+05 1.12051E+06-4.51684E+03 8.05945E+04-1.07148E+03 1.36172E+03
 -1      7305-5.74552E+03 1.41041E+03 1.55284E+01 2.62834E+03-9.11598E+00-8.54592E-01
 -1      7306-4.61383E+03-5.50211E+04-5.28331E+01 7.85451E+04 1.19796E+02-1.33111E+01
 -1      7307-4.98780E+03-5.15768E+03-3.38030E+01 1.02149E+05 8.03500E+01 1.72369E+02
 -1      7308 1.68583E+04-1.54146E+05-4.61514E+02 1.24081E+04-3.87895E+02-5.34089E+02
 -1      7309-4.88635E+03-2.19116E+04-2.30497E+02 9.21053E+04-4.14383E+01-2.57159E+02
 -1      7310-3.34803E+03-2.00063E+05-1.13899E+00 8.64404E+04 2.43791E+02-2.81965E+02
 -1      7311-5.10453E+03-4.80328E+04-1.50713E+02 9.41993E+04 8.20605E+01 4.94140E+02
 -1      7312-5.12487E+03-1.53804E+04-9.72157E+00 9.33684E+04 1.67240E+02-1.14572E+02
 -1      7313-3.74345E+03-2.77994E+05-1.87922E+02 1.03224E+05-3.82438E+02 3.49975E+02
 -1      7314 8.32744E+04-2.07226E+05 1.38460E+02 3.32231E+04 5.76313E+03-8.06710E+03
 -1      7315 7.88516E+04-1.56742E+05 1.20150E+04 3.59471E+04 2.28948E+03-4.20921E+03
 -1      7316-3.26359E+03-1.63531E+05 2.16080E+02 7.78767E+04-3.75912E+02 1.86995E+02
 -1      7317-5.27545E+03-1.87703E+04-4.24265E+02 8.32175E+04-1.07057E+02-4.20479E+02
 -1      7318 2.60208E+03-8.90884E+04 2.73272E+02-1.61736E+04 6.47083E+02 2.74278E+02
 -1      7319-3.07951E+02-9.41789E+04 3.17412E+02-2.62812E+04 5.74669E+02 2.00906E+02
 -1      7320 1.07430E+04-1.10170E+05 2.43419E+02-1.61542E+04 2.11261E+02-8.02907E+01
 -1      7321-2.87178E+01-9.46405E+04 1.73804E+02-2.66243E+04-2.47082E+02 7.36062E+01
 -1      7322 2.53856E+03-8.93311E+04 3.31682E+02-1.63601E+04-2.85581E+02-1.54476E+02
 -1      7323-5.93075E+03 1.40504E+03 2.99529E+01 3.78041E+03-1.39864E+01 2.16857E+01
 -1      7324 2.38309E+04 3.81669E+05 2.65231E+04 1.26645E+05-2.34298E+03-5.31381E+03
 -1      7325-4.29015E+03 3.10418E+05-2.61830E+04 1.04615E+05-2.05257E+03 1.32988E+04
 -1      7326-4.98859E+03 3.76688E+02 9.50744E+01 2.08746E+04 2.68970E+01-2.09022E+01
 -1      7327-5.08346E+03 7.54682E+02 4.98918E+00 2.23585E+04 1.87444E+01-2.09000E+01
 -1      7328-3.91446E+03-9.71812E+03 1.47417E+02 2.05539E+04 3.24587E+01-3.28269E+01
 -1      7329-7.17739E+03 3.27306E+05-4.31598E+02 1.13181E+05 2.55818E+02 4.35575E+02
 -1      7330-4.95371E+03-1.12401E+04 6.01272E+00 1.11132E+05-1.12942E+02-8.31718E+01
 -1      7331-5.02328E+02-1.40165E+01-2.56357E+01-3.87677E+01-3.77094E+00-2.73887E+00
 -1      7332 1.65818E+01 5.67499E+01 6.41802E+01-9.86327E+01 5.04847E+00-5.97551E+00
 -1      7333 8.25625E+04-2.86723E+05-9.12459E+02 4.96134E+04 5.39552E+02-2.58838E+01
 -1      7334 6.17745E+04-2.65504E+05 9.49266E+02 5.84258E+04-9.66485E+02 8.78428E+02
 -1      7335 7.60607E+04-2.75576E+05 1.58103E+03 3.76588E+04-9.99832E+01 6.12771E+02
 -1      7336 3.56076E+04-2.40231E+05-6.16179E+02 7.34039E+04-4.10937E+02 2.65084E+02
 -1      7337 1.44131E+04-2.04502E+05 7.77099E+02 7.83489E+04-8.60044E+02-3.46625E+02
 -1      7338 2.90870E+04-2.01992E+05 1.78394E+02 5.57491E+04-5.93699E+01 4.32420E+02
 -1      7339 3.62275E+03-1.70020E+05-1.51931E+03 6.23228E+04-2.72155E+02-7.22715E+02
 -1      7340 3.92273E+04-2.24164E+05 1.70358E+03 6.16164E+04 1.15764E+02-2.64446E+01
 -1      7341-7.96799E+03 9.16338E+05 4.99535E+02 8.48773E+04-1.72789E+02 1.16771E+02
 -1      7342-2.90551E+03-4.16365E+05-1.85528E+02 9.70175E+04-5.36504E+01-5.07133E+02
 -1      7343-1.63146E+03-5.95851E+05 1.83460E+02 8.53609E+04 8.68638E+01-4.37947E+02
 -1      7344-1.04662E+03-7.66867E+05 1.23849E+02 7.60135E+04 5.07930E+01-3.31252E+02
 -1      7345-2.61883E+03-5.88246E+05-6.33651E+02 8.79640E+04-2.26293E+02-4.53875E+02
 -1      7346-4.98840E+03-1.25475E+04-4.36755E+01 8.46144E+04-1.00572E+02-3.20717E+02
 -1      7347-4.76553E+03-3.92195E+04 2.36892E+02 8.56472E+04 9.35560E+01-3.06802E+02
 -1      7348-3.27363E+03-3.37265E+05-1.99003E+02 8.73277E+04 2.49031E+02 4.53770E+01
 -1      7349-1.56785E+03-5.91068E+05 1.30576E+01 7.42895E+04 1.99908E+02-3.02530E+01
 -1      7350 1.69915E+04-1.25590E+05-4.93545E+02-3.93998E+04 3.31618E+02-2.79707E+01
 -1      7351 2.80015E+04-1.40052E+05-1.55080E+03-3.24669E+04-2.39931E+02 3.78925E+02
 -1      7352 2.79772E+04-1.44034E+05-1.20691E+03-2.76961E+04 6.63641E+02-1.29199E+02
 -1      7353 2.27130E+04-2.96746E+05 4.58371E+02 1.09745E+05-9.53720E+03 4.14125E+03
 -1      7354 1.31203E+04-2.43974E+05-8.71325E+02 9.85500E+04-7.61917E+02 2.27340E+03
 -1      7355 5.72260E+04-2.86303E+05 2.45773E+03 8.05844E+04-2.47347E+02-8.32105E+02
 -1      7356 1.25148E+04-2.43903E+05-1.19900E+03 9.84662E+04 6.97216E+02-2.09886E+03
 -1      7357 6.92766E+03-3.13810E+05-5.17744E+02 1.11744E+05 3.67485E+02 3.80350E+02
 -1      7358-1.95469E+03-7.18856E+05-3.45777E+02 1.06084E+05 1.02124E+02 6.79606E+02
 -1      7359-1.71826E+03-4.87259E+05-1.14978E+01 6.74643E+04-1.29170E+02 2.35022E+02
 -1      7360-6.52935E+04 2.81880E+05 5.53545E+02 6.07894E+04-4.49378E+02-3.32156E+02
 -1      7361-4.01875E+04 2.12129E+05 7.62273E+02 3.74274E+04-7.60156E+02-1.79651E+03
 -1      7362-4.74189E+04 2.84848E+05-4.81564E+03 3.81481E+04 5.96780E+02-7.23778E+02
 -1      7363-3.05599E+04 2.43654E+05-4.78204E+03 1.41329E+04 1.65762E+02-4.22045E+02
 -1      7364-5.36381E+04 2.98116E+05-6.39313E+03 4.51445E+04 1.26188E+02 1.00105E+02
 -1      7365-2.27891E+03 5.29027E+04 1.69064E+04-1.12922E+05 3.39793E+04-5.39071E+04
 -1      7366 1.74412E+03 6.03727E+04 1.59871E+04-1.20196E+05-3.34851E+04 5.24609E+04
 -1      7367-3.10278E+03-1.76108E+05-9.38380E+01 6.30257E+04 1.75970E+02-9.12199E+01
 -1      7368-1.19704E+03-3.08932E+05 2.07295E+02 5.36407E+04 1.09248E+02-1.43317E+02
 -1      7369-4.58618E+03-1.00457E+04 2.89406E+02 1.09857E+05 8.06656E+00 3.67022E+02
 -1      7370-3.01120E+03-2.24113E+05 7.61955E+01 7.11128E+04 1.51681E+02 2.15916E+01
 -1      7371-1.67863E+03-3.93454E+05 2.00984E+01 6.06106E+04 6.59375E+01 3.26755E+01
 -1      7372 7.73195E+03 4.32573E+03 9.24419E+02-1.33846E+05 1.33976E+03 5.79201E+02
 -1      7373-5.58145E+03-2.32552E+03 2.28931E+03-1.46759E+05 1.53383E+03 1.04579E+03
 -1      7374 1.78057E+04-1.07724E+05 6.80485E+03-1.12164E+05 2.15981E+03 4.53463E+02
 -1      7375-2.87224E+03-4.01434E+03 1.15280E+01 8.40952E+03-1.38513E+00-1.09483E+01
 -1      7376-4.00223E+03-1.98666E+03-8.90533E+00 9.34559E+03-2.83404E+01-2.23055E+01
 -1      7377-2.73573E+03-5.36166E+03 1.81339E+01 9.50066E+03 8.51090E+00-3.47296E+01
 -1      7378-9.13744E+03 1.25755E+06-1.47233E+01 6.44627E+04-7.02053E+01 2.37302E+01
 -1      7379-4.95910E+03-4.07780E+03 5.52788E+01 5.81331E+04 7.06812E+01-7.08908E+01
 -1      7380 5.12829E+04 3.07098E+05 1.28449E+04 1.75281E+05 2.00704E+04 1.18957E+04
 -1      7381 6.93311E+04 3.74294E+05 7.93384E+02 2.01339E+05-2.04795E+03 4.60483E+03
 -1      7382-4.76886E+03-6.37892E+03 2.03234E+02 6.55026E+04-1.64475E+01 2.06813E+02
 -1      7383-3.70890E+03-9.83984E+04-2.60670E+02 6.13341E+04-2.27686E+02 1.23860E+02
 -1      7384-4.53581E+03-3.15720E+04 3.59324E+02 7.68547E+04 6.16306E+01 3.10020E+02
 -1      7385-5.13765E+03-1.05554E+04 1.20880E+01 7.57825E+04-6.69368E+01-3.65083E+01
 -1      7386 1.89432E+04-2.61561E+05-2.50949E+02-2.96649E+04-3.50016E+02 9.63015E+00
 -1      7387 1.20117E+04-2.03892E+05 1.66556E+02-1.96141E+04 9.88052E+02 1.69391E+02
 -1      7388 3.53944E+04-2.77307E+05 1.81882E+03-2.90298E+04 8.92440E+02 1.42284E+03
 -1      7389 5.73797E+04-2.65909E+05 1.53059E+03-1.24619E+04 1.06884E+03 1.02436E+03
 -1      7390 3.95545E+04-2.52222E+05 7.75549E+01-1.32999E+04 1.59929E+02 1.06375E+03
 -1      7391-2.90218E+04 2.47795E+05 4.19455E+02 7.65416E+04-1.25920E+03-5.35209E+01
 -1      7392-3.89112E+04 2.56560E+05 4.92678E+02 6.40753E+04-2.45292E+03-4.19024E+03
 -1      7393-1.31432E+03-2.88379E+05-2.07732E+02 4.86128E+04 2.95625E+01-1.57510E+02
 -1      7394-1.93561E+03-2.88689E+05 9.82469E+01 5.07610E+04 1.16128E+02 2.90440E+01
 -1      7395-2.43312E+03-4.47654E+05-3.66687E+01 8.97090E+04 2.36865E+02 1.75220E+02
 -1      7396-3.80548E+03-2.14708E+05-2.61765E+02 9.89357E+04 5.38126E+02 2.06276E+02
 -1      7397-4.04095E+04 2.12349E+05-7.30751E+02 3.64028E+04 1.07614E+03 1.55515E+03
 -1      7398-6.44521E+04 2.81547E+05-1.05236E+03 6.00718E+04 2.20691E+03 2.01566E+02
 -1      7399-4.71416E+04 2.85706E+05-4.45534E+03 3.72638E+04 1.43535E+02 5.78138E+02
 -1      7400-2.58149E+03-2.43259E+05 7.56936E+01 6.61804E+04 9.54370E+00 3.01432E+01
 -1      7401 1.52130E+02-1.97463E+06 7.52702E+01 2.29192E+04-3.86718E+02-8.29117E+01
 -1      7402-6.62815E+00-1.79500E+06 3.52742E+02 3.64961E+04-1.01875E+02 8.11115E+01
 -1      7403 1.42419E+02-1.97470E+06 1.20551E+01 2.24545E+04 4.63524E+02 7.88628E+01
 -1      7404-4.11608E+03-1.95070E+05 2.67268E+02 8.83245E+04 4.35740E+02-1.57772E+02
 -1      7405-2.35517E+03-3.72995E+05 5.53216E+01 8.19416E+04 3.77594E+01-3.31269E+02
 -1      7406-4.06483E+03-1.27923E+05 4.97941E+02 7.11158E+04 7.63337E+01-1.76615E+02
 -1      7407 9.06319E+04 2.58748E+04-1.27868E+03-7.67118E+04 3.66498E+03-6.22023E+03
 -1      7408 8.66142E+04 7.88944E+03 1.88656E+02-6.83690E+04 5.72292E+02-2.66949E+03
 -1      7409 9.82955E+04 5.80292E+02-7.12569E+01-6.90991E+04 2.02684E+03-4.69292E+02
 -1      7410 5.10784E+04-3.62948E+03-4.61363E+02-8.39396E+04 1.77425E+03-3.33474E+03
 -1      7411-2.18630E+05-1.22965E+06-8.56448E+04 3.68867E+05 1.05720E+05-1.31010E+04
 -1      7412-2.22915E+05-1.10679E+06-5.59438E+04 4.72672E+05 7.76027E+04-1.11701E+04
 -1      7413-2.10899E+05-1.08755E+06-4.76516E+04 4.70032E+05-8.31626E+04 1.54221E+04
 -1      7414-3.55798E+03-9.08194E+04 1.31842E+02 5.87348E+04 5.74749E+01-1.88899E+02
 -1      7415-3.87180E+03-8.49795E+04 1.61263E+02 6.04582E+04 9.92135E+01 5.82978E+01
 -1      7416-2.77145E+03-1.62816E+05-1.30770E+02 5.67294E+04-7.12287E+01-8.85851E+01
 -1      7417-4.88077E+03-9.36820E+03 4.85258E+01 1.08300E+05-4.86572E+01 2.95856E+02
 -1      7418-3.76772E+03-9.51886E+03-8.91988E+01 1.92390E+04-5.29122E+00-2.22126E+01
 -1      7419-2.61272E+03-1.94693E+04-8.43543E+00 1.86948E+04 7.01239E+00-1.39473E+00
 -1      7420 9.72143E+03 5.98581E+04-9.59636E+02-1.09038E+05-7.55273E+02-1.42028E+03
 -1      7421 1.65403E+04 4.36091E+04 1.31657E+03-1.14431E+05 6.90725E+02-5.43460E+02
 -1      7422 2.81017E+03 8.04626E+04-1.42915E+03-6.79103E+04-1.88219E+03 1.80647E+02
 -1      7423-9.51657E+04 2.21886E+05 4.11513E+03 1.22732E+04 6.11687E+02-2.12294E+03
 -1      7424-6.72519E+04 2.32581E+05 1.44374E+04 3.49270E+04-6.09108E+02-4.79498E+02
 -1      7425-6.39755E+04 2.08811E+05-3.23406E+03 4.60297E+04 2.69186E+01-6.70809E+02
 -1      7426-5.55210E+04 2.02647E+05-3.99701E+01 2.79019E+04 3.44946E+02-1.46060E+03
 -1      7427-6.34373E+04 1.99332E+05-1.65197E+03 3.29660E+04 4.56201E+02-3.18566E+02
 -1      7428-8.67077E+04 2.09369E+05 3.15245E+03-3.07959E+03-7.47858E+02 2.73510E+01
 -1      7429-5.37083E+04 2.78802E+05-2.25315E+02 6.80785E+04-9.44033E+02 6.30558E+02
 -1      7430-2.04351E+04 2.52611E+05-9.46557E+02 9.42202E+04-4.90772E+01 8.65023E+02
 -1      7431-3.23300E+04 2.70319E+05-2.96575E+03 8.63125E+04-9.95488E+02-7.52599E+02
 -1      7432-5.65432E+03 2.36370E+05-7.11719E+02 9.80169E+04 5.58363E+02-5.07086E+02
 -1      7433-2.19464E+03-3.04313E+05 1.39392E+02 7.39873E+04-1.05246E+02 9.70013E+01
 -1      7434-1.00819E+04-1.56687E+03-1.80127E+02 3.80008E+02 1.09695E+01 1.39035E+02
 -1      7435-9.58795E+03-4.24651E+02 1.74778E+01 1.24238E+03 2.86868E+01-5.16008E+01
 -1      7436-1.00667E+04-1.63211E+03-1.93298E+02 3.67327E+02-2.96543E+01-1.11131E+02
 -1      7437-4.83634E+03-3.74092E+03 2.68961E+02 5.66167E+04 4.77123E+00 1.69993E+02
 -1      7438 3.25685E+04-3.24037E+05-1.98189E+03-4.68368E+04 2.18304E+03 2.51771E+03
 -1      7439 7.85167E+03-2.31822E+05 1.46222E+03-3.26223E+04 2.69496E+03 2.99393E+03
 -1      7440 2.90709E+04-3.20912E+05 3.14863E+03-4.71194E+04-3.57646E+03-5.68285E+03
 -1      7441 3.82027E+04-2.74674E+05 4.23474E+03-2.84032E+04-1.84273E+03-1.97237E+03
 -1      7442 1.00552E+04-2.31625E+05 3.90644E+03-3.01962E+04-1.00163E+03-3.30606E+03
 -1      7443 1.16792E+04-2.04496E+05-7.76304E+02-1.97342E+04-1.35092E+03-6.82840E+02
 -1      7444-4.00857E+03-8.39413E+04-3.47729E+01 5.70492E+04-7.09609E+01-1.60788E+02
 -1      7445-4.73226E+03-1.23337E+04 3.59945E+02 5.94763E+04 2.13926E+01-1.30053E+02
 -1      7446-5.54031E+03 5.73593E+04 2.37970E+02 7.73959E+04-2.57083E+02-7.89331E+01
 -1      7447-5.78805E+03 1.70000E+05 1.58404E+02 7.66641E+04-5.22944E+01-7.09010E+00
 -1      7448-4.77588E+03 7.42271E+04 3.54637E+02 7.87694E+04-2.07923E+02 2.28801E+02
 -1      7449-6.72746E+03 2.08611E+05-1.28261E+02 8.52254E+04 6.72230E+00 1.01124E+02
 -1      7450-5.23796E+03 9.08569E+04 5.39420E+01 8.73655E+04-1.67352E+02 2.25275E+02
 -1      7451-5.88981E+03 6.99717E+04 2.20066E+02 8.63627E+04-2.94575E+02-1.27479E+01
 -1      7452-5.38856E+04 2.80727E+05-7.28143E+02 6.77816E+04 1.76705E+03-9.90105E+02
 -1      7453-3.27987E+04 2.44519E+05-2.11919E+02 7.50424E+04 2.01348E+03 2.37811E+02
 -1      7454-4.42713E+04 2.62554E+05 1.51431E+03 6.48242E+04 3.31498E+03 2.96031E+03
 -1      7455-2.99291E+04 2.96593E+05 1.03763E+04 6.35208E+04-2.03807E+03-8.62194E+02
 -1      7456-4.73320E+03-1.44856E+03 7.43874E+01 4.03614E+04-3.81386E+01 4.86743E+00
 -1      7457-4.91391E+03-2.40521E+03-1.65605E+02 3.96371E+04 7.83742E+01 1.54434E+02
 -1      7458-4.89377E+03-2.28535E+03-1.87738E+00 3.97302E+04-2.43264E+01-1.07827E+02
 -1      7459-3.49623E+03-5.09234E+04-8.43298E+01 3.60098E+04 1.43420E+00-3.68083E+01
 -1      7460-3.27295E+03-5.02470E+04-5.71012E+01 3.48598E+04-1.46148E+01 5.49127E+01
 -1      7461-3.19849E+03-5.05593E+04-7.16108E+01 3.58547E+04 1.62043E+01 8.95621E+01
 -1      7462-1.90175E+03-7.72646E+05 2.77532E+02 8.58050E+04-5.24014E+01-5.28216E+01
 -1      7463 5.76999E+04-2.63068E+05 7.64644E+02-1.13869E+04-1.74015E+03-7.59236E+02
 -1      7464 7.32083E+04-3.15908E+05 2.67341E+03-1.10409E+04 8.90806E+01-1.45764E+03
 -1      7465 3.76737E+04-2.50883E+05 3.05034E+02-1.36475E+04 5.03215E+01-1.72681E+03
 -1      7466-4.93834E+03-1.39667E+02 8.92163E+00 1.95234E+04 2.57192E+01-4.20357E+00
 -1      7467 2.95060E+04-1.61120E+05-1.53036E+02-4.37312E+03 1.17246E+03 7.73342E+02
 -1      7468 1.68441E+04-2.05404E+05 4.00497E+03-2.16467E+02 1.39597E+03-8.57232E+02
 -1      7469-1.61585E+04 2.18329E+05-8.63852E+02 8.06351E+04-1.26805E+03-2.64563E+02
 -1      7470-1.26475E+03 1.95644E+05-2.08560E+03 8.54600E+04-1.33756E+03-9.45476E+02
 -1      7471-1.24466E+04 2.30268E+05-7.77090E+02 9.09348E+04-3.68681E+02 5.17367E+00
 -1      7472-7.54937E+04 2.93955E+05-2.27072E+03 5.74762E+04 7.68683E+02-2.35815E+03
 -1      7473-9.38213E+04 3.14785E+05-5.35843E+03 6.88280E+04 8.61414E+03-7.84999E+02
 -1      7474-1.84748E+03-5.62555E+05 1.92736E+02 7.09308E+04 6.67520E+01 4.32285E+01
 -1      7475-1.73429E+03-9.05454E+05-4.20129E+01 7.90006E+04 2.48913E+02 2.13676E+02
 -1      7476-1.92261E+03-4.61166E+05-1.15008E+02 6.40375E+04-1.63623E+02-8.38431E+01
 -1      7477-4.94747E+03-3.72785E+03-9.19575E-01 1.05054E+05 2.41191E+01-1.16858E+02
 -1      7478-4.24213E+03-2.14942E+05 5.42672E+01 1.00407E+05 3.32743E+02 4.34253E+01
 -1      7479-4.90120E+03-4.40834E+03 3.44077E-01 1.03398E+05 7.67030E+00 2.97392E+01
 -1      7480-2.47633E+03-2.05054E+05-4.62363E+02 5.14609E+04-2.12820E+02-2.84813E+02
 -1      7481-2.58924E+03-1.41349E+05-3.29826E+01 5.01364E+04-2.07843E-01 5.55506E+01
 -1      7482-1.93629E+03-3.69704E+05 7.51884E+01 5.72381E+04-9.01282E+01-9.14915E+01
 -1      7483-7.18533E+03 6.18644E+05 2.75573E+02 1.07851E+05-1.22666E+02 5.03494E+02
 -1      7484 5.52814E+03-1.00398E+05-2.54771E+02 1.56500E+04-1.28779E+02-9.44181E+01
 -1      7485 1.75755E+03-7.95223E+04-8.61678E+00 1.38650E+04 8.43302E+01 8.83766E+01
 -1      7486 3.87057E+03-8.69511E+04 2.15326E+02 6.45625E+03 1.92853E+02-1.26308E+02
 -1      7487 7.98810E+03-1.09879E+05-1.76401E+02-3.54611E+04 4.42098E+02-1.28607E+02
 -1      7488 7.42799E+04-2.52935E+05 1.78810E+03-6.97998E+03-1.01866E+02-9.94218E+01
 -1      7489 4.82161E+04-2.17331E+05 3.43332E+03-5.40384E+04 1.54118E+03-1.92124E+02
 -1      7490 7.48693E+04-2.52550E+05 2.09277E+03-6.73438E+03 2.16237E+02 1.01406E+02
 -1      7491 4.82110E+04-2.17656E+05 3.83463E+03-5.38138E+04-1.28053E+03 1.13095E+02
 -1      7492 3.16034E+04-1.38332E+05 3.48986E+02-3.36723E+04 2.45187E+02 4.04175E+02
 -1      7493 1.81487E+04-1.25522E+05-5.86582E+02-4.03322E+04 7.68169E+01 1.86756E+02
 -1      7494-3.92165E+03-1.00716E+04-1.09801E+02 2.19140E+04 1.18404E+01 2.59138E+01
 -1      7495-2.79087E+03-2.02573E+04 5.95150E+01 1.99834E+04-1.26327E+01-2.31775E+01
 -1      7496-2.85488E+03-2.06457E+04 3.94393E+01 2.13389E+04-3.45415E+01 4.84976E+01
 -1      7497-3.18811E+03-4.37944E+05-4.04503E+02 9.21492E+04 2.11179E+01 2.30135E+02
 -1      7498-1.75770E+04 1.94392E+05-6.44513E+03-6.56996E+04-1.25202E+03 3.58952E+02
 -1      7499-1.85251E+04 2.05365E+05-7.78248E+03-9.73565E+04-3.54496E+03-2.18228E+02
 -1      7500-2.76618E+04 2.87976E+05-1.72514E+04-3.38926E+04 7.94161E+02 6.41177E+02
 -1      7501-2.54471E+04 2.51536E+05-5.14912E+03-4.14273E+04-1.83792E+03-2.49755E+02
 -1      7502-3.09247E+04 2.33041E+05-8.30669E+03-4.43353E+03 2.87529E+02 2.63734E+02
 -1      7503-9.31417E+03 2.12064E+03 3.23259E+01 2.48932E+03-2.04341E+01 2.09518E+01
 -1      7504-6.91623E+03 1.35403E+05 4.50838E+02 5.32058E+04 8.57884E+01-1.63078E+02
 -1      7505-6.03440E+03 6.54464E+04-2.71478E+01 5.49022E+04 1.17112E+02-8.34352E+01
 -1      7506-6.14446E+03 6.49961E+04 3.12565E+02 5.62959E+04 1.70759E+01-2.74843E+02
 -1      7507-6.10309E+03 8.72343E+04-1.44440E+02 6.36489E+04 2.52668E+01 7.38050E+01
 -1      7508-8.59206E+03 1.19165E+04-3.73190E+01 9.20772E+03 3.38622E+01 5.23074E+01
 -1      7509-8.65043E+03 9.38121E+03-4.77157E+01 8.06836E+03 2.67961E+01 4.95676E+00
 -1      7510-9.52918E+03 1.16697E+04-1.03887E+01 5.53136E+03 2.52531E+01 8.78928E-01
 -1      7511-9.38446E+03 1.44133E+04-4.56228E+01 6.73111E+03 3.65335E+01 3.31183E+01
 -1      7512-5.28124E+03 1.12732E+05 1.37812E+02 9.63372E+04 2.58796E+02 6.06677E+01
 -1      7513-6.05392E+03 8.60810E+04-8.95038E+01 9.50633E+04 3.74340E+02 6.02273E+01
 -1      7514-1.35704E+04-3.66095E+05-8.20826E+02-5.11929E+04-4.59587E+03-1.16969E+04
 -1      7515-1.40932E+04-2.84885E+05-4.01456E+03-3.75278E+04 7.12692E+02-2.42581E+03
 -1      7516-2.71211E+04-3.47135E+05-1.86909E+04-5.86568E+04 4.76991E+03-1.86447E+03
 -1      7517-4.02295E+04-1.73318E+05 3.23046E+04-1.05527E+05-7.57494E+03-1.21434E+04
 -1      7518-2.34766E+03-3.48822E+05 1.45492E+02 5.38727E+04 1.11605E+02 2.55102E+02
 -1      7519-1.99623E+03-3.31586E+05-2.69290E+02 5.42798E+04 1.32285E+02 9.89775E+01
 -1      7520-5.38658E+03 6.34778E+04 7.71783E+01 6.99683E+04-7.83141E+01-3.31126E+02
 -1      7521-6.21068E+03 1.37921E+05 8.19681E+01 6.78849E+04-6.21708E+01-1.43792E+02
 -1      7522-5.79787E+03 4.67141E+04-3.84784E+02 6.86416E+04-1.80548E+02-2.40054E+02
 -1      7523 7.72996E+04-2.87588E+05 6.31049E+02 5.90591E+04 3.92234E+02-3.89516E+02
 -1      7524 1.10367E+05-3.01163E+05 9.23393E+01 3.85092E+04 3.94200E+02-6.11225E+01
 -1      7525 1.00740E+05-3.02562E+05 7.70964E+02 2.52945E+04 3.44200E+02-3.42810E+02
 -1      7526 7.50014E+04-2.76021E+05 2.36317E+03 3.86400E+04-2.60610E+02-6.48166E+02
 -1      7527 1.77820E+04 5.51917E+05 1.11528E+05 1.38559E+05-1.53434E+03-2.23555E+03
 -1      7528-4.63072E+04 2.28558E+05-1.01111E+04 1.79011E+04 5.62285E+03 6.51713E+03
 -1      7529-8.66895E+04 2.51541E+05-1.57368E+04 6.34717E+03 2.21252E+03 1.89725E+03
 -1      7530-2.14336E+03-5.38248E+05 1.45808E+02 6.71413E+04-2.92613E+00-3.55285E+02
 -1      7531-1.81099E+03-5.15517E+05-1.29132E+02 6.74195E+04-1.32105E+02-2.65839E+01
 -1      7532-2.26044E+03-4.38282E+05 2.16390E+01 6.03716E+04 8.82371E+01 2.60535E+02
 -1      7533-1.87068E+03-4.18730E+05-2.52196E+02 6.08680E+04 1.30225E+02 1.18723E+02
 -1      7534-6.09673E+03 2.56457E+05 6.09884E+01 9.34347E+04 1.99250E+02-4.08357E+01
 -1      7535-2.37108E+04-2.81389E+05-6.19340E+03-4.68126E+04 2.86429E+02 7.10685E+03
 -1      7536-3.57912E+03-7.17146E+04 5.85487E+01 5.29623E+04-9.30283E+01 1.50154E+02
 -1      7537-2.15585E+03-6.23656E+05-3.62554E+02 7.42469E+04 1.10990E+02-7.78816E+01
 -1      7538 9.77170E+04 1.61432E+06 2.99770E+03 1.39296E+05-2.29993E+03-2.88444E+03
 -1      7539-6.33000E+03 1.38378E+03 6.73183E+00 8.34499E+02-2.82529E+01-5.42241E+00
 -1      7540-5.06034E+03 4.77040E+02 2.70268E+01 2.38295E+04 2.38298E+01 8.29603E+01
 -1      7541-6.10385E+03 1.12380E+04 1.87231E+02 2.17760E+04 6.75167E+01 6.97175E+01
 -1      7542-7.14228E+03 2.12570E+04-2.64496E+01 2.13514E+04 3.20122E+00 2.74248E+01
 -1      7543-5.97031E+03 1.16432E+04 7.81273E+01 2.34039E+04-2.97781E+01 2.98528E+01
 -1      7544-6.18243E+03 1.01232E+04 3.69632E+01 2.05613E+04 9.51454E+01-3.22439E+01
 -1      7545 3.02165E+02-1.32225E+06 5.98059E+02 4.75715E+04 6.31318E+01-1.57014E+02
 -1      7546-3.52914E+02-1.30979E+06 6.67689E+01 5.14880E+04 1.04519E+02-2.71362E+02
 -1      7547-9.57094E+02-1.01804E+06 1.89636E+02 7.54566E+04 4.76606E+02-1.82990E+02
 -1      7548-1.64816E+03-1.03473E+06-1.07529E+01 7.21944E+04 3.26353E+02 4.79998E+01
 -1      7549-1.73616E+03-1.91678E+05 1.59917E+02 4.95096E+04-1.41641E+01 9.59239E+01
 -1      7550-3.03558E+03-1.33880E+05-6.06862E+01 5.47828E+04-1.32389E+02-2.93924E+01
 -1      7551-4.05851E+03-2.03953E+05-3.09426E+02 1.01969E+05 3.32725E+02-5.31047E+02
 -1      7552 1.91906E+02-1.85203E+06-3.71802E+02 3.66225E+04 2.66239E+01-1.80205E+02
 -1      7553-3.51125E+04 1.96759E+05 7.80245E+01 5.06514E+04-3.95262E+02 5.66561E+02
 -1      7554-3.22886E+04 2.05658E+05 3.02797E+03 5.12509E+04 5.27524E+02 1.21315E+03
 -1      7555-6.11943E+04 2.12242E+05-2.10531E+03 4.49714E+04 1.38797E+03 5.86141E+02
 -1      7556-5.72981E+04 2.02085E+05-4.77791E+02 2.89877E+04-1.44572E+02 7.59331E+02
 -1      7557-3.14891E+04 1.87439E+05 3.79224E+02 4.00946E+04-2.48952E+02 1.53564E+02
 -1      7558-3.61889E+04-6.02883E+05-1.77205E+03 4.43617E+04 1.02590E+02-8.87459E+02
 -1      7559-5.98842E+04-9.22659E+05 2.51013E+03 4.51292E+04 4.89159E+02-1.19703E+03
 -1      7560-2.41631E+03-1.74947E+05 1.75695E+01 5.73601E+04-6.71531E+01 1.22877E+02
 -1      7561-7.10967E+03 1.75057E+05 8.29544E+01 6.15624E+04 4.25646E+01-3.53118E+01
 -1      7562-2.62681E+04 3.19272E+05-8.23172E+03 9.95967E+04-1.71788E+03 9.66404E+02
 -1      7563-5.94537E+04 2.98634E+05-6.05663E+02 7.05344E+04-1.75909E+03-2.32219E+02
 -1      7564-2.94633E+02-1.40736E+06 5.83622E+01 7.03242E+04 2.00373E+02 8.31088E+01
 -1      7565-6.53844E+01 3.74424E+01 1.88983E+01-1.28326E+02-6.94041E+00-7.41369E+00
 -1      7566-6.92763E+01 4.21324E+01 2.71940E+00-1.25779E+02 4.26737E+00 5.14876E+00
 -1      7567-8.61655E+02-3.03264E+02-8.87322E+01-9.65760E+01 2.39468E+01 3.97928E-01
 -1      7568-1.43359E+02-1.53689E+02-2.75343E+00-8.60162E+01 4.65148E+00 4.47401E+00
 -1      7569-8.62581E+02-2.98713E+02-8.12574E+01-9.67647E+01-3.02308E+01 1.14154E+01
 -1      7570-4.83087E+03-4.01001E+05 2.56000E+04-1.90913E+04 3.69248E+04 7.87340E+03
 -1      7571-1.09746E+04-3.20762E+05 1.12317E+04-8.50040E+04 3.45754E+04 8.88700E+03
 -1      7572-7.72863E+03 1.95557E+05 2.67062E+02 4.98082E+04 1.99445E+02-1.39993E+02
 -1      7573-7.53066E+03 2.03720E+05 5.60900E+01 5.11844E+04 1.42595E+02-2.96121E+02
 -1      7574-8.63480E+03 2.55979E+05-7.64482E+01 4.50532E+04-1.73382E+01-1.23272E+02
 -1      7575-4.01417E+03-1.45261E+04 5.57281E+01 2.66906E+04-7.29825E+01 5.04889E+01
 -1      7576-4.97732E+03 9.40830E+01 2.64945E+01 2.69068E+04-3.48920E+01 9.56121E+01
 -1      7577-3.79796E+03-1.31418E+04 1.36909E+02 2.52129E+04-4.25366E+01 1.02316E+02
 -1      7578-2.80931E+03-2.85266E+04 5.96943E+00 2.50760E+04-2.09772E+01 2.80857E+01
 -1      7579-6.11039E+04 2.76719E+05-3.18885E+03 3.37137E+04 9.37311E+02 5.26832E+03
 -1      7580-6.68442E+04 2.86262E+05-2.58565E+03 4.73523E+04-3.81390E+02 5.64037E+03
 -1      7581-4.06983E+03-1.09577E+04-1.20169E+02 2.34014E+04 2.64320E+01 6.56242E+01
 -1      7582 6.68739E+04-2.56092E+05 9.18914E+02 2.73180E+04-1.50700E+02 1.78504E+02
 -1      7583 4.64857E+04-2.31145E+05 3.51538E+02 3.95007E+04-4.21598E+02 6.19357E+01
 -1      7584 5.70614E+04-2.51940E+05 2.56138E+01 4.06576E+04-2.00014E+02-9.36372E+00
 -1      7585-3.84344E+03-1.92399E+03-2.12629E+01 7.84253E+03-3.12558E+01-8.82633E+00
 -1      7586 3.14721E+04-1.27219E+04 2.33462E+02-9.92263E+04 1.08664E+02-1.02008E+02
 -1      7587 3.64456E+04-2.63410E+04-1.03105E+03-9.84198E+04-1.08966E+03-6.48793E+02
 -1      7588 1.45547E+04 1.28844E+04-3.36824E+02-1.24132E+05 7.06074E+02-9.38685E+02
 -1      7589 2.36315E+04 3.00603E+04 1.59053E+03-1.15364E+05 2.35792E+02-1.44120E+03
 -1      7590 4.07587E+04 1.11418E+04 3.91481E+03-1.01324E+05-7.36664E+01 9.86323E+01
 -1      7591-7.31887E+04-1.24363E+06-9.13008E+02 7.48385E+04-1.70902E+02-3.44085E+02
 -1      7592-5.98759E+04-9.22545E+05 9.82555E+02 4.70802E+04-3.67174E+02 1.29910E+03
 -1      7593-7.39917E+04-1.24168E+06 1.83958E+02 7.49533E+04 5.15150E+02 4.66525E+02
 -1      7594-2.57091E+03-4.25597E+05 7.80494E+01 9.47222E+04 2.27803E+02 5.31350E+00
 -1      7595-8.64590E+02-3.78526E+05 3.90416E+02 4.75532E+04 1.24291E+02-3.21842E+01
 -1      7596-8.56848E+04-5.39603E+05-2.43611E+04 4.31550E+04-6.70465E+03-7.30344E+03
 -1      7597-2.05723E+04-5.70983E+05 2.37253E+03 4.68385E+03-1.23211E+04-7.14030E+03
 -1      7598 6.75134E+03-4.74823E+05-1.05636E+04-1.20009E+04 1.05421E+04 5.96648E+03
 -1      7599-2.95260E+04-3.66588E+05-2.68103E+03 4.89098E+03-5.78723E+03-2.17267E+03
 -1      7600-5.03690E+03 1.04244E+02 1.81303E+01 1.03724E+04-1.61393E+00 1.53136E-01
 -1      7601-3.80697E+03-3.29166E+03-1.28888E+01 1.04840E+04-2.21345E+01 1.15209E+01
 -1      7602-4.91924E+03-3.21053E+03 2.24760E+01 5.53615E+04-1.13079E+01 9.92753E+01
 -1      7603 7.47934E+04-2.88224E+05-1.34691E+03 5.94232E+04-4.06171E+02 1.53563E+02
 -1      7604-1.02013E+03-7.16071E+05 4.82194E+02 6.54396E+04 2.86875E+02-7.46620E+01
 -1      7605-8.02800E+04-3.45433E+05-1.18704E+05-4.11772E+03 1.65993E+05 6.54716E+03
 -1      7606-6.69175E+03 1.99680E+04 5.23254E+01 2.34376E+04-6.20743E+01-1.67073E+01
 -1      7607-7.84216E+03 2.95614E+04-1.28274E+02 2.08606E+04-2.23576E+01-2.22538E+01
 -1      7608-3.43302E+03-3.30180E+05 3.12707E+02 1.12180E+05-8.81704E+01 2.35689E+01
 -1      7609-2.48249E+03-6.99414E+05-1.05271E+02 1.01343E+05 2.58025E+02 1.88995E+02
 -1      7610-3.00582E+03-4.81861E+04 5.75158E+01 3.47537E+04-2.01116E+01-3.94009E+01
 -1      7611-1.94939E+03-8.19206E+04-2.28772E+01 3.22758E+04-1.29791E+02-8.11775E+00
 -1      7612-2.11802E+03-8.20176E+04-4.72113E+00 3.23516E+04 1.59089E+02 2.02208E+01
 -1      7613-3.20145E+03-4.84584E+04 8.81807E+01 3.46400E+04-3.89894E+00 1.03294E+02
 -1      7614-4.86788E+03-8.22126E+03-3.60175E+01 6.44136E+04-3.62168E+01 1.84686E+02
 -1      7615 2.25418E+02-1.50046E+02 8.97021E+00 7.04784E+01 2.28504E+01-1.92745E+01
 -1      7616 1.46268E+02-1.26682E+02 9.67303E-01-6.03323E+01 4.70389E+00-1.16987E+01
 -1      7617 5.88336E+02 4.92669E+01 5.46578E+01-9.75152E+01 2.64302E+00-1.47848E-01
 -1      7618-1.34704E+01-1.84567E+02-1.64565E+01 4.49613E+01 3.34368E+00 3.46810E+00
 -1      7619-4.48592E+02-4.61333E+02-1.04838E+02-4.39818E-01-8.54544E-01 1.12224E+01
 -1      7620-1.02048E+03-5.91321E+05 5.30111E+02 5.93160E+04-7.13644E+01 3.46209E+02
 -1      7621-7.53871E+02-4.78895E+05 4.92727E+02 5.33831E+04 2.65758E+01-1.79436E+02
 -1      7622-7.17374E+03 2.02219E+04 1.22874E+02 2.00783E+04-1.38184E+01 4.98683E+01
 -1      7623-6.37304E+03 1.54831E+05 2.84000E+02 6.58695E+04 3.99905E+01-1.49532E+02
 -1      7624 1.37029E+02-1.28000E+02 1.65662E+00-6.08322E+01-4.90619E+00 8.24387E+00
 -1      7625 2.20765E+02-1.53072E+02 8.35027E+00 6.94691E+01-2.45080E+01 1.85408E+01
 -1      7626-4.48936E+02-4.80472E+02-8.82743E+01-5.54585E+00 3.95884E-01-3.38423E+00
 -1      7627-5.19066E+03 1.20766E+02-2.64413E+01 1.17874E+04-3.40384E+00 8.83232E+00
 -1      7628 1.81679E+04-1.68186E+04 1.75071E+02 7.92455E+04-1.74976E+02-1.89048E+02
 -1      7629 1.96500E+04 2.14750E+04-3.88640E+02 4.56561E+04-4.47800E+01 8.14638E+01
 -1      7630-2.66876E+03-6.93455E+03-6.48512E+00 1.05873E+04 4.04079E+00 2.02290E+01
 -1      7631 5.76937E+04-1.79547E+05-2.67351E+03-2.77539E+04 3.15212E+02-1.27446E+03
 -1      7632 7.33068E+04-1.95006E+05-6.43875E+03-2.59079E+04 2.17481E+03 4.54147E+02
 -1      7633-5.78374E+03-2.35671E+05-1.87710E+04 1.20454E+03 5.03326E+03-7.38657E+02
 -1      7634-3.18060E+03-2.19833E+03-2.65921E+00 6.54189E+03-1.04168E+01-7.43461E+00
 -1      7635-2.41872E+03-4.31859E+03-3.64353E+01 6.97781E+03 1.17488E+01-1.80774E+01
 -1      7636 6.17867E+04-2.79513E+05 2.42742E+03-1.03596E+04-5.48938E+02 7.78406E+02
 -1      7637 2.83239E+04-2.15927E+05 2.32823E+03-7.24233E+03-1.86247E+02-4.04794E+02
 -1      7638 7.28780E+04-2.72685E+05 1.57455E+03 7.27191E+03-6.45279E+02-3.38426E+02
 -1      7639-6.04293E+03 1.39097E+04-1.14081E+02 2.67219E+04 1.20150E+02-4.29111E+01
 -1      7640-6.07431E+03 1.36969E+04-1.00624E+02 2.52093E+04 1.14419E+02 8.58658E+01
 -1      7641-7.06273E+03 2.85910E+04 1.82458E+01 2.51440E+04 1.28064E+01 5.70228E+01
 -1      7642-4.63779E+03-6.33400E+04 1.13264E+02 1.13713E+05 8.63528E+01-2.52991E+01
 -1      7643-3.18054E+03-4.03881E+05-4.46327E+02 1.05590E+05 1.60844E+02-3.12014E+02
 -1      7644 5.64087E+04 2.14478E+04-2.71206E+03-7.80063E+04 2.64655E+02-1.75979E+03
 -1      7645 3.80486E+04 2.64758E+04-1.99988E+03-1.04794E+05 2.04917E+03-2.63527E+03
 -1      7646 5.74829E+04-3.02869E+05-2.29506E+03-2.81635E+04-5.20617E+03-2.61251E+03
 -1      7647-4.96025E+03-1.18849E+06-1.75428E+01 8.56973E+04 2.62225E+02 4.46700E+02
 -1      7648 7.18405E+04-3.62329E+05 3.33711E+03-2.78386E+04-8.45889E+03-1.09166E+03
 -1      7649 2.39316E+04-3.35762E+05 1.48331E+04 3.69336E+04-9.85296E+03 4.29196E+03
 -1      7650-7.89344E+03-3.34444E+05 3.28496E+03 6.26233E+04-2.05849E+04 2.46996E+03
 -1      7651 7.86639E+04-3.17333E+05-2.02123E+03 2.78811E+04-4.32584E+03 5.61290E+02
 -1      7652 3.87460E+04-2.48604E+05 7.02753E+03 7.12153E+04-1.17371E+04 5.16532E+03
 -1      7653-2.58957E+05 2.69119E+05-2.65327E+04 2.94328E+04-3.86318E+03 1.80085E+04
 -1      7654-5.25990E+04 2.32082E+05 7.31036E+03 6.42902E+04-5.91243E+03 8.62322E+02
 -1      7655 2.41469E+03-5.75444E+05 1.28907E+02 1.15864E+05 1.44910E+02-3.63334E+02
 -1      7656 1.43006E+03-5.85478E+05 1.75122E+02 1.16622E+05 2.05409E+02-3.10131E+01
 -1      7657-7.06641E+03 1.35512E+05-8.18355E+01 5.52092E+04 4.21078E-01-7.79274E+01
 -1      7658 7.17761E+04 6.30910E+05 9.61902E+02 6.55957E+04 7.71799E+02 6.21070E+02
 -1      7659 8.46016E+04 6.78065E+05-1.17409E+03 3.09474E+04 3.03242E+02 7.27126E+02
 -1      7660-6.21341E+03 9.34809E+03 3.53203E+01 1.92549E+04 1.05471E+02-1.15599E+01
 -1      7661-6.95195E+03 9.46552E+04-4.03805E+01 4.61204E+04-1.49532E+01 1.44883E+02
 -1      7662-7.01390E+03 9.55264E+04 1.46359E+02 4.46012E+04-4.36985E+01-3.82437E+00
 -1      7663-6.14799E+03 4.59546E+04 1.98062E+02 4.74327E+04 5.30171E+00 6.59984E+01
 -1      7664-4.04696E+03-3.48399E+03-2.28385E+01 1.20023E+04 1.25527E+01 1.00020E+01
 -1      7665-1.43798E+03-8.45357E+05-4.29810E+02 6.68049E+04-8.66804E+01-4.45166E+02
 -1      7666-3.25657E+02-1.04377E+06 2.47968E+02 4.76429E+04 8.43767E+01-3.06063E+02
 -1      7667-8.36562E+02-9.69544E+05 1.01697E+02 5.83797E+04 3.84055E+01-1.58520E+01
 -1      7668-2.98739E+04 3.50396E+05-9.29772E+03 2.42546E+04-1.52842E+04 2.41879E+03
 -1      7669-3.33732E+04 3.42668E+05-6.69217E+03 5.23015E+04-9.60397E+03-7.60685E+01
 -1      7670 1.64611E+04 4.54310E+05-3.61534E+04 8.73517E+04-2.06720E+04 1.19071E+03
 -1      7671 9.46368E+03 4.25418E+05-3.24805E+04 1.12100E+05-1.22647E+04 2.76140E+03
 -1      7672 8.36871E+03 4.22885E+05-3.65544E+04 7.76368E+04 7.60776E+03 4.08054E+02
 -1      7673-6.89603E+03 6.44684E+04-4.19859E+00 3.78246E+04-2.41559E+01 1.73324E+01
 -1      7674-6.94429E+03 6.41873E+04 1.16266E+02 3.64599E+04-1.85627E+01 8.03745E+01
 -1      7675-6.06736E+03 3.15499E+04 6.41415E+01 3.89237E+04-1.62666E+02 1.30313E+01
 -1      7676-6.04326E+03 3.13982E+04-2.79388E+01 3.77050E+04-1.31371E+02 1.43631E+02
 -1      7677-2.33338E+04 3.24867E+05-2.10798E+04 7.28990E+04 7.02541E+02-6.13869E+01
 -1      7678-1.52847E+04 3.47282E+05-1.07957E+04 1.07542E+05-9.08028E+03 1.79658E+03
 -1      7679 1.48637E+04 4.37744E+05-4.57817E+04 1.26272E+05 1.43549E+04 5.71700E+03
 -1      7680 1.09841E+05 8.02852E+05 1.15144E+05 4.36277E+04 3.39053E+03 1.20420E+04
 -1      7681 1.18366E+05 1.11301E+06 7.68404E+04 2.16128E+05 4.42533E+04-1.37435E+03
 -1      7682-2.56462E+03-3.42681E+04-2.00925E+02 2.27346E+04 4.97502E+01 7.63958E+01
 -1      7683-6.39316E+03 3.56245E+03 5.76205E+00 1.04090E+04 4.01731E+01 2.39783E+01
 -1      7684-5.09972E+01-1.17294E+06 8.42204E+01 3.79725E+04 5.71677E+01-7.59706E+01
 -1      7685-2.52557E+03 5.58945E+05-1.62612E+02 1.19763E+05-6.44689E+01 2.14533E+02
 -1      7686-4.78705E+03 9.86884E+05-3.36804E+02 9.95214E+04-4.83212E+01 4.80742E+01
 -1      7687-3.65356E+03-5.06987E+04 1.00206E+02 4.45090E+04 9.84431E+01-1.09105E+02
 -1      7688-4.99704E+03-2.49718E+03 7.91323E+01 4.75943E+04-5.55090E+01-1.64032E+02
 -1      7689-3.77367E+03-5.23165E+04 4.03942E+01 4.56981E+04-1.73313E+02-1.52449E+02
 -1      7690-2.47752E+03-1.00356E+05 2.08517E+01 4.22220E+04-8.83091E+00-2.02279E+02
 -1      7691-1.10606E+05-1.40972E+06-5.55967E+03 7.51501E+04-2.65474E+03-4.93481E+03
 -1      7692-1.09574E+05-1.40626E+06-6.48354E+03 7.58741E+04 7.32719E+02 2.20799E+03
 -1      7693-2.54930E+03-7.23693E+05-8.88857E+02 9.73680E+04 1.90041E+02 5.72718E+02
 -1      7694 3.00810E+05 8.07040E+05 6.07571E+04 4.18698E+05-1.13504E+05-6.59791E+04
 -1      7695 1.09921E+05 3.82288E+05 3.06863E+03 1.92414E+05-1.38822E+05-6.63620E+04
 -1      7696 1.59047E+05 4.39236E+05-1.75088E+04 2.60892E+05-8.09808E+04-3.31120E+04
 -1      7697 2.11398E+05 6.21972E+05-1.71603E+04 2.94483E+05-1.16810E+04-1.32336E+04
 -1      7698 5.31542E+04 4.47396E+05-3.78154E+04 1.35868E+05-3.79270E+04-6.88498E+03
 -1      7699 1.48007E+05 6.93465E+05-1.75571E+04 2.16404E+05-5.47436E+04-3.41952E+04
 -1      7700-4.87588E+03-2.82994E+03-4.99580E+00 4.91228E+04-4.65848E+01 2.44528E+01
 -1      7701 6.06727E+04-2.66320E+05 9.42225E+00 5.93392E+04 6.99557E+02-2.25868E+02
 -1      7702 8.34374E+04-2.83418E+05 2.59276E+01 2.58709E+04 2.69285E+02 2.40873E+02
 -1      7703 1.31015E+05-2.66910E+05 1.68132E+03 3.18162E+04 3.49201E+03-3.92785E+03
 -1      7704-7.39561E+03 1.90631E+04-1.41113E+00 1.87333E+04 4.73435E+01-4.18729E+00
 -1      7705-1.82037E+03-6.83210E+03-6.70901E+01 7.19806E+03 1.50549E+01-2.10132E+01
 -1      7706-4.64907E+03-2.23467E+03 2.27528E+02 5.05770E+04 5.89428E+00 1.50831E+02
 -1      7707-5.41808E+03 4.79202E+04 3.86963E+02 4.93998E+04-2.37903E+01 1.83211E+02
 -1      7708-1.67095E+03-2.17817E+05 3.72676E+02 4.38708E+04 1.34555E+02 3.76555E+01
 -1      7709-4.85766E+03-1.70505E+03 1.86717E+02 3.82765E+04-8.46198E+01 1.43437E+02
 -1      7710-4.85713E+03-1.80182E+03 2.48911E+01 3.83754E+04 2.24427E+01-9.95942E+01
 -1      7711-5.13557E+03-1.50672E+03-9.41852E+01 3.76804E+04 3.27749E+01 1.98922E-01
 -1      7712-3.85979E+03-1.94505E+04-1.41354E+02 2.75656E+04-3.91449E+00 8.53213E+01
 -1      7713-5.03834E+03-2.91485E+02 9.72449E+00 2.84319E+04 2.56933E+01 3.18107E+01
 -1      7714-5.03135E+03-5.76798E+02-1.21644E+02 2.96697E+04 6.17447E+01 9.92912E+01
 -1      7715 2.59533E+03-5.64938E+05 5.61935E+01 1.15354E+05 3.63857E+02-1.15301E+02
 -1      7716-2.08571E+05-1.23383E+06-7.75724E+04 3.55097E+05-1.02888E+05 7.39192E+03
 -1      7717-2.18414E+05-1.24575E+06-3.12111E+04 4.94550E+05-3.24930E+04 6.48100E+03
 -1      7718-2.17980E+05-1.23465E+06-3.47375E+04 4.82110E+05 3.18147E+04-9.34072E+03
 -1      7719 8.67760E+03-4.70169E+05-9.08076E+02 6.04375E+04 5.68235E+02 5.58834E+03
 -1      7720-2.93673E+03-4.06246E+05-7.44218E+01 9.96682E+04-1.79806E+02-2.47100E+02
 -1      7721-7.36653E+03 3.46544E+04 2.61135E+02 2.27920E+04-3.50378E+01 6.59619E+01
 -1      7722-6.15321E+03 6.50092E+04 3.33932E+02 5.33552E+04 7.72808E+01 1.52486E+02
 -1      7723-2.26865E+03-2.91211E+04 1.42802E+02 2.07989E+04-6.41588E+01 1.02251E+02
 -1      7724-8.47932E+03 1.22815E+06 5.89742E+02 7.00876E+04-2.82525E+01 1.64577E+02
 -1      7725 9.20689E+04-3.04800E+05 1.43546E+03 5.55026E+04-5.01459E+02-3.80518E+02
 -1      7726 9.89014E+04-3.00038E+05 2.83696E+03 4.79290E+04-6.71479E+02 7.36627E+02
 -1      7727 6.48033E+04-2.88909E+05 2.54614E+03 7.00639E+04 7.69453E+02-1.82723E+02
 -1      7728 1.52440E+02-1.18862E+06 1.80361E+02 5.59549E+04 1.58280E+02 1.49232E+02
 -1      7729 5.16425E+04 5.50433E+05-2.08204E+04-1.02255E+05-5.10348E+04-3.62945E+03
 -1      7730-2.54695E+03-3.32573E+04 1.38096E+02 2.58670E+04-5.13855E+01 7.01450E+01
 -1      7731-8.38947E+03 1.29506E+04-9.14625E+01 1.07050E+04 3.06784E+01 2.24201E+01
 -1      7732-7.34624E+03 8.58145E+03-3.98191E+01 1.30421E+04 2.59298E+01-2.11827E+00
 -1      7733-7.43663E+03 7.87758E+03 1.51015E+01 1.15989E+04 2.05998E+01 2.98488E+01
 -1      7734 1.11600E+05 1.12340E+06-2.27424E+03 7.91490E+04 1.15279E+03-1.51405E+03
 -1      7735-5.54944E+03 3.27483E+04 2.74939E+02 4.08097E+04-1.47975E+02 3.16342E+01
 -1      7736-7.06760E+03 3.85356E+04 9.84358E+00 2.82088E+04-1.06407E+01 6.44783E+01
 -1      7737-6.13270E+03 1.96117E+04 1.41425E+02 3.03127E+04 8.04846E+01 7.68329E+01
 -1      7738-6.92329E+03 3.97703E+04 1.87031E+01 2.95827E+04-1.67155E+01-2.00902E+00
 -1      7739-5.08190E+03-1.99172E+03-2.59842E+01 4.62858E+04 5.54948E-01-2.88744E+01
 -1      7740-8.96820E+02-8.02037E+05-2.05247E+02 8.12686E+04-3.52778E+00 4.54280E+02
 -1      7741-4.94159E+04-6.68552E+04-1.04004E+03-1.08246E+05 7.48916E+02 1.23842E+02
 -1      7742-3.18869E+04-5.90206E+04-1.84619E+03-1.20398E+05 1.55893E+03-3.15721E+01
 -1      7743-9.33481E+04-3.62303E+04-1.24793E+03-1.04425E+05 6.90358E+02-9.41437E+01
 -1      7744-7.97343E+04-2.06077E+04-1.25856E+03-1.14757E+05 6.24370E+02-9.05997E+02
 -1      7745-5.31591E+04-4.28798E+04-4.25653E+03-1.16583E+05-6.08496E+02 1.53570E+02
 -1      7746-5.87600E+03 2.26722E+05 7.00906E+02 1.13393E+05-1.68552E+02 5.76939E+02
 -1      7747-5.95280E+03 4.06860E+04-2.39065E+02 1.18908E+05 1.44656E+02 2.74772E+02
 -1      7748-7.16184E+03 4.02795E+05-1.50627E+02 1.09786E+05-1.60292E+02-1.25232E+02
 -1      7749 1.50106E+04-6.05632E+04-2.17036E+02 1.06492E+05 4.02192E+02 2.40257E+02
 -1      7750-3.80101E+03-1.99716E+04 1.19965E+02 2.88980E+04-3.71690E+01 2.62815E+01
 -1      7751-2.59028E+03-3.86298E+04-2.27282E+01 2.65729E+04 1.27574E+01 2.30278E+01
 -1      7752 3.30826E+04-2.00356E+05-4.27240E+02 6.12533E+03 2.30786E+02 3.84754E+02
 -1      7753 1.34582E+04-1.71803E+05 1.05157E+03-3.76469E+03 3.18853E+02 1.63779E+02
 -1      7754 3.25178E+04-1.97561E+05-4.97498E+02 1.41977E+04-2.86147E+02-1.39174E+02
 -1      7755-8.16695E+03 1.30578E+05-4.85551E+02 4.36841E+04 8.22031E+01 1.28867E+02
 -1      7756-7.49866E+01-1.24743E+05 1.84787E+04-1.30525E+05 7.24106E+03 5.24659E+03
 -1      7757-4.97732E+03-7.67060E+02 3.67354E+00 3.11392E+04 4.15120E+01-2.56890E+01
 -1      7758 5.76076E+04 5.70882E+05 3.07855E+02 9.63283E+04 7.83614E+02 1.93629E+02
 -1      7759 4.89662E+04 1.58879E+06 8.74545E+02 1.25619E+05 7.24714E+02-6.40422E+01
 -1      7760-6.73936E+02-8.84217E+05 3.95812E+02 6.88032E+04 1.12876E+02-4.04073E+02
 -1      7761-7.61903E+03 9.38265E+05 5.09850E+02 9.47109E+04-2.72372E+02-1.32107E+02
 -1      7762-9.54895E+03 1.34184E+06 6.87628E+00 7.07029E+04-1.73411E+02 8.73286E+01
 -1      7763 4.18287E+04-2.15156E+05 3.21757E+02 2.71883E+04 2.66911E+02-2.12622E+02
 -1      7764 5.82318E+03 1.67674E+05-5.40191E+02 7.54330E+04-6.28522E+02-6.34490E+02
 -1      7765 2.55637E+04 1.39191E+05-1.90258E+01 7.35988E+04-5.82180E+02-7.51591E+01
 -1      7766 1.46320E+03 1.74999E+05 2.31041E+02 7.17683E+04-7.36381E+02 2.61422E+02
 -1      7767 8.27526E+03 1.51462E+05 1.24776E+03 6.06522E+04-5.03673E+02-3.17478E+02
 -1      7768-1.74785E+04 2.05531E+05 3.83155E+02 7.01392E+04 6.52662E+02-7.78587E+02
 -1      7769-4.74235E+03-1.54716E+04-4.76361E+01 6.27050E+04-9.25454E+01-3.68198E+02
 -1      7770-1.76064E+03-2.56144E+05-2.36229E+02 4.72548E+04-1.31372E+02 4.28514E+01
 -1      7771-9.19254E+03 1.19724E+06-5.38248E+02 6.58816E+04-2.07968E+02-1.69411E+02
 -1      7772 4.76495E+04-2.29516E+05-2.54882E+02 1.45415E+04-7.25461E+02-6.35007E+01
 -1      7773-4.86732E+03-6.32887E+03 9.32200E+01 1.06524E+05-3.62797E+01-3.11185E+02
 -1      7774-5.44713E+04 2.06135E+05 3.11526E+02 5.57764E+04 7.21824E+03 7.98755E+02
 -1      7775-1.32378E+05 2.62586E+05 1.36419E+04 2.67631E+04 1.06324E+04 6.70800E+02
 -1      7776-5.22123E+03 3.87922E+02-3.91469E+00 1.31777E+04 2.27401E+01 6.24714E+00
 -1      7777-2.42416E+02-1.09170E+06-1.03255E+02 4.94108E+04-5.37403E+01-4.57952E+02
 -1      7778-6.32416E+03 1.13424E+05-6.13322E+01 7.00350E+04-1.11723E+02-2.66869E+02
 -1      7779-6.28026E+03 1.38373E+05 2.18008E+02 7.85902E+04 3.00293E+02 9.45932E+01
 -1      7780-5.93318E+03 1.45043E+05-1.77629E+02 7.97497E+04 1.21225E+02-2.47201E+02
 -1      7781-5.91196E+03 1.77740E+05-1.08031E+02 8.83992E+04 1.57975E+02-2.22223E+02
 -1      7782-6.35497E+03 1.69062E+05 4.37870E+02 8.72688E+04 2.95523E+02-2.94808E+01
 -1      7783-1.35092E+02-8.55104E+05 5.69345E+02 4.56853E+04 2.03165E+02 1.46649E+01
 -1      7784-9.03133E+02-7.73233E+05-8.31820E+01 5.72825E+04 7.42833E+01 4.65963E+01
 -1      7785-2.33772E+02-9.55334E+05 1.55733E+01 3.85521E+04 1.43107E+02 5.24890E+00
 -1      7786 2.43251E+04-2.87379E+04 3.09151E+02-1.08505E+05 4.60474E+02-1.14918E+03
 -1      7787 4.86238E+04-6.07554E+04-5.79536E+02-7.76322E+04 6.10178E+01-1.05582E+02
 -1      7788-5.46728E+02-6.37412E+05 6.79186E+01 5.19366E+04-2.91835E+01-4.88406E+01
 -1      7789-2.29492E+02-7.02764E+05 2.69467E+02 4.13401E+04 1.30842E+02-1.29167E+02
 -1      7790-5.80017E+02-7.86326E+05 3.85398E+01 3.46262E+04 1.07899E+02-2.33643E+01
 -1      7791-2.64742E+04 2.22195E+05-5.00340E+02 6.92549E+04-5.05419E+02-3.77524E+02
 -1      7792-4.29386E+04 2.20385E+05 1.30265E+03 5.16972E+04-2.61671E+03 1.20368E+03
 -1      7793-6.45992E+01-5.65524E+05 5.77973E+02 3.71558E+04-1.12535E+02 1.95523E+02
 -1      7794-8.88683E+02-5.14121E+05 8.39867E+01 4.67301E+04 7.05536E+01 2.70668E+01
 -1      7795-2.97232E+02-6.35059E+05 2.73398E+00 3.13971E+04-2.53405E+02 1.97888E+01
 -1      7796-2.59120E+02-4.42942E+05 4.81432E+02 3.28792E+04 1.28211E+02-1.42197E+02
 -1      7797-9.75286E+02-4.04075E+05 8.06557E+01 4.14282E+04-1.00653E+01-1.76284E+01
 -1      7798-4.23576E+02-4.99289E+05-2.38982E+01 2.78422E+04 1.24786E+02 2.75204E+01
 -1      7799-1.52196E+02-1.52145E+06-7.70239E+02 2.39625E+04-5.12779E+02-1.57288E+02
 -1      7800 1.10503E+02-1.51011E+06-3.98592E+02 2.91647E+04-3.94956E+02-2.99542E+01
 -1      7801-1.70761E+02-1.52202E+06-2.60819E+01 2.43232E+04 4.23876E+02 4.30047E+01
 -1      7802-8.03378E+03 8.96476E+04-2.73672E+02 3.59292E+04-7.10870E+01 1.07381E+02
 -1      7803-7.31210E+02-9.03079E+05-3.80398E+02 4.72181E+04 1.82896E+02-5.47728E+00
 -1      7804-8.11696E+03 3.32894E+04 5.60327E+01 1.75953E+04-2.44991E+00 4.46141E+01
 -1      7805-1.10636E+05-1.30952E+06-3.31591E+04 1.16256E+05 8.15322E+03 7.61214E+03
 -1      7806-1.04597E+05-1.04404E+06-6.97535E+04 5.83833E+04-3.77895E+04-6.97634E+03
 -1      7807-9.64271E+04-1.30541E+06-9.23030E+03 1.97653E+05 1.35180E+04 7.15792E+03
 -1      7808-8.37955E+02-5.64566E+05-1.07117E+01 6.83614E+04-1.54674E+02-3.36600E+02
 -1      7809 5.55270E+03 3.32620E+04 1.39656E+03-1.32093E+05 2.68577E+02-2.30662E+02
 -1      7810-8.21231E+03 1.53809E+05-1.16992E+02 3.83415E+04-1.52779E+02 3.07961E+01
 -1      7811-6.44500E+03 2.04031E+05 1.88907E+02 9.57086E+04-3.40875E+01 3.57104E+02
 -1      7812-2.87940E+03-9.96127E+04 5.69642E+01 4.52259E+04-7.51850E+01 7.72395E+01
 -1      7813-3.59788E+03-5.15680E+04 8.03668E+01 4.71345E+04-2.05936E+02 1.33137E+02
 -1      7814-2.83879E+03-1.00245E+05-1.97926E+02 4.37379E+04-3.33056E+01-1.46797E+02
 -1      7815 6.51246E+04-3.22766E+05-1.42806E+03-2.28385E+04 9.32661E+02 1.82385E+03
 -1      7816-9.13209E+02-4.62355E+05-3.44524E+02 6.19417E+04-7.18487E+01 1.43013E+02
 -1      7817-9.51216E+02-7.45645E+05-4.56381E+02 4.27340E+04 2.72350E+02 1.62801E+02
 -1      7818-9.34425E+03 8.88224E+03-1.09857E+02 5.98599E+03 3.25932E+01 3.12044E+01
 -1      7819-1.06068E+03-3.70076E+05-3.84059E+02 5.53308E+04-6.09959E+01 4.62841E+01
 -1      7820-8.31536E+02-6.03633E+05-4.11327E+02 3.86199E+04-1.55293E+02-1.44104E+02
 -1      7821-1.19470E+03 1.99138E+05-1.95427E+04-1.33401E+05 1.80130E+04-2.34899E+04
 -1      7822 2.59361E+04-2.77541E+04 1.30428E+03-1.08001E+05-2.02934E+02 1.42648E+03
 -1      7823 1.45295E+04 1.09437E+04-9.85199E+01-1.23724E+05-9.42443E+02 1.48726E+03
 -1      7824 3.63182E+04-2.76319E+04-1.51050E+03-9.87565E+04 6.86087E+02 7.15063E+02
 -1      7825 4.90995E+04-6.17429E+04-7.70740E+02-7.78799E+04-2.31542E+02 1.70510E+01
 -1      7826-8.21370E+02-4.76884E+05-2.70855E+02 3.44273E+04 7.19956E+01-2.60573E+01
 -1      7827 1.09279E+02 2.08092E+05-1.42932E+04-1.34251E+05-1.55084E+04 2.08528E+04
 -1      7828-8.27190E+03 1.03884E+05-2.72608E+02 3.15067E+04 1.33172E+02-2.67461E+01
 -1      7829 6.63017E+03-1.12897E+05-2.15882E+02 4.14700E+03 1.29600E+02 6.77247E+01
 -1      7830-6.42304E+03 3.92846E+03-2.88540E+01 1.17491E+04 6.88946E+01 2.89308E+01
 -1      7831-7.12271E+03 1.42956E+05-2.02946E+02 5.65130E+04-6.22881E+01-1.95666E+02
 -1      7832-5.60121E+03 2.07606E+04 2.55433E+02 3.19430E+04 3.51204E+01-7.83847E+01
 -1      7833-6.33185E+03 2.00257E+05 2.24064E+02 9.92459E+04-3.45027E+02 2.42673E+02
 -1      7834-5.76639E+03 2.02091E+05-4.53733E+01 1.00801E+05-2.72566E+02 8.15094E+01
 -1      7835 1.36930E+05 3.08229E+05-8.13563E+03 2.03800E+05-8.44914E+04-3.94032E+04
 -1      7836 1.68548E+05 4.91400E+05-4.01235E+04 2.28610E+05-4.48671E+04-2.37087E+04
 -1      7837-8.63302E+03 9.05500E+05 3.27761E+02 9.10723E+04-3.40559E+01 3.58918E+02
 -1      7838-4.93308E+03-1.38672E+02-3.33113E+01 8.78212E+03-3.89087E-01-2.29008E+01
 -1      7839-2.12825E+03-4.74742E+05 4.39804E+02 9.80319E+04-1.43466E+02 3.61627E+02
 -1      7840-6.27937E+03 1.83683E+04-2.77900E+01 2.78159E+04 1.54539E+02 3.88838E+01
 -1      7841 1.48232E+05 1.62582E+06 6.35983E+03 1.76387E+05 1.61328E+03-8.34734E+00
 -1      7842 1.03119E+05 1.22514E+06 7.54279E+02 7.16444E+04 5.11636E+02-1.36608E+03
 -1      7843 1.35296E+05 1.61355E+06-3.67428E+03 2.02610E+05 7.06549E+02 4.27419E+02
 -1      7844 3.98614E+04-2.32788E+05-1.31943E+01-7.47296E+03 5.98312E+02 6.28238E+02
 -1      7845-5.89772E+03 1.68193E+05 2.82555E+02 1.02453E+05-3.00711E+02-4.77732E+02
 -1      7846 1.58450E+04-1.55767E+05 6.42390E+02-2.67316E+03 1.07086E+02 1.23414E+02
 -1      7847 5.76943E+03-1.75413E+05 1.89056E+03-5.76065E+03-7.58033E+02 3.88687E+02
 -1      7848-6.77777E+03-2.07673E+05-7.80113E+02-1.06529E+04-2.36672E+03 6.52923E+02
 -1      7849 6.04443E+04 9.33258E+05 1.79420E+04-1.20105E+04-4.25062E+03-3.32526E+03
 -1      7850 6.09327E+04 6.91040E+05 6.89365E+04-6.92274E+04 4.29329E+04 6.90141E+02
 -1      7851 2.76225E+04 6.19665E+05 9.21179E+03-8.38916E+04-6.73953E+03-4.57109E+03
 -1      7852-5.79228E+03 5.73569E+04-6.38053E+01 5.83521E+04-6.07317E+01-3.84691E+01
 -1      7853-8.48094E+03 6.17883E+04-9.99783E+00 2.30510E+04 4.52878E+01 2.42217E+00
 -1      7854-8.08989E+03 6.32839E+04-1.13854E+02 2.46388E+04 3.90997E+01-2.20721E+01
 -1      7855-7.29445E+03 1.34434E+05 2.86075E+01 5.13863E+04 2.84490E+00-4.03438E+01
 -1      7856-1.01480E+04 1.54926E+06-6.87490E+02 3.35281E+04 5.73542E+02 4.64486E+01
 -1      7857-9.89282E+03 1.55018E+06-5.69036E+02 3.39522E+04-7.01725E+02-1.06265E+02
 -1      7858-9.80726E+03 1.59447E+06-2.73460E+02 3.33816E+04 4.50184E+02 8.54741E+01
 -1      7859-1.06165E+04 1.59291E+06-4.07166E+01 3.40623E+04-5.67604E+02 4.08608E+02
 -1      7860 4.31423E+03 2.39846E+05-1.17955E+03 1.12803E+05 1.82010E+02-1.58120E+03
 -1      7861-1.63979E+03 2.13997E+05-4.01426E+02 9.44086E+04 1.02535E+03 6.99479E+02
 -1      7862 5.96893E+03 2.63561E+05-1.01495E+04 1.21244E+05-2.70037E+03-1.42315E+02
 -1      7863-7.25460E+03 3.29159E+04-4.72312E+01 2.60481E+04-4.55606E+01-6.84609E+01
 -1      7864-9.34641E+03 1.72353E+04 1.47887E+01 7.92792E+03 1.93277E+01 9.01016E+00
 -1      7865-7.69520E+03 7.11108E+03-7.98835E+00 1.01981E+04 3.69391E+01 3.16311E+01
 -1      7866 8.87478E+04-3.03740E+05 5.21610E+02-1.16461E+04 1.49638E+03 1.48966E+03
 -1      7867 7.41139E+04-1.50940E+05-3.94279E+02-2.66401E+04 2.84695E+02-4.82601E+02
 -1      7868 6.09598E+04-1.42468E+05 1.70068E+02-4.90793E+04-3.64825E+02 2.92451E+01
 -1      7869 4.24945E+04-1.13513E+05 2.64975E+03-7.56547E+04 2.69161E+02-2.57833E+02
 -1      7870-8.06563E+03 5.58997E+04-2.53569E+02 2.83950E+04-2.76641E+01-6.15032E+01
 -1      7871-4.01306E+03-2.07852E+05 4.29796E+02 1.03673E+05-3.37394E+02 1.55077E+01
 -1      7872-1.31980E+02-1.29589E+06 1.07523E+00 5.69837E+04 1.56899E+02-6.25518E+01
 -1      7873 2.82000E+04 4.40255E+05 3.20807E+04-1.19672E+05 1.47243E+04-8.70854E+03
 -1      7874 1.52379E+04 3.11019E+05 1.24973E+04-1.00342E+05-2.14354E+03 3.17326E+03
 -1      7875 5.79211E+04 7.24594E+05 1.52307E+04-5.53140E+04 3.51184E+02 6.26731E+02
 -1      7876-1.26796E+03-6.52549E+03 1.36718E+01 5.64017E+03 1.74811E+01-3.04374E+01
 -1      7877-8.18355E+03 2.83541E+05-2.63523E+02 5.22797E+04-1.45782E+02 1.73580E+01
 -1      7878-9.90405E+03 3.46708E+05-2.40354E+02 2.78119E+04-7.66173E+01-6.67041E+01
 -1      7879-9.27787E+03 3.26289E+05 1.36515E+02 3.47311E+04-3.24901E+01-9.51629E+01
 -1      7880-9.67672E+03 3.95774E+05-1.11855E+02 2.24922E+04-2.16052E+01-8.32602E+01
 -1      7881 4.27743E+04-2.62995E+05 2.38311E+04 3.05901E+04-6.60691E+03 1.29942E+03
 -1      7882 4.83813E+04-1.93274E+05 3.30382E+03 5.79323E+04-4.76542E+03 3.56186E+03
 -1      7883-5.69159E+03 2.20463E+05-8.68993E+01 9.67412E+04-5.10647E+01 3.34500E+02
 -1      7884-9.80294E+03 1.37527E+05-3.17821E+02-5.08089E+04-2.54979E+02 1.36480E+03
 -1      7885-1.23609E+01-1.31589E+06-4.33386E+02 1.92347E+04-3.92131E+02-3.71642E+01
 -1      7886-4.48267E+01-1.18505E+06 4.25566E+02 3.05492E+04 2.28789E+02-1.17365E+02
 -1      7887-1.53336E+02-1.31767E+06 2.39933E+02 1.92460E+04 3.50832E+02 5.57370E+01
 -1      7888-6.63075E+03 1.67691E+05-4.65316E+02 1.10952E+05-2.48439E+02-3.45127E+02
 -1      7889-8.73542E+03 2.79163E+05-2.52173E+00 3.92508E+04-2.48887E+01-1.84978E+02
 -1      7890-6.20520E+03 1.84115E+04-4.20501E+01 2.91744E+04 1.60843E+02-1.79960E+01
 -1      7891-1.73443E+03-9.96055E+05 7.69572E+01 7.99348E+04 3.69464E+02 4.04142E+02
 -1      7892-9.63404E+03 2.21564E+04-5.07906E+01 7.19103E+03 1.91972E+01 6.66446E+00
 -1      7893-9.03816E+03 2.27564E+04-3.01377E+01 9.86039E+03-9.46103E+00 1.01647E+01
 -1      7894-9.81657E+03 2.79740E+04 2.22812E+00 6.57812E+03 1.46874E+01 1.47817E+01
 -1      7895-4.90151E+02-7.29737E+05 1.92922E+02 5.30333E+04-2.80053E+01-2.43520E+02
 -1      7896-1.61277E+03 4.55898E+05-3.22476E+04 2.86999E+04-3.21086E+04 1.42885E+03
 -1      7897-1.30880E+04 4.04197E+05-4.41375E+04 1.32949E+04 5.98823E+02 3.70587E+01
 -1      7898 5.16484E+04 5.61432E+05-6.70151E+04 8.56100E+04 6.03285E+03 2.46044E+03
 -1      7899-8.41411E+03 1.41321E+06 2.81161E+02 7.29253E+04-2.41713E+02-8.60581E+01
 -1      7900-4.95486E+02-5.95818E+05-6.93373E+01 4.78218E+04-6.09542E+01 2.51759E+02
 -1      7901-2.11265E+03-2.70075E+05 1.05362E+02 4.74005E+04-1.99247E+01-7.33810E+01
 -1      7902-5.28599E+02-3.68648E+05 6.69182E+00 3.75202E+04-7.08536E+00-1.14444E+02
 -1      7903-1.14574E+05 2.16128E+05 1.19196E+03-1.75145E+04 5.63705E+02-6.51878E+02
 -1      7904-6.47080E+04 2.03777E+05 6.99795E+02 6.09602E+03-5.55741E+02-1.02554E+03
 -1      7905-2.04360E+03-6.73016E+05 2.76989E+01 7.79388E+04 1.07664E+02 1.62482E+02
 -1      7906-8.37673E+02-6.82303E+05-1.46389E+02 7.51293E+04 3.20693E+02 9.05875E+01
 -1      7907-3.79307E+03-4.13342E+04 3.17716E+02 4.36447E+04 1.63057E+02-5.55036E+01
 -1      7908-2.44166E+03-9.04475E+04 1.18929E+02 4.16179E+04 1.15424E+01-5.39844E+01
 -1      7909-2.69876E+03-8.10943E+04 2.21830E+01 4.08994E+04 4.48949E+01-5.52620E+01
 -1      7910-3.78559E+03-6.07153E+05-4.95460E+02 1.06591E+05 2.72086E+02 1.44740E+02
 -1      7911-1.47814E+03-9.22991E+05 2.29554E+01 8.92722E+04 3.55413E+02 2.96173E+02
 -1      7912-1.48742E+03-1.01487E+06-2.15740E+02 8.16706E+04 5.55898E+02 2.88988E+02
 -1      7913-2.32284E+03-7.78263E+05 2.41014E+02 7.99322E+04-3.37972E+02 9.91469E+01
 -1      7914-2.42352E+03-1.28283E+05 1.22905E+02 4.95449E+04 5.22747E+01 1.12875E+02
 -1      7915-4.05464E+03-5.97709E+04 1.86554E+02 5.21960E+04-2.39938E+02 7.00740E+01
 -1      7916-2.79262E+03-1.16426E+05-2.61708E+01 4.89722E+04-1.03514E+02 2.54113E+00
 -1      7917-5.98164E+02-4.75215E+05-2.34224E+01 4.26564E+04 6.02169E+00 2.12419E+02
 -1      7918 3.57455E+04-2.00895E+05 1.74560E+02 3.21528E+04-4.65878E+02 3.74513E+01
 -1      7919-6.30664E+03 4.64368E+04 8.53090E+01 4.49096E+04-1.18506E+02-1.22746E+02
 -1      7920-6.06087E+03 4.68389E+04-1.47922E+02 4.64630E+04-7.51077E+01-3.36631E+01
 -1      7921-2.69762E+03-3.98441E+04 2.02384E+01 2.78129E+04 1.83674E+01-2.72483E+01
 -1      7922-2.81085E+03-4.11169E+04 6.14669E+01 2.92040E+04 1.51230E+01 8.88518E+01
 -1      7923-3.76790E+03-2.12149E+04-1.99101E+02 3.01798E+04 4.87218E+01 4.24066E+00
 -1      7924-6.01023E+03 1.83654E+03-4.54262E+01 9.33067E+03 3.88970E+01-7.62185E+00
 -1      7925-8.45519E+04-9.81690E+05-5.76319E+02 2.76521E+04 2.91498E+02 9.56334E+02
 -1      7926-4.16558E+04-5.26487E+05 6.56646E+02 8.78553E+03-3.02195E+02-1.89066E+02
 -1      7927-1.25538E+05-1.44995E+06-3.14429E+03 7.28144E+04-2.63426E+03-1.90653E+03
 -1      7928-1.74118E+03 2.87331E+05-9.25341E+03 1.20085E+05 1.28271E+03 1.87648E+02
 -1      7929-1.77605E+03-2.59778E+04 1.20190E+02 1.47478E+04 4.22374E+01 1.98335E+01
 -1      7930-7.81512E+02-3.77311E+04 4.12274E+01 1.21613E+04-2.85885E+01 2.92023E+01
 -1      7931-1.53614E+03-3.14536E+04-1.12907E+02 1.60974E+04-5.76657E+01 1.76533E+01
 -1      7932 1.68860E+04-3.69206E+04-1.48844E+02-1.22246E+05 1.27366E+03-6.96979E+02
 -1      7933-7.12981E+03 2.33605E+05-1.66007E+02 7.49732E+04 1.51956E+01 3.01149E+02
 -1      7934-6.30491E+03 8.44824E+04 1.89835E+02 6.18941E+04 1.21767E+01 2.97368E+02
 -1      7935-3.97559E+03-7.10832E+03 3.56852E+01 1.81662E+04 4.69370E+01-2.83393E+01
 -1      7936-2.66478E+03-1.65506E+04-5.84698E+01 1.76846E+04 5.77352E-01-9.03983E+00
 -1      7937-2.83983E+03-1.41315E+04-2.48054E+01 1.66710E+04 6.29070E+01-3.34963E+01
 -1      7938-7.68623E+03 2.86811E+05-4.18468E+02 8.33750E+04 1.38889E+02 1.89147E+02
 -1      7939-6.43332E+03 3.40484E+05 6.12854E+01 1.00958E+05 1.65253E+02-1.69406E+02
 -1      7940-5.77363E+03 1.66339E+05-2.51120E+02 1.04252E+05 1.73083E+02-7.10850E+01
 -1      7941-7.42762E+03 1.78679E+05 1.98554E+01 5.94519E+04-1.10370E+02 1.80767E+02
 -1      7942-1.67503E+05 2.81828E+05 1.79107E+03 6.40768E+04 4.90548E+03-9.85827E+03
 -1      7943 2.09233E+04 5.58384E+05 1.16058E+05 1.86462E+05 6.37351E+03-8.11804E+03
 -1      7944-6.21635E+04 2.95843E+05-1.36570E+03 6.99626E+04 1.55646E+03 7.57998E+01
 -1      7945-2.54326E+04 3.19852E+05-6.03609E+03 9.91055E+04 2.54789E+03-1.05881E+03
 -1      7946-4.39311E+04 3.15266E+05-6.99988E+03 5.32151E+04 2.18323E+03 5.10806E+02
 -1      7947-3.74728E+03 2.90194E+05 8.48189E+02 1.20345E+05-1.70241E+02 6.78248E+02
 -1      7948-6.35944E+03 5.35497E+05 8.74282E+00 1.15165E+05-3.49079E+02 1.16790E+01
 -1      7949-2.85911E+03 3.49369E+04-1.35826E+01 1.27038E+05-5.60445E+01-2.87498E+00
 -1      7950-4.69422E+04 2.04722E+05 1.16996E+03 4.16691E+04-2.97988E+02-9.65907E+02
 -1      7951-4.19772E+04 1.91905E+05 6.08818E+02 2.79959E+04 4.63780E+01-1.20430E+02
 -1      7952-3.31601E+02-6.40161E+04 5.72042E+01 1.07028E+04 1.50334E+01 3.59086E+01
 -1      7953-5.63387E+02-6.57579E+04-1.00473E+02 1.33367E+04 5.87155E+01 7.51613E+01
 -1      7954-9.62045E+02-5.13821E+04 5.20923E+01 1.56997E+04-3.54874E+00 8.83459E+00
 -1      7955 3.71559E+04 3.72229E+05-3.87194E+03 1.40845E+05-2.76465E+04-6.45240E+03
 -1      7956 1.08844E+05 3.66110E+05-2.57392E+04 2.02303E+05-4.13618E+04-2.41055E+04
 -1      7957-1.82373E+03-3.23964E+04 2.85808E+01 1.76063E+04-5.46464E+01-8.08885E+00
 -1      7958-6.91693E+03 1.50153E+05 3.96877E+01 5.80295E+04-6.89441E+01-1.65330E+02
 -1      7959-1.63273E+03-1.17161E+04-4.22101E+01 9.31722E+03-5.54124E+00 4.02572E+01
 -1      7960-1.80601E+03-8.31068E+03 2.80145E+01 8.06328E+03-1.16374E+01 2.33398E+00
 -1      7961-1.32490E+03-2.17209E+05-1.81147E+02 4.18427E+04 1.36267E+02-1.08182E+02
 -1      7962-2.12072E+03-2.00571E+05 5.75614E+00 4.06959E+04 1.88169E+02 7.06518E+01
 -1      7963-9.59861E+03-2.10033E+02-3.87850E+01 1.27203E+03-5.03245E+01 4.41277E+01
 -1      7964-1.10562E+05 2.16702E+05 1.63557E+03-1.77253E+04-4.32557E+02 1.67816E+03
 -1      7965-9.26460E+04 2.00446E+05 2.92150E+03-5.43524E+04 8.84219E+01 6.98920E+02
 -1      7966-6.58354E+04 1.93221E+05 6.99196E+02-3.83132E+04-2.49532E+02 3.08226E+02
 -1      7967-6.39791E+04 2.03708E+05 5.69863E+02 5.59875E+03 6.40819E+02 1.14966E+03
 -1      7968-4.60665E+04 1.91827E+05 2.71829E+03-2.42853E+04-2.05782E+02-1.31903E+02
 -1      7969-1.99105E+03-1.41645E+05-2.59340E+01 3.41256E+04 4.17469E+01-1.59357E+02
 -1      7970-6.06602E+02-1.95564E+05 4.73300E+01 2.71567E+04-1.61062E+01-9.97313E+01
 -1      7971-1.28774E+03-1.54630E+05 7.70772E-01 3.53973E+04-6.43246E+01-1.64173E+02
 -1      7972-7.34871E+03 1.62103E+04-5.52219E+01 1.77897E+04-1.43971E+01-1.46852E+01
 -1      7973-7.06761E+03 1.37770E+04 4.76735E+01 1.68874E+04 3.48318E+01-4.43999E+01
 -1      7974-6.00851E+03 6.88581E+03 1.23938E+01 1.82007E+04 3.16586E+01-4.94441E+01
 -1      7975-6.99963E+03 3.42729E+03-8.55658E+00 8.43955E+03 1.73478E+01-1.68004E+01
 -1      7976-7.39850E+03 4.98337E+03-5.71667E+01 9.29860E+03 3.53735E+01 3.47645E+01
 -1      7977-2.37814E+03-6.48327E+05-1.93221E+02 7.37862E+04 2.06267E+02 3.33239E+02
 -1      7978-6.28361E+03 4.56784E+03 5.11840E+00 1.30959E+04 3.85341E+01 4.48174E+01
 -1      7979 1.54320E+04 4.01703E+04-1.35080E+02-1.15406E+05-9.56368E+01-1.34620E+03
 -1      7980-7.26461E+03 1.87400E+05-4.57572E+02 6.67255E+04-1.26090E+02-3.41655E+02
 -1      7981-6.06215E+03 6.29111E+04-1.26049E+02 5.95328E+04-1.87993E+02-2.49734E+02
 -1      7982-9.13903E+03 1.13821E+06-1.11703E+02 6.88105E+04-1.92228E+02 1.19233E+02
 -1      7983-8.59805E+03 7.70384E+05-3.68600E+01 9.14057E+04-1.39069E+02-1.63389E+02
 -1      7984-9.89694E+02-4.97106E+03 4.97632E+01 4.25356E+03 2.32145E+01-6.34812E-01
 -1      7985-2.91884E+02-5.79582E+03 3.12914E+01 2.79030E+03 1.68963E+01 5.32243E+00
 -1      7986-5.98274E+02-7.73931E+03-4.76047E+01 4.12530E+03-1.14907E+01-7.07659E+00
 -1      7987 1.15431E+05-3.05193E+05-2.46956E+02 2.72510E+04 1.56208E+03-5.49516E+02
 -1      7988 1.02382E+05-3.08951E+05 2.38058E+02 8.67773E+03 1.38396E+03-9.63980E+01
 -1      7989-4.49417E+04 3.16310E+05-6.39927E+03 5.29467E+04-1.75096E+03-5.48930E+01
 -1      7990-1.03159E+02-4.35474E+05-2.54618E+02 1.17252E+04-2.06369E+02 6.69269E+01
 -1      7991-2.40142E+02-3.38462E+05 2.22488E+02 2.79448E+04 7.05133E+01-1.77111E+01
 -1      7992 7.07968E+01-3.87356E+05 2.53738E+02 1.75960E+04 2.16233E+02-2.92611E+01
 -1      7993-2.02060E+02-4.35583E+05 2.07576E+02 1.16781E+04 3.24122E+02-1.36374E+02
 -1      7994-6.25352E+01-3.85625E+05 2.15838E+01 2.30238E+04 6.67093E+01-9.35172E+01
 -1      7995-5.72732E+03 1.15928E+05-1.49458E+02 7.14745E+04-2.64873E+02-3.46800E+00
 -1      7996-9.62846E+03 4.63650E+03 1.46792E+01 3.57957E+03 1.48662E+01 5.45784E+00
 -1      7997-9.84071E+03 2.25164E+03 6.70688E+01 1.74448E+03-4.96325E+01 3.56495E+01
 -1      7998-9.85279E+03 2.28913E+03 2.98807E+00 1.75870E+03 6.01941E+01-9.14156E+00
 -1      7999-9.73175E+03 8.65373E+02 5.68051E+01 1.45864E+03 4.11190E+01-5.25461E+01
 -1      8000-9.52686E+03 2.93848E+03-5.05857E+01 3.05581E+03 3.94777E+01 3.16436E+00
 -1      8001-4.86163E+02-5.36577E+04 3.07285E+01 1.19648E+04 1.16345E+01 6.17105E+01
 -1      8002-1.36917E+03-4.19736E+04-1.28073E+02 1.65276E+04 1.69810E+01 1.16430E+02
 -1      8003-2.86276E+02-1.50501E+04-1.62514E+01 3.33299E+03-2.95499E+01-2.96969E+01
 -1      8004-3.03027E+02-1.10248E+04-3.71743E+01 3.08024E+03-4.94311E+01-4.04287E+01
 -1      8005-2.30773E+02-1.50821E+04-2.46672E+01 3.38548E+03 4.23920E+01 4.91285E+01
 -1      8006-2.44288E+02-1.09561E+04 8.12954E+01 3.16482E+03 4.64405E+01 3.72246E+01
 -1      8007-7.93083E+02-9.30612E+03 2.15053E+01 5.77919E+03 8.49841E+00-2.45783E+01
 -1      8008-4.42179E+02-2.18190E+04 5.33807E+01 6.89889E+03 3.05028E+01 3.33380E+00
 -1      8009-3.05341E+02-2.44467E+04-1.06796E+01 4.39413E+03 6.09191E+01 5.81030E+00
 -1      8010-4.65209E+01-3.03107E+04 5.20039E+01 3.08249E+03-8.01220E+01 4.88067E-01
 -1      8011-2.66936E+02-2.77658E+04 2.52793E+01 5.86451E+03 9.22733E+00 1.62871E+00
 -1      8012-9.17782E+01-3.05431E+04 4.51133E+01 3.11845E+03 8.59443E+01-5.51593E+00
 -1      8013-3.40083E+01-3.16959E+05-1.72601E+02 1.01235E+04-2.30254E+02-6.39893E+01
 -1      8014-4.65799E+02-2.44662E+05 2.48880E+02 2.37200E+04 4.50452E+01-1.48949E+02
 -1      8015-1.11739E+02-2.79989E+05 4.40243E+02 1.49154E+04 2.40811E+02 2.89916E+01
 -1      8016-7.93790E+01-3.17054E+05 2.87767E+02 9.94427E+03 2.90725E+02 1.24418E+01
 -1      8017-6.34075E+02-2.81067E+05-1.81502E+02 1.97639E+04 3.79096E+01-8.24607E+01
 -1      8018-1.86672E+01-2.17672E+05-1.90301E+02 8.24068E+03-1.57967E+02-1.12878E+02
 -1      8019-1.44729E+02-2.18011E+05 8.65408E+01 8.26008E+03 1.97338E+02 8.18855E+01
 -1      8020-3.79051E+01-1.92724E+05 1.55406E+02 1.63477E+04 5.50756E+01-3.10269E+01
 -1      8021-4.52291E+02-1.66599E+05 1.06662E+02 1.95239E+04 8.82927E+00-1.04110E+01
 -1      8022-1.80408E+02-1.90238E+05 3.65717E+02 1.22264E+04 1.35023E+02 1.39441E+02
 -1      8023-2.84974E+03-1.40078E+03-4.77937E+00 4.61972E+03-1.03622E+01-1.07581E+01
 -1      8024-3.87227E+03-9.17372E+02-6.07059E+01 5.91992E+03-1.92905E+01-2.27504E+01
 -1      8025-2.28923E+03-2.61245E+03 2.31721E+01 5.08993E+03-1.46610E+00-2.51521E+01
 -1      8026-6.10934E+01-1.36100E+05-1.31943E+01 6.60124E+03-1.80597E+02-1.13686E+01
 -1      8027-9.20865E+01-1.36137E+05 6.83662E+01 6.73075E+03 1.83854E+02-1.98341E+01
 -1      8028-1.99727E+02-1.20877E+05 7.95003E+01 1.28424E+04 2.97818E+01-9.25280E+00
 -1      8029-2.73861E+02-1.03067E+05 1.03350E+02 1.53019E+04 3.54551E+01 2.16928E+01
 -1      8030-2.00429E+02-1.17669E+05 1.62368E+02 9.81906E+03 1.39293E+02 1.01407E+02
 -1      8031-6.43084E+03 1.54783E+05-1.05634E+02 9.09411E+04 3.28236E+02 2.49004E+02
 -1      8032-6.72260E+04-9.18689E+05-1.52532E+04-4.61203E+04 5.14040E+03-2.69010E+03
 -1      8033-4.11922E+04-5.98849E+05-4.63264E+03-1.05373E+05 1.09173E+04-2.94001E+03
 -1      8034-8.86058E+04-7.26888E+05-6.74014E+04-7.88824E+04-4.13277E+04-4.06487E+02
 -1      8035-9.24210E+03 1.37616E+06 2.56780E+02 7.08993E+04-3.33434E+02 3.52954E+02
 -1      8036-1.85315E+03-7.44854E+05 7.96917E+00 9.42629E+04 1.84556E+02-1.08899E+02
 -1      8037-1.66579E+04 2.59488E+05 9.06970E+03 1.08472E+05 4.94117E+03 9.11679E+03
 -1      8038 2.34569E+04 3.52898E+05 2.84567E+04 1.72821E+05-7.80981E+03-1.30487E+03
 -1      8039-1.80025E+03-5.29245E+04 1.79689E+01 2.13203E+04 2.09684E+01 1.41157E+02
 -1      8040-1.43895E+03-6.21757E+04 2.98899E+01 2.25109E+04 8.94304E+01-3.28747E+01
 -1      8041 7.20603E+04-2.71514E+05 7.77146E+02 6.58146E+03 4.74725E+02-2.03540E+02
 -1      8042-8.16441E+02-3.16397E+04 2.98544E+01 1.09587E+04 7.17811E+00 3.59021E+01
 -1      8043-2.24843E+02-3.93166E+04 2.87411E+01 5.88597E+03 8.13485E+01-3.42251E+00
 -1      8044-1.50935E+02-3.91319E+04 1.52025E+02 5.89758E+03-1.10573E+02-3.36038E+01
 -1      8045-1.83522E+02-4.66434E+04 5.49856E+01 5.99762E+03-6.25232E+01-1.28662E+01
 -1      8046-1.36766E+02-4.66273E+04-5.20087E+01 6.10313E+03 8.70014E+01 1.03024E+02
 -1      8047-5.95080E+03 7.11791E+04-3.54036E+02 6.11312E+04-8.32501E+01-1.97370E+01
 -1      8048 6.05132E+04-1.42527E+05 1.34834E+02-4.89486E+04 3.58834E+02-3.56779E+02
 -1      8049 1.21622E+05-2.88169E+05 1.16729E+03 3.86338E+04-5.40895E+02-1.60589E+03
 -1      8050-1.91977E+03-4.76774E+04-5.68797E+01 2.11377E+04-2.42184E+01 1.54415E+01
 -1      8051-9.25244E+04-4.93140E+05-8.33048E+04-1.27984E+05 2.60658E+04-8.68000E+03
 -1      8052-7.67957E+02-1.11417E+06 1.05610E+02 3.04597E+04-1.83438E+02 1.71439E+02
 -1      8053-7.53296E+02-1.14972E+06-5.34968E+02 3.14329E+04-3.88228E+02 1.39264E+01
 -1      8054-5.63346E+02-9.18763E+05-3.27503E+00 5.84048E+04 1.38292E+02 5.31281E+01
 -1      8055-5.62560E+02-1.14973E+06-3.64987E+02 3.11721E+04 5.09061E+02 1.09044E+02
 -1      8056-2.79979E+02-1.11377E+06-1.52667E+02 3.02090E+04 2.62537E+02 1.22754E+02
 -1      8057-9.65032E+04-2.58227E+05 2.46389E+04 1.76930E+05 2.88807E+04-1.54226E+04
 -1      8058-9.71299E+04-2.57899E+05 2.07669E+04 1.72068E+05 1.63825E+04-1.04256E+04
 -1      8059-6.69535E+04-3.21378E+05 4.17006E+04 1.55315E+05-4.84987E+02 1.21267E+02
 -1      8060-8.93599E+04-3.63166E+05 2.89902E+04 1.67652E+05 1.63173E+04-3.60300E+03
 -1      8061-9.60159E+04-2.57871E+05 2.52605E+04 1.76808E+05-2.82407E+04 1.54997E+04
 -1      8062-9.67414E+04-2.57422E+05 2.16206E+04 1.71861E+05-1.60027E+04 1.05051E+04
 -1      8063-8.92200E+04-3.63803E+05 2.85609E+04 1.67473E+05-1.72300E+04 4.03128E+03
 -1      8064-7.57982E+03-3.96729E+05 9.97769E+03 1.29607E+05-1.57957E+04 8.35731E+03
 -1      8065-7.27332E+03 3.75647E+04 2.34112E+01 2.69023E+04 6.41398E+01-1.63230E+01
 -1      8066-9.84127E+04 2.21867E+05 3.49661E+03 1.29986E+04-1.77139E+03 2.27534E+03
 -1      8067 7.08779E+04-3.08916E+05 3.29045E+03 7.46876E+04 1.06243E+03-4.78517E+00
 -1      8068-6.96631E+02-9.55619E+05-3.06267E+02 2.90420E+04-5.57977E+02-2.29742E+02
 -1      8069-2.98803E+02-9.22520E+05-1.09794E+02 2.77634E+04-2.92849E+02-2.96132E+02
 -1      8070-4.40542E+02-9.55053E+05-1.32522E+02 2.90237E+04 5.65988E+02 2.97057E+02
 -1      8071-8.75879E+02-9.23426E+05 6.20528E+01 2.81549E+04 4.16460E+02-6.53794E+01
 -1      8072-5.35822E+02-7.60342E+05-6.88746E+00 5.43392E+04 5.92399E+01-6.93072E+01
 -1      8073-3.55304E+03-5.76129E+04 2.76792E+02 5.08547E+04-2.27153E+02 5.73316E+01
 -1      8074-6.89356E+03 5.77761E+05 2.49883E+02 1.11287E+05-2.14632E+02 2.94849E+02
 -1      8075 5.02630E+04 3.48608E+05-1.67874E+03 3.63926E+04 1.34367E+02-9.80128E+01
 -1      8076 4.16490E+04 2.95168E+05 3.82693E+02 7.07371E+04 5.11894E+01 2.08066E+02
 -1      8077 1.41503E+05 3.94058E+05-2.48206E+04 2.33030E+05-1.26680E+03 3.61855E+03
 -1      8078 9.09787E+04 2.85803E+05-2.82522E+04 1.73126E+05-1.77104E+04-1.22348E+04
 -1      8079-4.97253E+03-1.50425E+03-1.25566E+02 4.16764E+04-2.14134E+01-2.34190E+00
 -1      8080-5.20531E+03 1.22496E+05 8.67830E+01 9.32008E+04 2.85233E+02-1.92060E+02
 -1      8081 9.52200E+03-1.48151E+05 1.28892E+03-1.97261E+03 5.71558E+02-5.88259E+02
 -1      8082 7.92563E+03-1.17841E+05-1.10657E+02 1.59166E+03 2.26462E+01-1.66695E+02
 -1      8083 3.85795E+03-8.01096E+04 4.59431E+02-7.34476E+03 3.03486E+02 9.35390E+01
 -1      8084 1.01868E+04-1.02324E+05 1.53992E+02-7.28353E+03 1.94283E+02-1.94999E+02
 -1      8085 3.38190E+03-8.75328E+04 2.24481E+02-2.09101E+03 5.08424E+02-3.51781E+01
 -1      8086 1.30593E+04-1.33249E+05-1.32697E+03-1.49633E+03 3.13176E+02 1.34469E+02
 -1      8087 7.50161E+03-1.09644E+05-5.39619E+02-1.66701E+03 3.90887E+01 4.26182E+02
 -1      8088-3.88626E+02-7.82184E+05-3.49321E+00 2.63562E+04-4.35495E+02-2.22196E+02
 -1      8089-6.52270E+02-7.53286E+05 3.75566E+02 2.56566E+04-3.74831E+02 3.40628E+01
 -1      8090-7.15539E+02-7.82452E+05-5.74119E+02 2.60437E+04 4.29102E+02 1.05728E+02
 -1      8091-2.74553E+02-7.52864E+05-2.99939E+02 2.50995E+04 2.35543E+02 1.37227E+02
 -1      8092-3.45918E+02-6.22894E+05 7.16412E+01 4.90296E+04-4.68981E+00 2.30678E+01
 -1      8093-2.90055E+01-5.69279E+05-1.05602E+02 1.39411E+04-3.14894E+02-9.57811E+01
 -1      8094-1.45597E+02-5.11288E+05 3.34444E+02 2.03558E+04 1.38365E+02-1.72570E+01
 -1      8095-8.23086E+01-5.69350E+05-3.86421E+01 1.43036E+04 2.80774E+02 6.33003E+01
 -1      8096-4.04916E+01-1.23760E+06-5.59350E+02 3.21769E+04-4.07279E+02-9.69330E+01
 -1      8097-4.81631E+03 3.92159E+05-3.62879E+04-4.22732E+04 2.58450E+02 6.16302E+01
 -1      8098-2.52078E+04 2.62699E+05-1.27063E+04-8.08052E+04-1.24087E+04 3.06186E+03
 -1      8099-7.71140E+03 3.91021E+05-3.14727E+04-2.75517E+04-2.43671E+04 4.06704E+03
 -1      8100-2.87767E+04 3.04732E+05-7.91369E+03-2.51550E+04-8.98924E+03 2.08015E+03
 -1      8101-6.55860E+01-1.08968E+06-1.59683E+02 1.92283E+04-3.73457E+02-2.26760E+01
 -1      8102 8.18858E+01-9.87532E+05 3.73239E+02 2.84317E+04 2.68468E+02 6.35431E+01
 -1      8103-1.62897E+02-1.08985E+06-1.07511E+02 1.98295E+04 4.18472E+02 3.23730E+01
 -1      8104-1.31645E+01-8.11697E+05-3.45187E+00 2.59793E+04 2.94988E+02-5.38722E+01
 -1      8105-3.20903E+01-8.95781E+05 2.35246E+02 1.77127E+04-2.99606E+02 9.23362E+01
 -1      8106-1.66652E+02-8.96659E+05 1.38795E+02 1.80511E+04 5.42746E+02-1.03038E+02
 -1      8107-8.10397E+01-7.24255E+05-1.07304E+02 1.57302E+04 2.92275E+02 4.61764E+01
 -1      8108-6.51890E+01-7.24132E+05-4.82853E+01 1.61113E+04-4.08054E+02-3.33806E+01
 -1      8109-1.33817E+02-6.52912E+05 3.60288E+02 2.30053E+04-1.80464E+02 8.70087E+01
 -1      8110-1.21236E+04 1.47573E+05-4.58162E+02-1.18106E+04 4.09598E+02 1.78467E+02
 -1      8111-1.12347E+04 1.43989E+05-7.52618E+02-4.33184E+04 1.35128E+03-4.57833E+02
 -1      8112-8.58100E+03 1.34346E+05-2.75405E+03-6.53105E+04-1.55621E+03-2.03636E+03
 -1      8113-2.40134E+04 2.27476E+05-5.54391E+03-3.74109E+04 1.27850E+03-7.88323E+02
 -1      8114-8.04782E+03 2.90316E+05-8.52354E+01 5.84447E+04 1.54251E+02-4.11517E+02
 -1      8115-7.49344E+03 2.37092E+05-2.14096E+02 6.06857E+04 1.35127E+02-7.51076E+01
 -1      8116 1.87429E+04-1.66035E+05 1.46668E+02 4.12395E+04-3.47637E+02-4.80810E+01
 -1      8117 2.04274E+05 5.17751E+05-4.14607E+04 2.66943E+05 1.97489E+04 8.40723E+03
 -1      8118-7.03560E+03 3.48262E+05-3.05175E+01 9.10456E+04 4.73516E+01 3.51172E+02
 -1      8119 1.06983E+05-1.60988E+05-1.67442E+03 8.84446E+03 1.33434E+03 1.67195E+03
 -1      8120 1.27021E+05-1.64845E+05 2.07146E+03 2.73855E+04 3.35799E+03 2.38036E+03
 -1      8121 8.92225E+04 7.55640E+05 3.24468E+03 4.42499E+03 1.38251E+03 1.92300E+03
 -1      8122 1.15678E+05 1.18572E+06-1.93566E+03 6.68004E+04-2.77077E+03 4.25861E+03
 -1      8123-5.76820E+02-6.00591E+05 2.34005E+02 2.28628E+04-3.22472E+02 1.01193E+02
 -1      8124-3.87359E+02-6.26346E+05-1.11120E+02 2.34700E+04-4.03455E+02-1.12870E+02
 -1      8125-4.53946E+02-4.99456E+05 5.05423E+01 4.37712E+04-3.48475E+01 4.09529E+01
 -1      8126-7.06412E+02-6.26885E+05-5.18826E+02 2.34223E+04 4.34806E+02 2.06979E+01
 -1      8127-2.94932E+02-6.00244E+05-2.45329E+02 2.24665E+04 2.42952E+02 8.22619E+01
 -1      8128-4.11898E+03-2.69622E+04-3.20727E+01 3.52321E+04-6.76147E+01-7.11559E+01
 -1      8129-2.91103E+03-5.22152E+04-1.80925E+00 3.28230E+04-5.43879E+01-4.75310E-01
 -1      8130-3.68667E+03-2.56617E+04 1.63775E+00 3.37543E+04-1.57631E+02-6.06587E+01
 -1      8131 2.33009E+04 2.98594E+04 8.69295E+02-1.14666E+05-5.25335E+02 1.76690E+03
 -1      8132-1.90220E+02-4.20119E+05-5.59724E+02 1.90821E+04-3.18295E+02 2.21439E+02
 -1      8133-8.06539E+02-3.68552E+05-1.73265E+02 2.93930E+04-4.52393E-01-1.76522E+02
 -1      8134-1.25875E+02-7.34706E+04 3.16762E+01 5.40176E+03-9.50671E+01-7.26656E+01
 -1      8135-5.27087E+01-7.32600E+04-1.26512E+02 5.39248E+03 1.34068E+02 8.84746E+01
 -1      8136-3.28050E+02-7.56602E+04-1.49891E+02 8.35794E+03 1.45725E+02 3.14212E+01
 -1      8137-3.84190E+02-4.64851E+05-1.94542E+02 1.97602E+04-2.61113E+02-9.99544E+01
 -1      8138-5.74864E+02-4.88294E+05-3.57274E+02 2.06610E+04-4.01284E+02-9.69503E+01
 -1      8139-6.36348E+02-3.89598E+05 4.02362E+01 3.86075E+04 8.20180E+01-7.94018E+01
 -1      8140-3.77656E+02-4.87774E+05-5.18413E+01 2.07144E+04 3.42901E+02 1.47353E+02
 -1      8141-6.58021E+02-4.65096E+05 1.70248E+02 2.00782E+04 2.58580E+02-5.56420E+01
 -1      8142-8.04345E+03 2.18371E+05 5.67430E+01 4.50404E+04 9.75562E+01-1.84804E+02
 -1      8143-3.45342E+03-3.98504E+04 3.07621E+02 4.23472E+04 8.39676E+01-1.90247E+02
 -1      8144-9.14690E+03 1.19555E+06 6.78308E+01 7.63294E+04-1.40302E+02 1.92062E+02
 -1      8145-3.86933E+02-9.59707E+04 1.30034E+02 9.24786E+03-1.04226E+02 7.65061E-01
 -1      8146-3.31396E+02-1.06743E+05-8.00672E+01 9.62782E+03-1.38940E+02-1.18339E+02
 -1      8147-6.40366E+02-8.65347E+04-2.78708E+01 1.80095E+04 6.48626E+01-2.20793E+01
 -1      8148-4.13888E+02-1.06514E+05-1.33817E+02 9.56009E+03 1.79108E+02 7.33751E+01
 -1      8149-3.12148E+02-9.59486E+04-1.22325E+02 9.10237E+03 8.01962E+01 4.90143E+01
 -1      8150-5.44955E+02-1.31645E+06-4.95748E+02 5.82954E+04 2.42516E+02 1.51984E+02
 -1      8151-2.38406E+02-6.20082E+04 2.26816E+02 7.27172E+03-1.09331E+02-9.75352E+01
 -1      8152-2.60860E+04 2.61497E+05-1.30356E+04-8.06077E+04 1.17372E+04-2.58495E+03
 -1      8153-8.31610E+03 3.91393E+05-3.21931E+04-2.69888E+04 2.49050E+04-4.49961E+03
 -1      8154-2.81965E+04 3.01954E+05-8.42737E+03-2.48412E+04 9.55176E+03-2.80089E+03
 -1      8155 1.45888E+04-1.31178E+05 2.49643E+01-2.46139E+03 9.15882E+02-4.47534E+02
 -1      8156 8.07987E+03-1.16832E+05 9.70429E+01 2.68789E+03 6.52958E+01-1.50747E+02
 -1      8157-8.22367E+03 2.59498E+04-7.02298E+00 1.49403E+04 3.78809E+01-1.47467E+01
 -1      8158-8.43328E+03 3.17136E+04 5.76633E+01 1.62068E+04-2.18611E+01 5.55402E+01
 -1      8159-9.89455E+03 3.12681E+04 6.43633E+01 3.26793E+03-5.04380E+01 4.20271E+01
 -1      8160-9.75708E+03 3.37882E+04 9.48727E+01 5.51502E+03 8.46489E+01-2.31188E+01
 -1      8161-9.50954E+03 3.01748E+04 1.10848E+02 8.63650E+03 4.42962E+01-6.13490E+01
 -1      8162-9.92809E+03 3.11215E+04 4.79031E+01 3.32995E+03 9.54357E+01-3.82431E+01
 -1      8163-6.74844E+04 1.93756E+05 4.61730E+02-3.83636E+04 3.43486E+02-2.51336E+02
 -1      8164-8.51870E+02-1.50264E+06-1.39253E+02 7.13757E+04 2.52122E+02 1.57621E+02
 -1      8165-2.86302E+04 2.14515E+05 2.37292E+02-1.57826E+04-1.04557E+03 6.33387E+02
 -1      8166-3.91491E+04 3.04066E+05-5.55736E+03 9.32140E+03-1.16535E+03 3.54985E+02
 -1      8167-5.98036E+02-3.67583E+05-2.84796E+02 1.77911E+04-2.78408E+02-1.29761E+02
 -1      8168-2.37859E+02-3.47076E+05-4.64630E+01 1.69506E+04-1.54107E+02-1.28131E+02
 -1      8169-3.79996E+02-3.67062E+05-1.40083E+02 1.78066E+04 2.94851E+02 1.24960E+02
 -1      8170-6.20835E+02-3.47501E+05 5.06623E+01 1.72343E+04 1.61881E+02-6.04475E+01
 -1      8171-5.27464E+02-2.94537E+05 1.28606E+01 3.32954E+04 4.72616E+01-6.96487E+01
 -1      8172-3.44313E+02-3.08282E+05-2.92089E+02 1.63599E+04-3.21066E+02 8.75494E+01
 -1      8173-7.39952E+02-2.70574E+05 8.16747E+01 2.52406E+04-8.58901E+01 6.32846E+01
 -1      8174-7.39220E+03 3.47772E+03 7.38344E+00 6.80371E+03 5.99568E+00 3.59944E+01
 -1      8175-5.89925E+03 1.66972E+03 5.33731E+01 7.85623E+03-1.98884E+01 1.47007E+00
 -1      8176-6.32209E+03 1.72476E+03-4.39259E+00 6.34900E+03-1.60044E+01 1.69139E+01
 -1      8177-4.50511E+02-1.03939E+06-1.94141E+02 2.98007E+04 2.55502E+02-8.66256E+00
 -1      8178-9.13154E+03 3.76042E+05 1.42604E+02 2.92542E+04 4.16991E+01-1.26624E+02
 -1      8179-9.10209E+03 3.03437E+05-1.95977E+02 4.10298E+04-7.13712E+01-2.79156E+02
 -1      8180-5.11423E+02-2.63270E+05-3.32736E+02 1.50940E+04-3.10478E+02-6.89752E+01
 -1      8181-2.79239E+02-2.46106E+05-1.51368E+02 1.44021E+04-2.14845E+02-9.14335E+01
 -1      8182-2.88920E+02-2.62843E+05 6.70827E-01 1.50397E+04 3.28072E+02 1.22486E+02
 -1      8183-4.72146E+02-2.46386E+05 1.95918E+02 1.45705E+04 2.59850E+02-3.07639E+01
 -1      8184-7.27186E+02-2.11350E+05-3.36937E+01 2.82488E+04-3.79490E+01-9.62549E+01
 -1      8185-3.15066E+02-2.13529E+05-2.75347E+02 1.35507E+04-2.17712E+02-3.33875E+01
 -1      8186-4.61957E+02-1.87551E+05-8.43280E+01 2.09226E+04-3.31019E+01-1.70384E+02
 -1      8187 4.02790E+04-2.31955E+05-1.10467E+02-7.11318E+03-6.87542E+02-1.06371E+03
 -1      8188-2.52691E+03-8.72788E+02 1.96217E+01 3.37836E+03 2.58122E+00-4.65754E-01
 -1      8189-1.72318E+03-2.09224E+03 1.68593E+01 3.61054E+03 4.49391E+00-4.44320E-01
 -1      8190 5.77645E+02-1.79540E+06 2.79424E+02 3.66998E+04 5.50936E+02 2.59727E+02
 -1      8191-1.22889E+04 1.94976E+05 9.99896E+02 6.80915E+04-6.53691E+02 4.18006E+02
 -1      8192-2.40764E+04 1.95109E+05-3.04967E+02 5.92756E+04 6.18025E+01 6.66825E+02
 -1      8193-2.70330E+01-6.94245E+05-1.72639E+02 2.42996E+04-2.74318E+02-7.14342E+01
 -1      8194-9.85616E+04-1.21979E+06-1.03201E+04 1.94244E+04 2.03364E+03 2.73538E+03
 -1      8195-8.07547E+04-9.55721E+05-4.22519E+04-1.58741E+04-4.48218E+04-6.23968E+03
 -1      8196 1.07481E+05 2.06910E+05-2.31827E+04 1.69231E+05-2.34165E+04-1.76767E+04
 -1      8197 1.28021E+05 2.59894E+05-8.70348E+03 2.00054E+05-4.54271E+04-3.78337E+04
 -1      8198 1.98178E+04 3.18202E+05-1.04447E+04 1.46347E+05-1.02448E+04-5.72398E+03
 -1      8199-1.77615E+03-4.21494E+03-1.14308E+01 5.53782E+03 6.60712E+00-1.70090E+01
 -1      8200-2.54306E+03-1.48466E+05-3.69010E+02 4.43782E+04-1.53713E+02-2.46197E+01
 -1      8201-3.16541E+03-8.99620E+04 3.71809E+01 4.74003E+04-1.71613E+02-2.10307E+01
 -1      8202-1.17212E+05 2.38412E+05 9.66609E+03 2.14422E+04-8.94826E+03 1.88535E+03
 -1      8203-3.06141E+05 2.23067E+05-3.08045E+04-7.90843E+04 3.20736E+03 1.14362E+04
 -1      8204-4.46802E+02-5.48398E+05-1.59409E+02 2.18007E+04 1.70358E+02-1.79179E+01
 -1      8205-9.06558E+03 5.21755E+04-8.70077E+01 1.58081E+04 4.04711E+00 2.21593E+01
 -1      8206-9.64195E+03 5.44838E+04-1.92560E+02 1.18901E+04 2.45464E+01 2.11237E+01
 -1      8207-9.60415E+03 6.49743E+04-4.27887E+01 1.06991E+04 3.04534E+01 5.61332E+00
 -1      8208 2.73736E+04 4.47356E+05-4.34298E+04 4.67716E+04-6.11451E+04-4.99658E+03
 -1      8209 3.64707E+04 4.59100E+05-3.10895E+04 8.80018E+04-4.94357E+04-3.59288E+03
 -1      8210 6.59869E+04 4.85820E+05-3.58110E+04 1.26301E+05-5.02457E+04-6.82058E+03
 -1      8211-2.47758E+05 2.77107E+05-1.97820E+04 5.53986E+04 2.95269E+03-1.77512E+04
 -1      8212-3.16920E+05 2.12626E+05-3.80724E+04-8.05604E+04-5.29703E+03-9.86090E+03
 -1      8213-8.63721E+04-1.92818E+05 1.03753E+04 1.42733E+05 2.38595E+03-5.99969E+03
 -1      8214-5.53874E+04-1.61248E+05 6.75933E+03 1.10541E+05 1.12355E+03-2.09401E+03
 -1      8215-2.39619E+04-2.00016E+05 5.72507E+03 1.00195E+05-1.19674E+02 1.38660E+02
 -1      8216-4.77812E+04-2.35534E+05 1.41597E+04 1.34149E+05-1.68422E+02 3.23275E+02
 -1      8217-8.63606E+04-1.92862E+05 1.04635E+04 1.42712E+05-2.53078E+03 6.06372E+03
 -1      8218-5.53982E+04-1.61444E+05 6.77781E+03 1.10626E+05-1.29659E+03 2.20209E+03
 -1      8219-7.15016E+03 3.60046E+05 7.52178E+01 7.74130E+04 2.67300E+02 1.46483E+02
 -1      8220-9.59961E+03 1.56710E+06 3.57670E+02 4.04807E+04-4.23808E+02 2.44597E+01
 -1      8221-7.59889E+03 2.91541E+05-2.07310E+02 6.95294E+04-1.67261E+02-1.06231E+01
 -1      8222-7.61946E+03 3.60090E+05 6.37138E+02 6.64400E+04-2.38276E+02 1.84671E+02
 -1      8223-1.32300E+03-3.51409E+05-1.84307E+02 4.54360E+04 1.99485E+01-3.42234E+02
 -1      8224-1.01181E+04 1.26601E+06-1.90799E+02 7.30051E+04-2.00129E+02-8.86831E+00
 -1      8225 8.59651E+04-3.02835E+05 5.75979E+02-1.29439E+04-1.54388E+03-1.12053E+03
 -1      8226 8.70178E+04 1.20754E+04-7.54152E+02-7.15488E+04-1.23672E+03 3.52541E+03
 -1      8227 3.82947E+04-1.25226E+04-5.48531E+03-7.58579E+04-2.68596E+03 2.94601E+03
 -1      8228 9.54663E+04 2.49388E+04 7.92066E+02-7.73945E+04-5.25663E+03 6.08356E+03
 -1      8229 6.64299E+04 2.49995E+04 8.93346E+02-7.90476E+04-6.80880E+02 2.68262E+03
 -1      8230 4.09005E+04 2.83613E+04-5.34977E+01-1.03244E+05-1.52026E+03 2.21697E+03
 -1      8231-5.17185E+03-1.18676E+03-5.80741E+01 3.27471E+04 1.16032E+01 1.78066E+02
 -1      8232-8.78688E+02-1.30679E+06 6.89245E+02 3.49101E+04-5.83371E+02 3.51067E+01
 -1      8233-7.06172E+02-1.34612E+06-1.66998E+02 3.56578E+04-6.15246E+02-3.91875E+02
 -1      8234-4.37631E+02-1.05988E+06-1.08438E+02 6.60597E+04-1.71453E+01 1.19002E+02
 -1      8235-8.82960E+02-1.34487E+06-5.00059E+02 3.52124E+04 6.53101E+02 2.72577E+02
 -1      8236-3.75635E+02-1.30597E+06-3.86876E+02 3.41732E+04 2.85532E+02 1.51179E+02
 -1      8237-2.54334E+03-1.03013E+05-3.50053E+02 3.67689E+04 7.44213E+01-2.18654E+02
 -1      8238-1.78697E+03-6.37775E+04 1.98903E+02 2.41298E+04 7.89025E+01-2.40465E+01
 -1      8239-1.97214E+03-7.33445E+04 2.04304E+02 3.15145E+04-5.32425E+00-1.71659E+02
 -1      8240-1.97667E+03-7.35538E+04 4.16121E+02 3.14348E+04 5.60705E+01 1.64823E+02
 -1      8241-7.35824E+03 6.35423E+04 3.01624E+00 3.51329E+04-7.03861E+00 1.60584E+02
 -1      8242-6.56642E+04-7.03073E+04-5.42462E+02-1.02669E+05-2.34898E+02 1.27410E+02
 -1      8243-1.05890E+05-6.54465E+04 3.91452E+02-9.52911E+04 4.98476E+02-1.30367E+01
 -1      8244-1.06615E+05-4.10987E+04-6.45137E+01-9.90917E+04-3.37273E+02-6.10637E+01
 -1      8245-2.47629E+03-6.56356E+04-1.42494E+02 2.94651E+04-5.64880E+01 2.04340E+01
 -1      8246-3.22541E+03-3.89062E+04 6.27138E+01 3.11739E+04-8.52070E+01-1.85497E+01
 -1      8247-9.84072E+03 1.66509E+04 5.97662E+01 3.02975E+03-1.85214E+01 5.57524E+01
 -1      8248-9.80018E+03 1.96592E+04-5.72934E+01 4.19379E+03-3.61692E+01 4.48972E+01
 -1      8249-9.88251E+03 1.66286E+04-4.59894E+01 3.00753E+03 1.39932E+01-2.25102E+01
 -1      8250-9.11854E+03 6.69676E+04 2.15485E+02 1.35061E+04 3.16181E+01-2.01814E+01
 -1      8251-6.87737E+03 1.41227E+05 9.90757E+02-8.06244E+04-1.87932E+03 7.77819E+02
 -1      8252-2.66881E+03 7.06846E+04-4.57485E+03-1.24519E+05-7.49453E+02-5.20377E+02
 -1      8253 2.85083E+03 7.72683E+04-1.10578E+03-1.11851E+05 2.67783E+03 4.52444E+02
 -1      8254-8.22686E+03 1.24489E+05-4.15456E+03-1.04230E+05 5.92758E+02 2.15141E+02
 -1      8255-4.15259E+03-2.22533E+04-2.14739E+02 3.16950E+04 7.04693E+01 9.48399E+01
 -1      8256-4.90791E+03-2.24337E+04-9.65793E+01 6.13287E+04-4.01047E+01-1.56405E+02
 -1      8257-1.66961E+03-6.78355E+05-5.82291E+02 6.35409E+04 8.30264E+01 1.86418E+02
 -1      8258-7.30726E+03 9.55040E+04 3.57045E+01 4.30944E+04-6.90059E+01 1.78656E+01
 -1      8259-1.41286E+03-5.57489E+05-1.57279E+02 5.74139E+04 2.42347E+01 6.51444E+01
 -1      8260-5.65754E+03 2.79018E+05-1.88742E+02 1.04849E+05-1.35200E+02 8.69209E+01
 -1      8261-3.67310E+03-3.45844E+04-1.13926E+02 3.87536E+04 3.47610E+01-5.11931E+01
 -1      8262-2.65229E+03-6.76035E+04 2.51469E+00 3.71970E+04-1.65667E+01 3.08749E+00
 -1      8263-4.31333E+03-3.56481E+04-2.97932E+02 4.04917E+04 5.13548E+01-2.58613E+01
 -1      8264-1.44891E+03-4.48546E+05-1.63446E+02 5.14437E+04-2.59664E+01 4.39759E+02
 -1      8265-6.23372E+03 1.25913E+05-5.61635E+01 8.21759E+04-1.24614E+02-4.13494E+02
 -1      8266-5.07293E+02-4.00421E+03 4.92150E+01 2.70946E+03 2.13927E+01-6.29900E+00
 -1      8267-3.89221E+03-3.62724E+02-2.44107E+01 4.53908E+03-1.55250E+01-1.08868E+00
 -1      8268-3.60792E+03 6.03559E+01-1.81233E+01 3.26718E+03-7.88538E+00-3.80801E+00
 -1      8269-5.35792E+03 1.17219E+03 1.44765E+01 1.54326E+03-2.15674E+01-6.62110E+00
 -1      8270-8.46921E+03 4.63642E+05 6.08455E+02 5.16106E+04-1.68211E+02 2.26707E+02
 -1      8271-9.31896E+03 5.82821E+05 2.54623E+01 3.64400E+04 2.65136E+01 3.53200E+02
 -1      8272-9.44451E+03 6.60118E+05 2.34017E+01 2.99290E+04 2.02471E+01 1.06879E+02
 -1      8273-9.28867E+03 5.36806E+05-1.74925E+02 4.59735E+04-8.51736E+01 6.59913E+00
 -1      8274-4.27018E+03-5.26310E+04-2.75903E+02 4.90334E+04-2.91150E+02 4.12570E+01
 -1      8275-4.76019E+02-1.33651E+06-2.93824E+02 6.02599E+04 3.67797E+02 1.78682E+01
 -1      8276-3.60584E+03-5.11435E+05-1.74152E+02 1.11266E+05 1.49287E+02 4.03881E+02
 -1      8277-1.84206E+03-1.55393E+05 1.53014E+02 3.74307E+04 5.27087E+01-7.05621E+01
 -1      8278 2.94975E+03-7.91828E+04 4.23777E+02 9.30338E+03 1.70114E+02-1.46942E+02
 -1      8279-7.90784E+03 5.10446E+03 3.41204E+01 7.50762E+03 1.45500E+01-1.60488E+01
 -1      8280 1.54353E+04-2.05215E+05 1.30325E+03 7.82684E+04 9.83793E+02 6.22742E+02
 -1      8281 3.65653E+04-2.41030E+05-2.07466E+02 7.34942E+04 2.63840E+02-7.74505E+01
 -1      8282 2.33296E+03-1.71520E+05-1.91962E+03 6.22648E+04 2.71850E+02 5.95252E+02
 -1      8283 2.78037E+04-2.02656E+05-4.95937E+01 5.76557E+04 1.56220E+02-1.40579E+02
 -1      8284-5.01458E+03 3.60675E+02-8.55435E+00 2.55638E+04 2.49650E+01 7.45997E+01
 -1      8285-5.54448E+03 9.98332E+04-3.48664E+01 8.44962E+04-2.54507E+02 9.81222E+01
 -1      8286-8.29858E+03 2.30201E+04 1.94137E+01 1.43274E+04 4.22401E+01-5.55099E+00
 -1      8287-3.32307E+04 1.56376E+05 1.34294E+03-9.05875E+04-9.34891E+02-2.57993E+03
 -1      8288-3.53297E+04 1.71551E+05 9.62001E+02-7.60791E+04-8.44136E+02-8.26734E+01
 -1      8289-7.12143E+03 1.53595E+05 3.35924E+03-9.35068E+04-6.98430E+02-7.77383E+02
 -1      8290-1.58150E+04 1.61690E+05 3.11338E+03-8.64595E+04 1.30989E+02 3.16818E+02
 -1      8291-4.79081E+02 1.42260E+05 6.72237E+03-1.05207E+05-1.61931E+02-3.22234E+03
 -1      8292-5.68405E+03 8.03077E+04-3.34895E+01 7.58137E+04-1.67574E+02 1.50741E+02
 -1      8293-6.40927E+03 1.01315E+05-4.36792E+01 7.38505E+04-3.70172E+02-1.23867E+01
 -1      8294-9.74478E+03 9.98204E+02 3.66050E+01 1.46969E+03-4.76965E+01 5.21729E+01
 -1      8295 3.88374E+04-1.30220E+05 2.30071E+03-8.07350E+04-4.40522E+02 8.72911E+01
 -1      8296-1.81149E+03-7.05546E+05-2.19832E+02 8.27968E+04-2.12947E+02 2.19115E+01
 -1      8297-9.95125E+03 7.42000E+04-1.36289E+01 5.53349E+03-1.48347E+02 6.59278E+01
 -1      8298-9.76631E+03 6.33375E+04-1.93373E+02 7.33676E+03 7.43022E+01-1.03120E+02
 -1      8299-9.88195E+03 7.42905E+04-7.33415E+01 5.63308E+03 1.35021E+02-1.30683E+01
 -1      8300-4.58135E+03 9.26593E+02-5.28622E-01 2.13936E+03-7.76640E+00-1.44715E+00
 -1      8301-6.22654E+03 1.93820E+05 4.30264E+02 7.40908E+04-9.91103E+01 1.30878E+02
 -1      8302-6.92761E+03 7.46732E+04 1.05504E+03-1.31919E+05-8.34818E+01 5.17481E+02
 -1      8303 1.21291E+03 4.35028E+03 1.04198E+03-1.46102E+05 1.58800E+02 1.10850E+02
 -1      8304 9.97179E+01-1.38341E+06 6.91137E+02 3.50156E+04 4.78173E+02 3.55312E+02
 -1      8305-1.87808E+03-5.82126E+04 3.35488E+02 2.76893E+04-8.40829E+01 9.71551E+01
 -1      8306-1.56219E+04 1.44144E+05-2.72385E+03-1.12777E+05-2.25297E+03-1.86254E+02
 -1      8307-6.34326E+03 2.38996E+05 1.92270E+02 8.22859E+04-1.00294E+01 1.80208E+02
 -1      8308-1.54092E+03-2.44847E+05 5.25579E+00 4.57850E+04 1.98048E+01-3.56557E+01
 -1      8309-9.93448E+04-1.15670E+06-6.71254E+04 1.68878E+05-4.88496E+04 6.36310E+03
 -1      8310-8.24288E+03 3.93008E+04 8.09188E+00 2.03428E+04-5.31635E+01-1.38526E+01
 -1      8311-6.61993E+03 2.76758E+05 3.66218E+02 1.03042E+05 2.02594E+02 2.96068E+02
 -1      8312-7.00272E+03 4.42630E+05 4.53870E+02 8.43264E+04 9.92266E+01-1.89830E+02
 -1      8313-1.89352E+03-1.87555E+05-4.23566E+02 4.10021E+04-4.49281E+01 1.40705E+01
 -1      8314-1.48427E+04-1.53861E+06-1.35050E+03 7.73402E+04-2.81935E+02-2.56811E+02
 -1      8315-4.89602E+03-6.25147E+02 2.38240E+02 3.59432E+04-1.70791E+01-6.15918E+01
 -1      8316 9.68114E+04 1.61335E+06 9.18321E+02 1.41547E+05 2.15879E+03 3.66453E+03
 -1      8317-5.75600E+03 2.93130E+05 7.02130E+02 9.06431E+04 1.08490E+02-3.32995E+02
 -1      8318-8.22630E+03 4.79226E+04 1.85259E+01 2.12743E+04 2.06564E+01 7.49916E+00
 -1      8319-9.94979E+03 4.45436E+05-3.47952E+02 1.17438E+04-3.70939E+02-3.53477E+01
 -1      8320-9.79625E+03 3.95212E+05-4.58878E+02 1.81337E+04-2.11319E+02 1.94179E+02
 -1      8321-9.92157E+03 4.45708E+05 2.55954E+02 1.16280E+04 3.50736E+02-8.07888E+01
 -1      8322 5.22977E+04-3.45465E+05 2.03692E+04 8.12917E+04-1.46288E+03-2.44778E+03
 -1      8323 2.56498E+04-1.83024E+05 2.96622E+02 4.13962E+04-3.57841E+02-1.23657E+01
 -1      8324 2.95510E+04-1.82108E+05-7.86978E+01 1.93068E+04-7.51510E+02-6.75747E+01
 -1      8325 2.28735E+04-1.68655E+05-2.81206E+02 3.23828E+04-3.43754E+02 9.17983E+02
 -1      8326-9.89367E+03 5.21830E+05-4.02327E+02 2.06809E+04-2.40246E+02 1.66655E+02
 -1      8327-9.94300E+03 5.86929E+05-3.84988E+01 1.32710E+04-2.39065E+02 1.30593E+01
 -1      8328-1.05158E+04 5.19723E+05-4.12210E+02 2.61799E+04-3.33138E+01-1.13103E+02
 -1      8329-9.85960E+03 5.86648E+05 5.38965E+02 1.32120E+04 2.88176E+02-4.46226E+01
 -1      8330-1.00160E+04 4.57478E+05-1.14714E+02 3.21971E+04-4.43308E+01 1.26188E+01
 -1      8331-9.70795E+03 4.74492E+04 5.34706E+01 6.65702E+03-8.31415E+01 3.45497E+01
 -1      8332-9.55386E+03 5.54146E+04 1.80813E+02 7.05436E+03-1.37948E+02 6.74768E+01
 -1      8333-9.28835E+03 4.51169E+04 2.84213E+01 1.32809E+04-9.25579E-01 6.47516E+01
 -1      8334-9.68729E+03 5.49782E+04-4.26244E+01 7.05672E+03 1.38876E+02-8.07747E+01
 -1      8335-9.60598E+03 4.76340E+04-7.36681E+01 6.72925E+03 1.01442E+02 1.13655E+01
 -1      8336-1.67820E+03-9.36210E+04 1.96473E+02 3.49994E+04 2.37060E+00-3.40766E+01
 -1      8337-5.97326E+03 2.41832E+04-5.07959E+01 3.53281E+04 1.23147E+02 8.38135E+00
 -1      8338-6.24867E+03 3.05163E+04 6.66820E+00 3.63398E+04 1.26692E+02 1.46058E+02
 -1      8339-7.55339E+03 5.65972E+04-1.37246E+02 3.42357E+04 4.81121E+01 9.87587E+01
 -1      8340-7.34755E+03 5.01003E+04-3.67323E+00 3.34285E+04 2.40198E+00 4.75521E+00
 -1      8341-1.72695E+03-2.31962E+04-4.25594E+01 1.40644E+04 4.44200E+01-1.57021E+01
 -1      8342-1.80964E+03-1.37388E+05 3.15118E+02 4.25457E+04-1.46869E+02 1.32310E+01
 -1      8343-8.48477E+03 4.63772E+03-5.58393E+01 5.75437E+03 1.44104E+01 2.00396E+01
 -1      8344-9.25420E+02-1.51052E+06-2.26283E+01 2.97525E+04 4.69008E+02-2.58750E+02
 -1      8345-8.99392E+03 6.77492E+03-2.70717E+01 6.32015E+03 1.69283E+01 2.30567E+01
 -1      8346-8.30844E+03 7.25668E+03 3.33212E+01 8.08591E+03-1.56140E+01 5.37745E+01
 -1      8347-1.93804E+03-1.31039E+05-2.34629E+02 3.43942E+04-1.34585E+02 2.41766E+01
 -1      8348-1.44995E+04 1.94699E+05-2.16953E+02 6.84183E+04 4.44598E+02-6.66601E+02
 -1      8349 9.76388E+02 1.74060E+05-2.57920E+02 7.16994E+04 9.49166E+02-2.47899E+02
 -1      8350 2.08131E+04 1.78191E+05-3.48234E+02 9.61293E+04 6.37746E+02-2.45149E+02
 -1      8351 1.03885E+03 1.87507E+05-3.11463E+02 8.06056E+04 9.04638E+02 1.29621E+02
 -1      8352 2.85322E+03 2.03238E+05-7.49641E+02 9.25946E+04 6.41776E+01-5.10267E+02
 -1      8353-4.95102E+03-1.48568E+03-2.50687E+01 4.45561E+04-2.15118E+00-3.06793E+02
 -1      8354-4.79507E+03-2.30656E+03 7.40688E+01 5.36360E+04-3.48263E+00 9.99624E+01
 -1      8355-9.44803E+03 9.36161E+05-7.32187E+01 6.53802E+04-7.09443E+01 4.86470E+02
 -1      8356-7.82588E+03 8.49894E+05-3.55461E+02 7.54279E+04-1.50973E+02-1.23145E+02
 -1      8357-9.69480E+03 1.13335E+06-1.69930E+01 5.18252E+04-1.86620E+01 1.63414E+02
 -1      8358-8.11254E+03 5.28345E+04 2.72778E+00 2.17387E+04-2.06612E+01-1.16825E+02
 -1      8359-1.55224E+04 2.29590E+05-9.20649E+02 8.93661E+04 7.29293E+00-1.81574E+02
 -1      8360-7.46683E+03-2.00208E+05 1.25480E+02-1.81833E+04-6.00718E+02 2.84650E+03
 -1      8361-2.30349E+04-2.32162E+05 2.22683E+03-2.00605E+04-2.74194E+03 2.70580E+03
 -1      8362-7.61262E+03 8.67405E+05-4.74197E+02 9.62013E+04-1.86357E+02-8.35109E+01
 -1      8363-2.04381E+01 2.58957E-02-3.86564E-01 1.93591E+01 9.93453E+00-1.51181E+01
 -1      8364-6.85845E+01-1.65571E+01-2.34564E+01 2.92075E+01-6.24446E+00 1.54584E+01
 -1      8365-2.75069E+02-1.39625E+02-2.94970E+01-1.10507E+01-7.89989E+00 1.12702E+01
 -1      8366 6.67437E+01-8.07395E+01-1.76692E+01 1.35888E+00-1.47630E+00 6.32422E-01
 -1      8367-2.68188E+02-1.33662E+02-2.79164E+01-8.37579E+00 6.16147E+00-1.00858E+01
 -1      8368-9.62453E+03 7.23149E+05-5.14820E+02 4.07467E+04-1.84477E+02-2.46715E+02
 -1      8369-8.11776E+03 5.74769E+05 2.84668E+02 5.75382E+04 7.99989E+01-3.58733E+02
 -1      8370-9.62859E+03 8.16218E+05-1.00773E+02 3.35292E+04-1.75108E+02-4.56638E+00
 -1      8371-8.98523E+03 6.63702E+05-1.29016E+02 5.14881E+04 1.68480E+02 6.73922E+00
 -1      8372-9.88844E+03 1.93384E+05-8.72823E+00 1.27802E+04-1.93307E+02 3.11305E+00
 -1      8373-9.99160E+03 2.19567E+05-2.48925E+02 9.10823E+03-2.41738E+02-2.45367E+01
 -1      8374-9.61265E+03 1.66902E+05-2.90981E+00 2.04519E+04-1.07583E+02-8.97448E+00
 -1      8375-9.62859E+03 1.92356E+05-6.92679E+01 1.74861E+04 1.32330E+01-3.16273E+01
 -1      8376-9.83171E+03 2.19261E+05 7.17278E+01 9.02184E+03 1.98562E+02 6.63765E+01
 -1      8377-9.96429E+03 5.80361E+05 2.62252E+02 1.83889E+04 2.22707E+02-1.52127E+02
 -1      8378-9.72575E+03 5.12645E+05-1.12445E+02 3.03946E+04-8.30357E+01-4.07798E+02
 -1      8379-9.59738E+03 1.03159E+05-2.40562E+02 1.61276E+04-2.24446E+01-7.81888E+01
 -1      8380-9.92496E+03 1.38213E+05 4.39345E+01 7.01073E+03 1.67276E+02-4.89254E+01
 -1      8381-9.79644E+03 1.19342E+05-1.55550E+02 9.91974E+03-3.14466E+01-2.14124E+01
 -1      8382-9.90451E+03 1.38297E+05 3.44459E+01 7.16875E+03-1.58536E+02 3.27785E+01
 -1      8383-9.67090E+03 1.21273E+05-1.61947E+01 1.39749E+04-9.95928E+01-1.10546E+01
 -1      8384-2.07463E+05 1.92357E+05-7.02100E+03-1.04548E+05-4.85410E+02-7.92553E+02
 -1      8385-1.87517E+05 1.94441E+05-2.55130E+03-1.03523E+05-4.53347E+03-3.93323E+03
 -1      8386 1.33755E+05 3.62231E+04 9.29709E+03-7.81843E+04-5.62710E+03 2.54595E+03
 -1      8387-9.62256E+01-6.08718E+03-2.96017E+01 1.44306E+03-2.48118E+01-3.85301E+01
 -1      8388-2.50917E+02-8.04739E+03-3.92654E+01 2.75427E+03-3.70187E+01 1.51588E+01
 -1      8389-8.53092E+01-5.98248E+03 3.56899E+01 1.44551E+03 2.14241E+01 2.10428E+01
 -1      8390-2.71560E+03-7.67422E+03 2.59787E-01 1.16398E+04 7.55634E+00 2.88137E+01
 -1      8391-2.82881E+03-8.36973E+03 8.79364E+01 1.29311E+04 2.23467E+01-2.20641E+01
 -1      8392-1.75244E+03-1.27164E+04 5.53663E+01 1.05433E+04-2.05314E+01-6.39232E+00
 -1      8393-2.34314E+03-8.37532E+04-3.47595E+02 3.35989E+04 6.24531E+00-1.30706E+02
 -1      8394-2.29809E+03-8.38260E+04-2.99497E+02 3.35507E+04-1.37761E+02 1.94367E+02
 -1      8395-3.30994E+03-1.94309E+04-4.33827E+01 2.34383E+04 3.33443E+01-1.70693E+01
 -1      8396-1.98202E+03-3.88086E+04-6.43549E+01 2.02057E+04 2.44029E+01 7.29393E+01
 -1      8397-9.51539E+03 1.79105E+05 2.98906E+02 1.26420E+04-2.70130E+02 9.59693E+01
 -1      8398-9.72050E+03 1.65012E+05 1.59189E+02 1.20531E+04-1.70660E+02 6.97930E+01
 -1      8399-9.66951E+03 1.79035E+05-2.33983E+00 1.27409E+04 2.34145E+02-1.30002E+02
 -1      8400-9.56704E+03 1.65273E+05-1.94593E+02 1.22470E+04 2.15916E+02-8.85175E+00
 -1      8401-9.33720E+03 1.43528E+05 2.04245E+01 2.38348E+04-3.42770E+01 5.28556E+01
 -1      8402-6.55768E+03 2.33551E+04-3.97930E+02 3.38872E+04 9.03108E+01 5.74933E+01
 -1      8403-6.90182E+03 2.85326E+05 3.59401E+02 7.72556E+04 5.88683E+01-2.68673E+02
 -1      8404 4.76441E+04 3.51929E+05 1.49011E+02-4.73324E+03 5.68400E+02 8.14886E+02
 -1      8405 1.19883E+05 2.09637E+06 1.29529E+03 3.20109E+05-3.95031E+03 4.43885E+03
 -1      8406 1.17168E+05 2.05489E+06-1.19281E+03 2.51956E+05 1.31683E+03 4.99005E+03
 -1      8407 1.51625E+05 1.58403E+06 3.18476E+02 1.27880E+05-3.20710E+03 5.83523E+02
 -1      8408 1.06730E+05 2.10478E+06 3.80258E+03 2.48761E+05 1.39291E+03-2.85842E+02
 -1      8409 1.51880E+05 1.66187E+06 1.13616E+04 1.70738E+05 1.14512E+02 2.39526E+03
 -1      8410-4.07792E+03 2.95167E+05-2.27388E+02 1.22318E+05-3.11145E+02 1.13217E+02
 -1      8411 3.73802E+04-7.63553E+04-6.78060E+02-9.44026E+04-5.20553E+02-1.12067E+03
 -1      8412-4.00816E+04 1.86736E+05 4.26150E+02-3.16045E+04-3.29747E+02-1.95977E+02
 -1      8413-3.87971E+04 1.89131E+05 2.69090E+02 7.08554E+03 5.40224E+02-9.73366E+01
 -1      8414-8.57317E+03 1.02487E+05 6.28381E+01 2.96027E+04-6.30289E+01 1.56646E+02
 -1      8415-1.59903E+04 1.00347E+05-2.51264E+03-1.45659E+05-8.21607E+03 9.00027E+03
 -1      8416-6.75610E+03 2.73300E+05-2.65988E+04-1.29938E+05-2.07820E+04 1.54623E+04
 -1      8417 6.35874E+04 9.22589E+05 4.06748E+04 6.58939E+03 4.39985E+04-2.38327E+03
 -1      8418 9.02692E+04 1.23714E+06 1.06899E+04 6.83661E+04-3.17816E+03 1.52375E+03
 -1      8419-1.67785E+04 2.20394E+05 4.72692E+02 8.02998E+04 5.47138E+01 2.01040E+02
 -1      8420-8.77918E+03 3.81044E+03-9.41616E+00 4.60364E+03 7.18575E+00-2.24794E+01
 -1      8421-3.57967E+03-4.85073E+03 1.43177E+01 1.27878E+04 4.68214E+01 5.30284E+01
 -1      8422-3.70969E+03-5.13448E+03-1.09808E+02 1.28930E+04-7.61071E+00-7.08345E+01
 -1      8423-4.83431E+03-8.13260E+02 3.75043E+01 1.41723E+04-1.53057E+01-3.52759E+01
 -1      8424 1.40533E+04-1.31801E+05-3.13760E+02-2.40909E+03-1.83841E+02-3.21617E+01
 -1      8425-9.66265E+03 1.07973E+05 7.41052E+01 9.96415E+03-1.33045E+02 7.86327E+01
 -1      8426-9.58902E+03 9.72606E+04-9.71034E+01 9.45848E+03-7.02103E+01-1.96750E+01
 -1      8427-9.53888E+03 1.08180E+05 1.89564E+02 9.96386E+03 1.84839E+02-2.72756E+01
 -1      8428-9.61835E+03 9.72598E+04 1.24436E+02 9.35312E+03 7.76359E+01-2.47145E+01
 -1      8429-9.20927E+03 8.68230E+04 2.87545E+00 1.86135E+04 4.95846E+01 3.87876E+00
 -1      8430-8.50341E+03 2.87505E+05 2.43763E+02 4.96775E+04-3.69512E+02 5.44492E+01
 -1      8431-9.74711E+03 6.65773E+05-3.22825E+02 2.31899E+04 2.32287E+02 3.72909E+01
 -1      8432-9.97261E+03 7.44499E+05 3.04292E+02 1.51645E+04-3.28673E+02 7.78180E+01
 -1      8433-9.97109E+03 7.45840E+05-1.32694E+02 1.50077E+04 3.07185E+02-1.42763E+02
 -1      8434-1.17008E+04-1.85274E+05 2.50807E+03 8.66496E+04-2.09636E+02 2.87138E+02
 -1      8435-4.19070E+04-1.23405E+05 1.68404E+03 7.89940E+04 4.36752E+02-9.99702E+02
 -1      8436-1.95088E+04-1.51853E+05-6.48962E+02 7.00242E+04-2.45675E+02 1.78601E+02
 -1      8437-8.55083E+03 1.53686E+05-5.24393E+00 3.64682E+04-1.72050E+02 1.25297E+01
 -1      8438 9.74577E+03-6.24664E+05-7.36837E+04-4.81377E+04 1.98779E+04 2.30542E+03
 -1      8439 6.77738E+04-5.55585E+05-7.02571E+04-3.55910E+04 1.74330E+04 6.63175E+03
 -1      8440 3.06740E+04 2.51521E+05-2.32029E+03 9.97533E+04 3.80152E+02 2.43790E+02
 -1      8441-5.03722E+03 8.37779E+02 6.32320E+00 4.37318E+03-9.76757E+00 6.18244E-01
 -1      8442-6.50865E+03 2.02742E+03-4.62342E+00 4.87953E+03-2.27672E+01-1.24933E+01
 -1      8443-9.05778E+02-3.15232E+05-8.16144E+00 3.49198E+04 6.57516E+01-2.85632E+00
 -1      8444-9.53943E+03 2.50042E+05 2.03252E+02 1.47652E+04-7.93608E+01 3.36787E+01
 -1      8445-9.56498E+03 2.67589E+05 2.43751E+02 1.53699E+04-2.15122E+02 1.00640E+02
 -1      8446-9.45399E+03 2.13332E+05 5.06243E+01 2.89499E+04-1.13990E+02-2.74231E+01
 -1      8447-9.56723E+03 2.67759E+05 2.16736E+02 1.55275E+04 1.68488E+02-1.08048E+02
 -1      8448-9.40616E+03 2.50229E+05-1.41386E+02 1.49698E+04 7.98195E+01 8.83124E+01
 -1      8449 1.23865E+05-2.27347E+05-7.96351E+03-9.64369E+02 1.73205E+04 4.49520E+03
 -1      8450-3.15224E+04-2.40039E+05-2.15348E+04 2.05834E+04 1.37066E+04 4.05144E+03
 -1      8451 1.11434E+05 1.40854E+06-5.52025E+03 1.35354E+05 5.29870E+03-8.25830E+02
 -1      8452-8.02798E+03 9.15876E+04 2.27911E+01 2.83351E+04 6.43751E+01 1.48481E+02
 -1      8453-9.36241E+03 1.30208E+05-2.77603E+01 2.26937E+04 2.26870E+01 9.09930E+01
 -1      8454-8.22213E+03-2.50911E+05 1.55601E+03 2.74517E+04-4.78363E+02 3.57641E+02
 -1      8455-6.04525E+03 3.72415E+04-2.33499E+02 4.40176E+04-1.00018E+02 3.64076E+01
 -1      8456-6.37324E+03 3.67944E+04-3.05804E+02 4.26058E+04-6.12050E+01-2.04296E+02
 -1      8457-7.01837E+03 7.73199E+04-6.99083E-02 4.14869E+04-6.08000E+01-6.65869E+01
 -1      8458-5.66942E+03 1.41463E+05-4.96741E+02 1.10036E+05-3.00194E+02 2.57692E+02
 -1      8459-6.40570E+03 1.67413E+05-3.17779E+02 1.08661E+05-2.11478E+02-2.25846E+02
 -1      8460 1.74948E+04 2.97120E+04 1.21047E+03 1.33065E+03 1.57174E+02 1.11984E+03
 -1      8461-1.24437E+03-3.56188E+03-3.71272E+01 3.92403E+03-9.57169E+00-1.97975E+01
 -1      8462-2.30942E+02-4.09957E+03 4.77138E+01 1.55080E+03 1.39899E+01 7.38614E+00
 -1      8463-7.26009E+03 8.66276E+04 2.76548E+01 4.22153E+04-2.21802E+00 1.72099E+02
 -1      8464-1.34188E+03-2.71361E+05-3.21083E+02 3.90979E+04 7.67744E+01 1.13682E+01
 -1      8465-9.07516E+04-1.96900E+05 1.29740E+04 1.54303E+05 1.24759E+04-1.41281E+04
 -1      8466-9.08214E+04-1.97136E+05 1.29641E+04 1.54311E+05-1.24854E+04 1.41088E+04
 -1      8467-2.43973E+04 2.83518E+05-1.39765E+03 9.78241E+04-4.52168E+01 4.89378E+02
 -1      8468-9.49324E+03 7.34211E+05 2.58923E+02 2.08909E+04-2.45244E+02 6.34334E+00
 -1      8469-9.54000E+03 6.47680E+05 2.35720E+01 3.48881E+04-6.89505E+00 4.80039E+01
 -1      8470-5.03000E+04-6.76152E+04-1.07688E+03-1.08642E+05-1.18414E+03 2.68808E+02
 -1      8471-1.06330E+05-6.57241E+04 3.73216E+02-9.56795E+04-5.65508E+02 2.48707E+00
 -1      8472-9.36965E+04-3.64203E+04-8.43377E+02-1.04893E+05-1.36711E+03 1.27601E+02
 -1      8473-9.22682E+03 1.15152E+06 5.26221E+02 4.60082E+04-2.97634E+02 2.91108E+02
 -1      8474-1.57487E+03-8.46059E+04 5.22449E+01 2.77387E+04 4.48859E+01-1.41225E+01
 -1      8475-1.28099E+03-1.08073E+05-1.66443E+02 2.56024E+04 1.32430E+02 1.38886E+01
 -1      8476-7.12400E+03 1.10465E+05 5.00133E+01 4.98289E+04 5.56279E+01-1.36473E+01
 -1      8477-5.87039E+03 5.34390E+04-9.08732E+01 5.26406E+04 1.74850E+01 7.32178E+01
 -1      8478-6.60564E+03 5.21998E+04-3.50832E+02 5.13501E+04-5.88693E+01-7.90918E+01
 -1      8479-8.58513E+03 2.15888E+05 2.69401E+02 4.27199E+04 3.30774E+01-1.84811E+02
 -1      8480-8.29885E+03 1.76212E+04-2.06246E+01 1.29543E+04-6.16117E+00-1.23627E+01
 -1      8481-7.56820E+03 1.60736E+04 1.95852E+02 1.49841E+04 4.67313E+01-6.93874E+01
 -1      8482-6.58554E+03 7.57024E+03 3.01230E+01 1.46034E+04 3.17409E+01-8.49073E+00
 -1      8483-6.00972E+03 5.03080E+03-1.73408E+02 1.63024E+04-3.92179E+01-2.72555E+01
 -1      8484-6.70369E+03 7.44916E+03-1.56403E+02 1.47428E+04-5.38801E+01 4.83425E+01
 -1      8485 3.89037E+04-1.28925E+05 1.98027E+03-8.12888E+04 5.24044E+02 1.22070E+02
 -1      8486-6.09729E+03 6.27444E+03-4.31093E+01 1.66888E+04 1.22219E+01-4.13272E+01
 -1      8487-4.99212E+03 2.31786E+00 3.89965E+01 1.80284E+04 1.21580E+01 7.91153E+00
 -1      8488-9.63753E+03 3.74157E+05-1.23823E+02 1.79201E+04-3.54020E+02 1.27140E+02
 -1      8489-9.36960E+03 3.54384E+05-2.14319E+02 1.74832E+04-2.85471E+02-6.83739E+01
 -1      8490-9.45275E+03 3.75348E+05 4.58400E+02 1.80118E+04 4.06827E+02-1.34731E+02
 -1      8491-9.67983E+03 3.54041E+05 1.74736E+02 1.73705E+04 3.27103E+02-7.74797E+01
 -1      8492-9.33016E+03 3.00116E+05 9.98581E+01 3.37780E+04 3.50489E+01-2.20922E+02
 -1      8493-1.74387E+03-1.04650E+05 1.33009E+02 3.08783E+04 4.09118E+01-5.46541E+01
 -1      8494-9.03932E+02-1.18936E+05 1.37930E+02 2.66083E+04 1.19253E+02-2.01017E+01
 -1      8495-1.22907E+03-5.17320E+04 1.41118E+02 1.81744E+04-9.77753E+00 1.06117E+02
 -1      8496-2.81426E+03-7.45088E+01-2.09755E+01-6.34759E+02-2.39474E+01 1.60337E+01
 -1      8497-9.56228E+02-6.88000E+02-8.40441E+00-5.16484E+02 9.19541E+01-5.66494E+01
 -1      8498-1.73119E+03-1.18801E+02 7.76455E+00-2.34195E+02 2.31495E+01 1.47176E+01
 -1      8499-1.03838E+03-6.70386E+02-1.90809E+01-5.35539E+02-7.82017E+01 7.68560E+01
 -1      8500-1.13623E+03-2.95352E+05 2.67707E+02 4.05833E+04 8.17107E+01-3.15083E+02
 -1      8501-9.29352E+03 5.72888E+03-9.48089E+00 4.89622E+03-2.84158E-01 4.12428E+01
 -1      8502-7.34514E+03 6.32600E+04 3.10700E+02 3.02540E+04 1.72381E-01 9.10330E+01
 -1      8503 1.08964E+05-2.96365E+05 7.15355E+02 4.26927E+04 1.64498E+02 5.42653E+02
 -1      8504 9.39532E+04-2.83889E+05 9.42840E+02 3.09927E+04-1.33050E+02 5.91959E+00
 -1      8505 1.09403E+05-2.63139E+05 1.08224E+03 3.04575E+04-1.57763E+00 9.05905E+02
 -1      8506 1.01864E+05-2.77898E+05-7.85381E+00 3.24200E+04 1.84619E+02-3.05971E+02
 -1      8507 9.19070E+04-1.49909E+05 4.04690E+03 3.29371E+04 3.93081E+02-5.17733E+03
 -1      8508-1.12947E+05-1.42205E+06 1.17075E+03 8.35954E+04-4.44800E+03 2.95653E+00
 -1      8509-1.00913E+05-1.21522E+06-2.75596E+03 3.23795E+04-2.77638E+02 6.64868E+02
 -1      8510-1.25672E+05-1.66284E+06-3.32308E+03 1.36353E+05-1.51705E+03 1.24513E+03
 -1      8511-9.44606E+03 4.98059E+05 2.24307E+02 2.07180E+04-3.20330E+02 9.38965E+01
 -1      8512-9.50328E+03 4.74414E+05 2.46325E+02 1.98842E+04-4.79688E+01 7.74185E+01
 -1      8513-9.46630E+03 4.98701E+05 2.78276E+02 2.08948E+04 2.43533E+02-1.22819E+02
 -1      8514-9.27359E+03 4.74736E+05-1.62612E+02 2.02067E+04 1.06731E+02 1.50528E+02
 -1      8515-9.46202E+03 3.97744E+05 7.38715E+01 3.89840E+04-1.03639E+02 2.80830E+00
 -1      8516-9.67632E+03 8.27402E+05-5.90636E+02 2.59104E+04-2.80665E+02-4.63152E+01
 -1      8517-9.91210E+03 9.22866E+05-2.08775E+01 1.70587E+04-4.01893E+02 1.19690E+02
 -1      8518-9.89548E+03 9.22618E+05 2.24949E+02 1.68411E+04 3.23970E+02-2.22114E+01
 -1      8519 9.81988E+03 2.14808E+05-6.84408E+01 1.05084E+05 4.47012E+01-9.95775E+02
 -1      8520-7.94904E+03 1.38993E+05 6.83582E+01 3.52168E+04-8.12882E+01 1.30947E+02
 -1      8521 9.04660E+04-3.06636E+05 2.96290E+03 5.31112E+04-1.53632E+01 8.20112E+02
 -1      8522 1.11780E+05 1.31487E+06 3.28701E+04 1.81646E+05-6.97692E+03 7.59304E+03
 -1      8523 1.25657E+05 1.04782E+06 9.18694E+04 9.84702E+04 3.20933E+04-8.71167E+02
 -1      8524 6.82882E+04-6.87450E+04-4.99161E+02-4.44383E+04 6.40786E+02 7.83264E+02
 -1      8525 8.54857E+04-1.80509E+05 5.02885E+02-4.62070E+03 7.41405E+02 5.60404E+02
 -1      8526 9.60631E+04-9.54305E+04-5.52133E+02-1.27278E+04 1.25637E+03 1.95184E+03
 -1      8527 1.00362E+05-1.79936E+05-4.04770E+02 3.28923E+03 7.62906E+01 6.17924E+02
 -1      8528 6.60233E+04-2.55990E+05 2.55314E+02 2.76344E+04 7.31503E+01-1.82141E+02
 -1      8529-5.86482E+03 3.02271E+05 3.54932E+01 1.15008E+05-4.14799E+02 4.64344E+02
 -1      8530-5.27265E+03 1.44163E+04 3.42980E+02 1.20507E+05-1.55137E+02 3.10518E+02
 -1      8531 2.74021E+04-1.41364E+05 3.11152E+03-1.01349E+05 6.67838E+02-4.29469E+02
 -1      8532 3.75434E+04-7.54102E+04-6.28028E+02-9.38100E+04 2.58943E+02 9.45648E+02
 -1      8533-2.35267E+04 1.84608E+05 1.25352E+03 4.76910E+04 1.98839E+02-2.12092E+02
 -1      8534-4.06143E+04 1.90943E+05 5.00089E+02 2.66612E+04 4.69227E+02 1.62277E+02
 -1      8535 9.21847E+04 6.90119E+05 1.25478E+05-6.32230E+04-1.97275E+04-2.66286E+02
 -1      8536 1.45276E+05 1.32679E+06 3.26738E+04 3.01002E+05-7.89309E+03 1.19094E+04
 -1      8537 2.52154E+03 2.35060E+05-9.19899E+02 1.08835E+05 1.25192E+03 4.05968E+02
 -1      8538 1.59114E+04 1.97427E+05-1.07816E+03 1.03689E+05-3.79546E+02 2.28306E+02
 -1      8539-4.78792E+03 7.82802E+02-3.84007E+01 3.46470E+02 5.87300E+00 7.50033E+00
 -1      8540-1.18325E+04 3.26131E+05-3.20397E+04-9.39791E+04-2.31947E+04 7.84857E+03
 -1      8541 2.24815E+04 5.00784E+05-7.01879E+04-5.46851E+04 2.96447E+03-7.51704E+01
 -1      8542-3.80708E+03 3.13702E+05-3.89025E+04-1.09498E+05 2.04078E+03-5.83028E+02
 -1      8543-9.94315E+03 3.21702E+05 4.78246E+01 1.07027E+04-2.47708E+02 5.70713E+01
 -1      8544-9.65106E+03 3.12261E+05 3.32303E+02 1.68744E+04 1.78572E+02-6.64128E+00
 -1      8545-9.55909E+03 2.70677E+05 4.38790E+01 2.63564E+04 3.99282E+01-2.30931E+02
 -1      8546-1.01560E+04 2.81264E+05-8.95808E+00 2.10507E+04-5.27794E+01-3.66406E+01
 -1      8547-9.71542E+03 3.21633E+05 5.06445E+02 1.07983E+04 2.29479E+02-8.85535E+00
 -1      8548-4.06594E+04 2.26463E+05-1.38979E+03 5.45382E+04 2.65106E+03-5.17983E+02
 -1      8549-3.95181E+04 2.44849E+05-1.41669E+03 4.14850E+04 1.44174E+03 3.22713E+03
 -1      8550-1.05920E+03-6.96561E+02 3.45067E+02-7.34335E+02 1.78260E+01 1.61651E+01
 -1      8551-9.71947E+03 1.38025E+05 1.61004E+02 1.11894E+04-1.24361E+02 4.29763E+01
 -1      8552-9.31773E+03 1.20229E+05 2.31372E+02 1.75899E+04-6.71316E+01 7.22451E+01
 -1      8553 9.03539E+02-4.61005E+05-3.84781E+03 8.87698E+04-1.91544E+04 6.15004E+03
 -1      8554-7.39561E+03 4.50618E+05 4.33169E+01 9.78097E+04 1.57201E+02 3.36576E+02
 -1      8555 1.17112E+02-6.62598E+01 3.68658E-01-1.02448E+01-1.20205E+01 1.32205E+00
 -1      8556 8.90452E+01-6.62533E+01-5.12979E+00-7.63667E+01 3.62554E+00 4.73122E+00
 -1      8557 2.82638E+02 2.35661E+01 8.05318E-01 3.85582E+01-1.18847E+00 5.48849E-01
 -1      8558 1.55878E+01-4.77364E+01-1.45668E+01-7.17593E+01 6.69895E-03-8.32140E-02
 -1      8559-6.02147E+01-1.27847E+02-8.27186E+00-1.11694E+02-2.59101E+00 1.36004E+00
 -1      8560 1.22305E+02-6.40047E+01 8.89904E-01-9.41475E+00 1.06062E+01-2.41627E+00
 -1      8561 8.96221E+01-6.50964E+01-5.24896E+00-7.67389E+01-3.87922E+00-4.97924E+00
 -1      8562-6.51396E+01-1.28659E+02-5.75668E+00-1.06623E+02 3.91794E+00-3.40517E+00
 -1      8563 5.66226E+03 1.40100E+05 1.15191E+04-1.38232E+05 1.34891E+04-1.02732E+04
 -1      8564-4.80688E+03 8.97784E+02 2.02114E+01 3.24203E+03 6.96292E-01-6.09190E+00
 -1      8565-3.32316E+04-6.01747E+04-1.85905E+03-1.20608E+05-2.13184E+03 4.26224E+02
 -1      8566-8.02278E+04-2.14844E+04-8.62851E+02-1.15178E+05-1.43537E+03 1.00277E+03
 -1      8567 8.61745E+04-1.27794E+05 3.61745E+03-1.13346E+05 1.53209E+03 1.22290E+03
 -1      8568 4.63793E+04-1.23113E+05-8.07202E+02-1.03373E+05-1.71636E+03 5.05270E+03
 -1      8569 1.17971E+05-1.91972E+05-3.76704E+03-6.93014E+04 1.87322E+03 2.16565E+03
 -1      8570 1.13205E+05-1.98489E+05-2.15128E+04-1.27747E+05 1.18196E+04-2.25327E+03
 -1      8571 9.42889E+04-1.18933E+05 5.04528E+03-1.31004E+05-2.63224E+03 7.56751E+03
 -1      8572 2.95279E+04-6.19017E+04-5.95039E+03-1.56824E+05-1.13454E+03 8.25082E+02
 -1      8573-1.01992E+04 9.06022E+05 9.77855E+01 2.30318E+04-1.97173E+02 1.27670E+02
 -1      8574-9.37091E+03 7.98297E+05 2.46739E+02 3.86472E+04 3.77350E+01 1.54038E+02
 -1      8575-7.24837E+03 1.64631E+05 1.49984E+02 5.86258E+04-3.45836E+01 2.58577E+02
 -1      8576-7.24974E+03 9.85349E+04 2.21023E+02 3.77606E+04-6.49641E+01-1.85815E+02
 -1      8577-1.52058E+05-2.26885E+04 2.17228E+02-8.16658E+04-2.26136E+02 1.36414E+03
 -1      8578-1.73432E+05-1.58528E+04-1.50160E+03-7.05802E+04 3.49228E+02-8.60605E+02
 -1      8579-1.43064E+05-1.92598E+04-7.03601E+02-8.90615E+04-5.49593E+02-1.04985E+02
 -1      8580-1.38740E+05-5.33270E+03-5.26365E+03-8.60586E+04 1.39546E+03-1.81068E+03
 -1      8581-1.14333E+05-1.07254E+04-2.05969E+03-9.89252E+04 8.47926E+02 5.87805E+02
 -1      8582-9.72604E+03 1.56755E+06-1.71956E+02 4.09957E+04 8.78982E+02-1.28878E+02
 -1      8583-9.17611E+03 1.15279E+06 2.68827E+02 5.32283E+04-1.39983E+01-1.63237E+02
 -1      8584-2.34313E+04 1.83492E+05 3.56918E+02 4.89276E+04 1.23702E+02-5.39435E+02
 -1      8585-4.88217E+03-7.96566E+02-7.87980E+00 1.42599E+04 2.24368E+01 3.04348E+01
 -1      8586-1.03566E+04 1.31419E+06 1.49910E+02 2.63866E+04-4.35440E+02 2.25701E+02
 -1      8587-9.12666E+03 1.31541E+06 3.89877E+02 2.68154E+04 5.46230E+02 3.06835E+02
 -1      8588-9.71109E+03 1.32954E+06 3.51132E+02 2.10177E+04 3.71847E+02 1.63935E+02
 -1      8589-2.86661E+03 3.60353E+02-2.15456E+01 4.22434E+02 1.38638E+00 3.23117E+00
 -1      8590-1.83667E+03 1.42376E+02-1.58648E+01 1.76152E+01 1.49006E+01 8.58013E+00
 -1      8591 7.16412E+04-6.86494E+04-3.37979E+02-4.35316E+04-4.69425E+02-1.22249E+03
 -1      8592 9.99220E+04-9.21774E+04 1.79890E+03-1.47659E+04-4.31313E+02-1.03962E+03
 -1      8593 1.02005E+05 7.20975E+05-3.02212E+04 1.23217E+05 1.48823E+03 3.13606E+02
 -1      8594 8.67865E+04 7.13517E+05-3.26359E+04 7.06693E+04-7.59470E+04-2.56417E+04
 -1      8595-7.43949E+03 4.07143E+05-1.40643E+02 9.58081E+04-1.44646E+02 6.91276E+00
 -1      8596 6.20073E+04 2.57762E+04 3.08117E+03-8.71651E+04 1.78648E+03-7.91382E+03
 -1      8597 1.96379E+04 4.22248E+04-8.22959E+02-1.05596E+05-6.88027E+02-2.24686E+03
 -1      8598-3.53053E+04 1.71732E+05 1.17309E+03-7.60582E+04 9.35525E+02 2.97367E+02
 -1      8599-3.28697E+04 1.56319E+05 7.39820E+02-9.08670E+04 8.60051E+02 2.45978E+03
 -1      8600-7.16026E+03 1.53911E+05 3.08691E+03-9.35148E+04 8.56494E+02 1.04557E+03
 -1      8601 2.32652E+02 1.41157E+05 4.42520E+03-1.05417E+05-9.26203E+01 3.73037E+03
 -1      8602-9.64050E+03 9.56738E+05-4.87473E+02 6.18069E+04 9.92188E+01-1.48747E+02
 -1      8603-1.01444E+04 1.16838E+06-1.94902E+02 4.19121E+04-2.17029E+02-1.66865E+02
 -1      8604-9.63680E+03 1.00728E+06-1.25216E+02 2.84662E+04-2.44487E+02-2.32462E+02
 -1      8605-9.85378E+03 1.11950E+06-1.09062E+02 1.88199E+04-3.31317E+02 7.77811E+01
 -1      8606-9.80640E+03 9.88171E+05-2.30379E+02 3.72572E+04-6.83339E+01-4.13969E+01
 -1      8607-9.96075E+03 1.11807E+06 3.28037E+02 1.88510E+04 4.06195E+02-6.78291E+01
 -1      8608-9.36578E+03 8.79697E+05-5.57524E+01 4.51036E+04-9.59343E+01-3.94601E+02
 -1      8609-6.95704E+03 4.82111E+04-1.31275E+03-1.43614E+05-3.65242E+02-1.67512E+02
 -1      8610-8.43888E+03 1.93214E+05 3.71947E+02 3.46101E+04-1.55376E+02 5.72304E+01
 -1      8611-8.22827E+03 3.86443E+05-4.71821E+02 7.32694E+04 2.18091E+02 1.62777E+02
 -1      8612-1.75446E+04 1.79706E+05 6.35773E+02-4.31234E+04-8.91438E+00-4.63269E+01
 -1      8613-1.39997E+04 1.80272E+05-2.96363E+02-1.43968E+04 2.52292E+02 1.66117E+02
 -1      8614-2.30954E+04 1.82461E+05-2.04736E+02-7.08965E+03-2.19191E+02-9.34351E+01
 -1      8615 3.09695E+04-2.09164E+05 5.35006E+03-8.98591E+04-8.82495E+03-3.63908E+03
 -1      8616 5.22905E+03-2.53802E+05 2.45560E+04-1.16525E+05-1.54633E+04-7.18230E+03
 -1      8617 1.32635E+05 4.09138E+05 3.39511E+04 1.84589E+05-1.71848E+05-8.71078E+04
 -1      8618-9.98657E+03 1.35515E+06 1.10196E+02 2.68259E+04-5.15572E+02 3.41622E+01
 -1      8619-1.01523E+04 1.35448E+06 2.61170E+02 2.71971E+04 7.71206E+02-9.89525E+01
 -1      8620-9.93712E+03 1.37524E+06-1.35043E+02 2.78211E+04 4.53298E+02-1.52614E+02
 -1      8621-1.28106E+03 4.56245E+05-3.28472E+04 2.86710E+04 3.17548E+04-1.53672E+03
 -1      8622-2.93834E+04 3.47936E+05-1.06704E+04 2.72354E+04 1.37474E+04-2.08971E+03
 -1      8623-7.34336E+03 1.41370E+05 4.25860E+02 4.54679E+04 6.04289E+01-1.75709E+02
 -1      8624-3.92095E+03 7.44896E+02 8.24688E+00 9.92083E+02-1.47194E+01 1.00506E+01
 -1      8625-7.17393E+03 3.48449E+05-1.16124E+02 1.07288E+05 6.11892E+01 1.39531E+02
 -1      8626 2.22216E+02-1.37684E+02 2.04674E+01-2.68109E+01-1.46860E+01-1.28640E+01
 -1      8627 2.23413E+02-1.39369E+02 1.80255E+01-2.76143E+01 1.27412E+01 1.33901E+01
 -1      8628-8.59044E+03 1.31556E+05 1.51011E+02 2.85696E+04-8.45555E+01 6.69417E+01
 -1      8629-7.99456E+03 1.26116E+04-1.27788E+02 1.31077E+04 3.93035E+01-1.71959E+01
 -1      8630-5.83034E+03 3.84839E+03 9.00113E+01 1.43160E+04-8.40239E+00 2.35108E+01
 -1      8631-5.93747E+03 3.80871E+03 1.70383E+00 1.43052E+04 4.04987E+01-2.03209E+01
 -1      8632-8.51218E+03 8.15623E+04 2.22230E+02 2.24554E+04 3.15389E+01-1.30332E+02
 -1      8633 1.55913E+05-3.65146E+04 9.80557E+03-2.18703E+04-3.27541E+03-4.86269E+03
 -1      8634 1.12957E+05-2.00447E+05-1.77957E+03 4.32305E+04-1.34205E+01-3.63834E+03
 -1      8635-7.49224E+03 1.21769E+05 1.05543E+01 5.05381E+04 2.20259E+01 1.59846E+02
 -1      8636 6.69205E+04 5.61038E+05 1.88102E+04-1.09351E+05 5.27102E+04 1.12659E+02
 -1      8637-3.22053E+04 2.78906E+04-2.65300E+03-1.45800E+05 4.12851E+03-3.71088E+02
 -1      8638-7.37487E+04 4.83944E+04 1.70042E+03-1.14250E+05 3.78015E+02-5.74947E+02
 -1      8639-4.95570E+04-1.61527E+04-1.12019E+03-1.33162E+05 2.18015E+03-7.70853E+02
 -1      8640-9.71026E+04 4.39161E+03-2.39956E+03-1.08790E+05 2.02956E+03-9.79922E+02
 -1      8641-7.69500E+04 3.82376E+04-1.57750E+03-1.13894E+05 1.03896E+03-7.09953E+02
 -1      8642-6.63166E+03 4.59286E+05 6.93482E+02 1.01229E+05 1.71052E+02-2.89621E+02
 -1      8643-9.45219E+03 6.42424E+05-3.12290E+02 5.60633E+04 2.18507E+02 4.78331E+01
 -1      8644 1.53851E+04 1.40868E+05-8.95979E+02 6.33749E+04-1.03699E+03-6.87971E+02
 -1      8645-6.05219E+03 1.76113E+05 5.31752E+02 6.29812E+04-5.57209E+02 1.80345E+02
 -1      8646-5.95490E+04-1.45454E+06-2.38543E+03 9.07924E+04 7.57229E+02-7.33298E+01
 -1      8647-5.86933E+04-1.45417E+06-3.17647E+03 8.96822E+04-7.06943E+02 6.19775E+01
 -1      8648-4.78354E+03-6.41326E+01-7.00586E+00 7.25562E+03-1.98474E+01 2.39931E+00
 -1      8649-3.87451E+03-5.81233E+03-1.52880E+02 1.41038E+04-1.52851E+01-2.25743E+01
 -1      8650-3.92242E+03-5.87897E+03-7.17692E+01 1.41503E+04 4.10669E+01-3.19493E+01
 -1      8651-7.07218E+03 3.25611E+05-2.11624E+02 8.83955E+04 2.21367E+02-2.74488E+01
 -1      8652-8.34587E+02-1.85222E+06-3.99977E+02 3.72938E+04 4.16529E+02-8.19501E+01
 -1      8653-8.86100E+03 1.48041E+05-2.83838E+02 3.03420E+04-1.22000E+02-1.56696E+02
 -1      8654-9.10504E+03 1.87985E+05 1.25346E+02 2.18632E+04-4.27432E+00-1.14433E+02
 -1      8655-9.13612E+03 1.55089E+05 2.08282E+01 2.62463E+04-7.12583E+01 1.05600E+01
 -1      8656-9.04505E+03 9.78058E+04-3.40579E+01 2.07920E+04 2.30166E+01-7.00378E+00
 -1      8657 7.09530E+04-3.29661E+05 5.47604E+03 6.21940E+04 3.22232E+03 1.25777E+03
 -1      8658 8.45112E+04-2.92499E+05 2.40135E+03 3.98997E+04-8.65983E+02-9.44411E+01
 -1      8659-8.90236E+03 4.13603E+05-1.04503E+02 6.02995E+04-2.01512E+02 4.58805E+01
 -1      8660-3.04538E+02-1.74725E+06-1.96981E+02 3.33232E+04-2.50038E+02-1.02727E+01
 -1      8661-6.52369E+02-1.40325E+06 1.48422E+02 6.38928E+04 2.29313E+02 7.09372E+01
 -1      8662 5.15805E+02-1.74641E+06-3.24063E+02 3.39346E+04 4.51703E+02 2.25009E+02
 -1      8663-1.54867E+02-1.75075E+06 1.05464E+02 3.71674E+04 3.82195E+02-6.31702E+01
 -1      8664-9.69331E+02-1.40735E+06-3.86875E+02 6.69827E+04-3.72956E+01 1.71990E+02
 -1      8665-3.96491E+04 1.18560E+05 7.98526E+03-1.19331E+05 8.14240E+02-5.18867E+03
 -1      8666-6.26380E+04 1.43725E+05 4.76411E+03-1.01955E+05-4.71578E+02-2.27238E+03
 -1      8667-2.65887E+04 1.30727E+05 1.38782E+04-1.12719E+05 7.29086E+02-1.58479E+03
 -1      8668-3.76249E+04 3.05450E+05-5.65681E+03 1.05119E+04 1.63345E+03-9.08756E+02
 -1      8669-2.83860E+04 2.65964E+05-8.98240E+03-4.60981E+04 3.75972E+03-7.21809E+02
 -1      8670-1.50310E+04 1.81003E+05-8.94729E+03-9.36222E+04 1.29971E+03 4.97095E+02
 -1      8671-2.26668E+04 2.07601E+05-7.00825E+02-4.87346E+04 1.70036E+03 1.72205E+02
 -1      8672-7.16265E+03 4.42750E+05 7.99031E+02 7.39036E+04 2.46216E+02-1.70649E+02
 -1      8673-8.45565E+03 5.10693E+05-9.38762E+01 6.71208E+04 2.61885E+02 5.50572E+01
 -1      8674-4.93914E+03 4.44396E+02-6.32071E+00 5.77871E+03-1.12393E+01-2.35272E+01
 -1      8675-9.77025E+03 1.32973E+06 1.62934E+02 2.15925E+04-6.14200E+02-1.33419E+02
 -1      8676-3.63226E+03 5.47871E+02-4.32285E+01 1.47213E+03-6.06546E+00 7.74857E+00
 -1      8677 1.16270E+05-3.05500E+05 3.73226E+02 2.70446E+04-1.35765E+03 3.09651E+02
 -1      8678 1.22548E+05-2.92016E+05-1.57401E+01 2.66981E+04-2.33673E+03 1.21001E+03
 -1      8679 1.27285E+05 1.68772E+06-8.67104E+03 3.04337E+05 9.50203E+03-1.77607E+03
 -1      8680 1.58668E+05 1.50244E+06 4.30080E+03 3.31102E+05 1.35697E+04-1.41309E+03
 -1      8681 1.64980E+05 1.51579E+06 1.64061E+04 3.27968E+05-1.60816E+04 2.31993E+03
 -1      8682 1.26970E+05 1.70029E+06 1.71481E+03 3.04868E+05-1.24017E+04 6.38644E+02
 -1      8683-1.01253E+04 2.45713E+05-1.94263E+02 2.46262E+04-9.46939E+01-2.30310E+00
 -1      8684-8.84866E+03 2.25298E+05 7.49262E+01 3.16939E+04-1.16717E+02 8.36995E-01
 -1      8685-7.88743E+03 1.97534E+05-1.62973E+02 4.20000E+04-9.69893E+00-6.27854E+01
 -1      8686-9.29849E+03 2.78574E+05 1.71011E+01 3.30520E+04 9.24196E+01-1.28783E+02
 -1      8687 8.59732E+04-1.79446E+05 9.53707E+02-4.23397E+03-5.42223E+02-7.88534E+02
 -1      8688 1.06670E+05-2.37098E+05-2.25863E+02 2.33694E+04 5.91213E+02-1.00734E+03
 -1      8689 1.03328E+05-1.55078E+05-4.80871E+01 9.29797E+03-1.35928E+03-1.22354E+03
 -1      8690 9.22129E+04-1.27090E+05-2.19591E+03-1.25911E+04-8.38146E+01-1.21585E+03
 -1      8691-8.39749E+03 2.51089E+05-1.36616E+02 5.77753E+04-9.34190E+01-1.05402E+02
 -1      8692 1.08281E+05-2.90228E+05 1.20080E+03 1.68875E+04-2.85968E+03 5.51841E+02
 -1      8693 1.01444E+05-3.09227E+05-5.62033E+02 8.46609E+03-8.84651E+02 9.06751E+02
 -1      8694-8.08766E+03 8.40907E+04 1.85281E+02 2.82048E+04-9.75579E+01 1.58511E+01
 -1      8695-9.75957E+03 1.97439E+04-4.61692E+01 4.19616E+03 4.84512E+01-4.92007E+01
 -1      8696 8.25255E+04 8.12750E+05 2.97186E+03-2.53588E+04 3.20404E+03 1.18209E+03
 -1      8697 2.66427E+04 3.98447E+05 1.24983E+03-7.40568E+04 4.61767E+03 7.91515E+02
 -1      8698 1.13635E+05 1.18665E+06-4.45278E+03 6.35174E+04 1.07739E+03-1.21046E+03
 -1      8699-3.66589E+04 1.80132E+05 1.19016E+02-5.70709E+04-1.97038E+02 3.80619E+02
 -1      8700-4.34131E+04 1.90916E+05 5.44995E+02-1.71424E+04-2.14875E+02-2.23845E+02
 -1      8701-1.00768E+04 1.48798E+06-2.99276E+02 3.62569E+04-4.36506E+02 3.20519E+01
 -1      8702-8.91356E+03 2.12739E+05-2.50641E+02 3.63492E+04-9.66252E+01-2.55712E+02
 -1      8703-8.77559E+03 1.79916E+04 7.48993E+01 1.01977E+04 2.59093E+01 1.20762E+01
 -1      8704-6.98374E+03 5.42428E+05-1.12231E+02 9.13405E+04 1.91775E+02-2.88104E+02
 -1      8705-7.98912E+03 2.66397E+05 8.55860E+01 4.84025E+04-1.95618E+02 2.21930E+02
 -1      8706 9.70429E+04-2.37813E+05 6.68421E+02 1.63144E+04 7.94532E+02 6.06033E+02
 -1      8707-3.75529E+04-1.67132E+05-2.82040E+04-1.42680E+05-1.79399E+04-1.34732E+04
 -1      8708-7.91761E+03 5.96950E+05 1.60353E+02 9.74463E+04 1.66517E+02 9.04990E+01
 -1      8709-1.16184E+03-3.49118E+05-9.11403E+01 3.66182E+04 5.17116E+01-1.27175E+02
 -1      8710-5.95270E+02-4.39481E+04 2.15595E+01 1.33399E+04-1.00567E+01 2.58875E+01
 -1      8711-9.53385E+04-1.02221E+06-1.09096E+04-1.27528E+04 3.60107E+03 1.96055E+03
 -1      8712-9.77226E+02-7.00663E+05 3.09411E+01 5.24154E+04-1.15741E+02 7.23365E-01
 -1      8713-2.71525E+04-2.97842E+05-6.90854E+03-1.08496E+05 7.49222E+03 4.67982E+03
 -1      8714-3.72512E+04-4.27995E+05-1.72006E+04-1.33532E+05-2.21207E+04-9.99427E+03
 -1      8715-7.04270E+02-5.69772E+05-2.05188E+01 4.72443E+04 8.45555E+01 8.69323E+01
 -1      8716-3.55133E+03-2.32556E+05 3.44073E+02 1.14646E+05 8.06412E+01 2.45905E+02
 -1      8717 5.02160E+03 8.46234E+04 6.07523E+02-7.20443E+04-1.34397E+03-1.14907E+03
 -1      8718-2.23598E+04-1.11904E+05 6.82402E+02 5.97455E+04-5.22594E+02 4.28743E+01
 -1      8719-9.14147E+03-1.14181E+05-2.92251E+02 4.41890E+04-5.88750E+02 1.62314E+02
 -1      8720-3.03135E+03-1.34765E+05-1.19246E+03 5.00437E+04 3.73625E+02 4.28559E+01
 -1      8721-7.67597E+02-4.51918E+05-1.97618E+01 4.21093E+04 8.51444E+01 1.90325E+01
 -1      8722-1.28361E+05-1.55105E+06-1.16442E+03 2.66557E+05-1.22047E+04-5.60853E+02
 -1      8723-1.52413E+05-1.59420E+06-2.75548E+04 3.69233E+05 2.11265E+04 4.56314E+03
 -1      8724-1.47756E+05-1.58516E+06-9.36304E+02 3.68627E+05-1.96787E+04-6.44891E+01
 -1      8725-9.78536E+03 1.20330E+06-6.32651E+01 3.12939E+04-2.02246E+02-1.86929E+02
 -1      8726-1.01796E+04 1.04460E+06-4.42767E+02 5.01846E+04-6.34003E+01-1.25648E+02
 -1      8727-7.93501E+03 3.15014E+03-1.39961E+01 5.24654E+03 5.21615E+00 2.70915E+01
 -1      8728-9.49880E+04-1.09174E+06 3.20527E+03 9.05023E+03 3.32341E+02-1.76260E+01
 -1      8729-6.18055E+04-6.67852E+05-3.23301E+03-2.20589E+04 1.03387E+03-8.04336E+02
 -1      8730-7.54764E+02-2.58056E+05-9.83647E-01 3.16402E+04-4.56932E+01 3.22897E+00
 -1      8731-2.83627E+02-2.75292E+05 3.79107E+01 3.21571E+04 3.58506E+01-2.18774E+02
 -1      8732-6.91605E+02-7.61342E+04 2.28739E+01 1.70744E+04-4.87453E+01 1.08307E+02
 -1      8733-7.46582E+02-6.68952E+04-4.10149E+01 1.64119E+04-2.95785E+01 7.78274E+01
 -1      8734-7.22351E+02-1.81048E+05-3.42278E+00 2.64233E+04 7.00201E+01-1.23055E+02
 -1      8735 1.60491E+04-1.46854E+05 2.69306E+02 2.79235E+04 1.91127E+02-1.24905E+02
 -1      8736-6.90613E+03 3.74600E+05-2.95713E+02 1.08170E+05 3.30393E+01-3.98142E+02
 -1      8737-9.32558E+03 3.81283E+04-3.65651E-01 1.20621E+04-1.97696E+00 3.28926E+01
 -1      8738-9.24677E+03 3.24077E+04 5.49482E+01 1.10411E+04 3.52934E+01-1.40355E+01
 -1      8739-7.38632E+02-1.27308E+04 1.34544E+01 6.85609E+03-2.37851E+01 3.94907E+01
 -1      8740-7.30476E+02-1.67025E+04 6.57854E+00 7.95484E+03 3.65495E+00 3.04149E+01
 -1      8741-4.29319E+04-1.50437E+05 5.04757E+03 9.87215E+04-1.22670E+03 3.25025E+02
 -1      8742-4.12197E+04-1.22413E+05 1.83840E+03 7.87822E+04-3.84267E+02 9.13961E+02
 -1      8743-4.26106E+04-1.50163E+05 5.03951E+03 9.85494E+04 1.10959E+03-1.53716E+02
 -1      8744-8.54573E+02-8.82479E+05-1.62986E+02 5.74044E+04 6.57672E+01 3.67207E+02
 -1      8745-8.46196E+02-8.47300E+05-9.76182E+01 5.75060E+04 1.70289E+02 1.01012E+01
 -1      8746 6.15339E+00-1.75076E+06 4.92329E+02 3.72780E+04-5.83508E+02-4.35365E+01
 -1      8747 6.79898E+04 1.27835E+05 2.15875E+04-1.09901E+05 1.23814E+02 1.94476E+03
 -1      8748 5.75413E+04 1.25442E+05 1.82480E+04-1.09675E+05-5.86521E+02 6.61021E+03
 -1      8749 2.09917E+04 1.28124E+05 2.02884E+04-1.07677E+05-1.37073E+03 5.75245E+03
 -1      8750 4.91982E+04 1.40815E+05 4.40348E+03-1.04453E+05-3.53363E+02 1.11764E+03
 -1      8751 3.25208E+04 1.28196E+05 2.40216E+04-1.07694E+05-4.77257E+02 4.34510E+02
 -1      8752 8.74282E+04 7.15128E+05-2.83827E+04 7.34334E+04 7.09708E+04 2.16212E+04
 -1      8753 1.55153E+05 1.92851E+06-2.26352E+03 3.95930E+05 7.80028E+03-4.83375E+03
 -1      8754 1.19194E+05 2.08950E+06 1.10770E+03 3.17780E+05 3.74417E+03-4.12073E+03
 -1      8755 1.50584E+05 1.92065E+06-3.95151E+03 3.99679E+05-5.74808E+03 5.26812E+03
 -1      8756-1.72389E+05-8.71897E+03-1.90972E+04-6.84075E+04-1.95250E+02 1.79914E+02
 -1      8757-1.58177E+05-3.54001E+03-1.30043E+04-7.41852E+04 1.39044E+03-3.01392E+03
 -1      8758-1.19563E+05 1.20393E+04-1.21185E+04-9.04020E+04 4.32241E+02-2.92515E+03
 -1      8759-1.36643E+05 4.11234E+03-1.93827E+04-8.30750E+04-5.19436E+02 4.13901E+02
 -1      8760 8.48677E+04-2.80113E+05-9.64979E+02 2.19932E+04 2.82530E+02-1.99355E+02
 -1      8761 5.25713E+03-6.08744E+04-1.37144E+03-1.41848E+05 3.23815E+03-9.98340E+02
 -1      8762-6.67291E+04 3.05517E+05-1.96364E+03 4.47976E+04 5.21154E+03-6.53964E+02
 -1      8763-5.65278E+04 2.84937E+05 2.07574E+03 4.25676E+04 4.70736E+03 6.85820E+03
 -1      8764-5.40665E+03-2.80045E+03-4.60704E+02-1.15139E+05-1.05631E+02 8.71666E+02
 -1      8765-9.82568E+03 1.22622E+04 3.82443E+01 2.95632E+03-1.88503E+01 4.46429E+01
 -1      8766-9.59517E+03 9.45570E+03-1.27126E+01 3.60807E+03 2.15736E+01-2.32931E+01
 -1      8767-9.85763E+03 1.22589E+04-1.31089E+01 2.95200E+03 3.87592E+01-3.48765E+01
 -1      8768 1.57330E+05 1.06254E+06 7.64214E+04 2.92893E+05-4.98274E+04-3.73195E+03
 -1      8769-2.67184E+04 2.24297E+05 1.93606E+03 6.98744E+04 9.36027E+02 7.06765E+02
 -1      8770-4.92380E+04 2.32506E+05-2.52051E+03 5.33361E+04 2.06501E+03 2.94674E+03
 -1      8771-3.86630E+04 2.33664E+05-2.36453E+03 6.85218E+04 5.04245E+02 2.07286E+03
 -1      8772 8.78253E+03 5.68017E+04 1.19243E+03-1.23502E+05 7.16032E+02 7.98719E+02
 -1      8773 1.34308E+04 6.00492E+04-9.38112E+02-1.07360E+05 4.35785E+02 1.67996E+03
 -1      8774-1.30082E+03-1.95780E+05-1.98409E+02 3.32561E+04-6.60303E+01-1.63140E+02
 -1      8775-6.70085E+02-2.29250E+05 9.39871E+01 2.99698E+04-1.32775E+01 6.23062E-01
 -1      8776 5.89204E+03-1.59675E+05-5.15105E+02 1.21487E+05 4.40614E+02 1.82304E+02
 -1      8777 1.60653E+04 9.48776E+04 6.28403E+02 1.16472E+05 4.45527E+02 8.19620E+01
 -1      8778-9.26849E+03 6.12405E+05-1.55044E+02 2.30224E+04-2.37973E+02-6.40888E+01
 -1      8779-9.64689E+03 6.38928E+05 1.24330E+02 2.38497E+04-3.45027E+02 7.73694E+01
 -1      8780-9.18960E+03 5.08916E+05 7.36357E+01 4.40587E+04-5.53374E+01 1.96801E+01
 -1      8781-9.52173E+03 6.38965E+05 2.12648E+02 2.35549E+04 3.61899E+02-3.80504E+01
 -1      8782-9.63451E+03 6.12091E+05 8.31805E+01 2.26970E+04 7.55858E+01-5.17137E+01
 -1      8783 1.17569E+05 3.57413E+03 3.76096E+03-7.42515E+04 1.78900E+03-5.20536E+02
 -1      8784-8.98882E+02-1.57476E+05-4.35635E+01 2.48715E+04 5.90886E+01-1.97121E+01
 -1      8785-1.76571E+03-1.55717E+02-7.73195E+00-2.42853E+02-2.71628E+00 9.58013E+00
 -1      8786-2.41805E+04 1.65552E+05-1.78134E+03 1.07824E+04 6.22301E+02-1.11360E+03
 -1      8787-3.12830E+04 2.23216E+05-2.19706E+02 2.85269E+03 1.64404E+02-1.33595E+03
 -1      8788-2.39317E+04 1.66801E+05-1.26491E+03 9.83278E+03 3.27675E+01 1.53137E+03
 -1      8789-2.99195E+04 2.24728E+05 9.81726E+02 2.98401E+03-5.78069E+02 1.44332E+03
 -1      8790-3.47890E+04-3.83820E+05-2.22941E+03-8.49777E+04 4.58782E+02 2.03361E+03
 -1      8791-7.47249E+04-7.77058E+05-5.96860E+02-5.30569E+04-1.33499E+03 2.74789E+02
 -1      8792-3.36079E+04-3.75606E+05 4.80546E+02-4.98593E+04 2.08203E+03-1.77671E+02
 -1      8793 1.14179E+04 3.83696E+04 2.72445E+02-4.43215E+04 2.74397E+02 3.72452E+01
 -1      8794 1.51694E+03 1.90082E+04-2.82747E+03-8.37611E+04-1.19486E+03 1.64507E+03
 -1      8795-7.69567E+02-9.90687E+04 1.20771E+02 1.96884E+04 9.33096E+00 2.89854E+01
 -1      8796 9.56186E+04 1.05073E+06 1.25672E+04 2.75908E+04-3.22125E+03 7.42201E+02
 -1      8797-3.32918E+03 2.03494E+02-2.34711E+00 2.24552E+03-5.87567E+00 5.03894E+00
 -1      8798 2.08398E+05 1.26717E+06 3.11567E+04 4.42233E+05 2.17835E+04-8.01068E+03
 -1      8799 2.34243E+05 1.20008E+06 6.75103E+04 4.68460E+05 4.83585E+04-1.78980E+03
 -1      8800 1.44135E+05 9.79004E+05 4.73579E+04 2.80009E+05 6.06296E+04 2.21446E+04
 -1      8801 2.09494E+05 9.60397E+05 1.01732E+05 4.01050E+05-1.20304E+03 4.43152E+02
 -1      8802 1.44243E+05 1.07962E+06 7.02442E+04 2.64020E+05 4.58184E+04 2.00518E+04
 -1      8803 2.12264E+05 1.25391E+06 3.39527E+04 4.44930E+05-2.41494E+04 9.45266E+03
 -1      8804 2.36682E+05 1.19816E+06 6.60878E+04 4.71975E+05-4.80856E+04-7.37660E+02
 -1      8805 1.57241E+05 1.00660E+06 4.76039E+04 2.93970E+05-6.39648E+04-2.21902E+04
 -1      8806-6.20261E+03 3.75613E+05 6.55341E+02 9.79559E+04 7.16231E+01-3.73737E+02
 -1      8807-8.27897E+03 1.69857E+05 1.28862E+00 4.11456E+04-1.42072E+02-4.67289E+01
 -1      8808-6.69783E+03 8.38116E+04 6.75945E+01 4.82016E+04-8.74620E+01 1.07031E+01
 -1      8809-6.90777E+03 4.27197E+05 2.09858E+02 9.27309E+04 3.42814E+01 3.83576E+01
 -1      8810-8.13206E+03 1.29362E+05 1.36946E+02 3.49764E+04-9.58394E+01-1.13181E+01
 -1      8811-1.51869E+05 1.18843E+04-1.06727E+04-6.93712E+04 1.55774E+03-5.79093E+03
 -1      8812-1.31866E+05 8.33056E+03-8.35937E+03-8.19991E+04 5.09178E+02-3.44384E+03
 -1      8813-4.35416E+02-1.03169E+06-3.11681E+02 6.38089E+04 1.06649E+02 2.44425E+02
 -1      8814-8.19392E+02-1.00739E+06-1.84286E+02 6.26153E+04-1.91350E+02 6.60600E+00
 -1      8815-3.18550E+03 8.02749E+05-1.86187E+03 1.12475E+05-1.78906E+02 6.83520E+02
 -1      8816 1.78668E+03 2.71972E+05 1.17488E+03 1.24797E+05-2.33061E+02 2.15531E+02
 -1      8817-3.81998E+04 4.66297E+05 5.87080E+04 7.91553E+04 1.34848E+04-7.96452E+03
 -1      8818-5.53064E+04 2.60924E+05 6.49404E+03 1.96940E+04 7.10708E+03 8.30722E+03
 -1      8819-8.15736E+04 3.21487E+05-4.86331E+03-2.49496E+04 6.65192E+03 2.27341E+04
 -1      8820-3.09278E+03 3.37672E+02-2.94178E+01-6.63220E+01-1.58593E+01-8.87243E+00
 -1      8821-8.20166E+03 1.17261E+05 1.53440E+01 3.40500E+04-1.20278E+02 3.47901E+01
 -1      8822-6.84055E+03 5.76947E+04-8.34038E+01 3.99060E+04-8.11702E+01-4.23703E+00
 -1      8823-1.27507E+04-2.40965E+05-3.62838E+01-1.59385E+04-3.38242E+02-9.31048E+02
 -1      8824-1.23273E+05-1.54630E+06 3.05312E+03 9.56318E+04 3.45175E+03 4.09499E+02
 -1      8825 4.68951E+04 4.28938E+05 4.60223E+02-3.84313E+04 9.56828E+02 1.01327E+03
 -1      8826-7.75893E+03 6.58768E+05 1.07802E+03 8.72479E+04-1.94931E+02 5.78434E+02
 -1      8827-8.42634E+03 7.45218E+05-9.96698E+01 7.96260E+04-3.78634E+01 6.06979E+01
 -1      8828-7.60490E+03 2.40291E+05-1.37107E+02 6.58548E+04-2.07503E+02-1.34229E+02
 -1      8829-1.24509E+04 1.74373E+05 4.15768E+02 5.35120E+04 3.89529E+02 1.06659E+02
 -1      8830-2.63304E+04 1.81712E+05 4.99414E+02 3.40839E+04 3.51281E+02 4.12864E+01
 -1      8831-1.03119E+03-1.50339E+05 9.89375E+01 2.92129E+04 4.84286E+01-1.69522E+02
 -1      8832-6.46862E+02-1.20045E+05-2.23558E+02 1.67216E+04 4.59268E+01 1.62337E+01
 -1      8833 2.83619E+04-1.59688E+05-4.12611E+02-1.40776E+03-3.82539E+02 5.22600E+02
 -1      8834 1.80875E+04-2.02464E+05 6.80186E+03 1.67395E+03-1.69816E+03-3.48289E+02
 -1      8835-2.54874E+02-1.55393E+06-4.83169E+02 2.95868E+04-4.25981E+02 6.10908E+01
 -1      8836 8.06982E+01-1.55293E+06-4.07667E+02 3.00697E+04 6.48773E+02 1.09681E+01
 -1      8837-5.58835E+02-1.57473E+06-2.06081E+02 3.09458E+04 3.71827E+02-4.88377E+01
 -1      8838-8.12223E+03 2.51307E+05 2.13451E+02 4.82732E+04-2.04573E+02-5.19423E+01
 -1      8839-7.13911E+03 2.66540E+05-3.56822E+01 8.02800E+04 4.01262E+01 6.43177E+01
 -1      8840-9.35446E+03 8.67117E+05 2.20861E+02 7.64457E+04-8.60223E+01-1.06397E+02
 -1      8841-9.39512E+03 1.17346E+06 2.55793E+02 5.39958E+04-6.25970E+01-1.49410E+02
 -1      8842-8.31960E+03 7.42928E+04-1.31273E+00 2.69889E+04-7.54303E+01 2.33327E+01
 -1      8843-6.68971E+03 3.67607E+04 6.40292E+01 3.16024E+04-1.26439E+02 3.81792E+01
 -1      8844-7.18921E+03 2.14200E+05-3.84461E+01 7.19657E+04-1.52405E+02 1.55054E+02
 -1      8845-6.34957E+03 3.49715E+05 7.53654E+02 8.49226E+04 1.02415E+02-3.87727E+02
 -1      8846-6.65822E+04-6.95469E+05-1.32274E+04-7.93286E+04 1.30093E+03 6.58749E+02
 -1      8847-2.41153E+02-8.54509E+04-6.62023E+00 8.73016E+03-1.30054E+02-6.11667E+01
 -1      8848-2.84105E+02-8.54610E+04-1.71461E+02 8.73117E+03 1.70665E+02 4.00334E+01
 -1      8849-2.09752E+04 1.58725E+05-9.75783E+02-1.07854E+04-2.86624E+02 1.02041E+03
 -1      8850-5.74322E+01-4.42343E+05 1.70505E+02 1.94930E+04 2.64159E+02 1.42388E+02
 -1      8851-4.91682E+01-4.42458E+05-2.44703E+02 1.93148E+04-3.33990E+02-4.36923E+01
 -1      8852-4.74764E+02-1.16987E+06 6.86538E+02 7.93828E+04 2.72894E+02-4.33934E+02
 -1      8853-8.29418E+02-1.08842E+06 4.22129E+02 8.71373E+04 1.40842E+02 1.15281E+02
 -1      8854 4.28435E+04-2.97503E+05-1.67583E+03 6.25042E+04-1.68116E+04 9.13470E+03
 -1      8855 1.28587E+05-2.89094E+05 1.09523E+03 2.70117E+04-3.95500E+03 2.40968E+03
 -1      8856 1.48492E+04-1.48724E+05-2.05620E+02 2.85350E+04-2.48287E+02-3.97603E+02
 -1      8857 6.88848E+04-1.73175E+05-5.55391E+03-5.66441E+04 1.22063E+03-7.16856E+02
 -1      8858 4.02284E+04-1.58369E+05-2.72145E+02-2.79466E+04 6.32895E+02-3.00794E+02
 -1      8859-1.80795E+02-2.29680E+05 7.98421E+01 1.40065E+04 2.32502E+02 9.53117E+01
 -1      8860-2.58298E+02-2.29658E+05-2.06630E+02 1.39747E+04-2.84732E+02-6.07249E+01
 -1      8861-1.96526E+02-3.27157E+05-1.21856E+02 1.67768E+04 2.10970E+02-1.76509E+01
 -1      8862-8.96659E+01-3.27422E+05-1.31734E+01 1.66826E+04-2.97101E+02-3.04034E+01
 -1      8863-2.37103E+02-5.74469E+05-8.69077E+01 2.23100E+04-3.05732E+02-3.37211E+00
 -1      8864-1.64957E+02-5.74174E+05-2.32194E+02 2.24098E+04 3.69436E+02-3.95067E+01
 -1      8865-2.91013E+02-7.24071E+05-6.62267E+01 2.50215E+04-3.39098E+02-3.90552E+01
 -1      8866-4.89887E+01-7.23538E+05-1.89570E+02 2.52006E+04 4.74103E+02 9.76744E+01
 -1      8867-7.87038E+01-8.89798E+05 9.23624E+01 2.77033E+04 3.40472E+02-7.32054E+00
 -1      8868-1.91635E+01-8.89384E+05-5.39439E+01 2.81377E+04-5.57667E+02-4.29506E+01
 -1      8869-3.67138E+02-5.36447E+04 9.45336E+01 7.06632E+03-1.26960E+02-1.96120E+01
 -1      8870-3.43194E+02-5.36723E+04-4.85469E+01 7.07357E+03 8.20010E+01 2.27698E+00
 -1      8871 4.82069E+04-1.64883E+05-8.09552E+02-2.89135E+04-1.46472E+02 2.57976E+02
 -1      8872 1.08615E+05-1.92667E+05 2.89028E+03-6.28021E+04 4.35551E+02-1.34588E+03
 -1      8873 5.42124E+04-1.55929E+05-1.18689E+03-5.92396E+04-5.07988E+02-1.69582E+03
 -1      8874 2.78509E+05-3.46307E+05 2.91722E+04-4.23170E+04-2.71278E+03 2.11203E+04
 -1      8875-8.31837E+03 1.49251E+04-6.92944E+02-3.25564E+04 4.25268E+03 3.69521E+03
 -1      8876 1.29419E+04 1.02727E+05 4.34552E+03-6.18925E+03 2.85083E+03 1.74252E+03
 -1      8877-1.63793E+04 4.84008E+04-4.76671E+03-1.41057E+04 1.27064E+03 1.97610E+03
 -1      8878-1.54894E+03 1.22238E+04-4.96491E+03-6.22910E+04 2.07987E+02 1.44818E+03
 -1      8879-7.76218E+02 8.06280E+04-2.85246E+03-4.61136E+04 3.76750E+02 8.24636E+02
 -1      8880 1.03301E+04 4.17289E+04-2.32973E+03-6.79358E+04 2.17758E+03 1.66967E+03
 -1      8881 1.29441E+02-1.89207E+06 4.48414E+02 3.72459E+04-3.76083E+02 4.26694E+01
 -1      8882-2.22768E+02-1.93347E+06 1.75576E+03 3.93481E+04-2.36780E+02-2.53747E+02
 -1      8883-2.39808E+02-1.93114E+06 8.98473E+02 3.98704E+04 8.70967E+02 1.03750E+03
 -1      8884-4.33565E+01-1.89331E+06 1.91084E+02 3.78610E+04 5.04689E+02 1.74939E+02
 -1      8885-7.47556E+03 3.68212E+05 7.69380E+00 8.20469E+04 2.12162E+02-2.09929E+02
 -1      8886-2.47621E+03-1.42820E+01-3.75375E+00 1.54265E+03 3.77449E+00-1.39972E+00
 -1      8887-5.87076E+01-1.07543E+06-1.56628E+02 3.04931E+04-2.93501E+02-3.96074E+01
 -1      8888-2.50186E+02-1.07497E+06-3.47970E+02 3.06376E+04 5.07206E+02-8.77046E+01
 -1      8889-7.64664E+03 3.00884E+05-5.39005E+01 7.41067E+04 5.59539E+01 1.60260E+01
 -1      8890-9.78042E+03 1.64388E+06 2.66287E+02 3.60077E+04 2.04077E+02-8.81001E+01
 -1      8891-8.96516E+03 1.64550E+06 9.99942E+01 3.69286E+04-4.49952E+02-4.22644E+02
 -1      8892-9.30291E+03 7.68180E+04-4.41628E+01 1.75413E+04-3.07342E+01-8.11776E+01
 -1      8893-9.22236E+03 6.75015E+04-2.02578E-01 1.67309E+04-1.87473E+00-8.05654E+01
 -1      8894 3.04588E+04 2.06897E+06 2.54969E+03 1.00761E+05 2.05853E+03 1.44097E+03
 -1      8895 2.96884E+04 2.06835E+06 2.54308E+03 1.00654E+05-1.44909E+03-1.58744E+03
 -1      8896 8.69466E+04 2.10601E+06 5.58219E+03 1.28585E+05 3.43185E+01-1.68166E+02
 -1      8897-1.35347E+04 1.68954E+05 9.69922E+02-7.56849E+04-6.99376E+02 4.95829E+02
 -1      8898 1.16054E+04 1.52374E+05 2.29787E+03-9.28469E+04-6.82965E+02 4.04219E+02
 -1      8899-1.59317E+05-3.00446E+03-1.20326E+04-7.33086E+04-8.95636E+02 2.24456E+03
 -1      8900-1.22579E+05 8.76381E+03-1.40999E+04-8.95646E+04-1.56188E+03 3.10706E+03
 -1      8901-2.88726E+02-1.91422E+04-2.72119E+01 4.15417E+03 5.09199E+01 3.13047E+01
 -1      8902-2.78357E+02-1.93376E+04 7.86185E+01 4.19506E+03-8.28008E+01-3.25241E+01
 -1      8903-8.51912E+03 4.29228E+04 1.38936E+02 1.65486E+04 2.27010E+01 8.57636E+01
 -1      8904 3.63345E+03-8.09633E+04 4.32800E+02-8.10702E+03-2.33023E+02-1.18289E+02
 -1      8905 4.73528E+03-8.74146E+04 1.89473E+02-3.24476E+03-1.95460E+01-1.92182E+02
 -1      8906-9.03849E+03 1.37613E+06-2.28625E+02 2.82562E+04-4.32481E+02-9.98385E+01
 -1      8907-9.76703E+03 4.07057E+04 3.84516E+01 5.88080E+03-9.43374E+01 5.44167E+01
 -1      8908-9.73871E+03 4.06785E+04 6.09495E+01 5.83876E+03 6.68973E+01-5.78656E+01
 -1      8909-9.18288E+03 4.27487E+05-3.35605E+02 3.98089E+04-1.19647E+02-2.43965E+01
 -1      8910-9.46702E+03 4.18133E+05-5.91685E+02 4.38026E+04-1.74924E+02-3.15640E+02
 -1      8911-4.87245E+03-2.38115E+03-2.39079E+01 5.26551E+04-2.29702E+02 2.73778E+01
 -1      8912-6.66483E+03 2.29339E+05 5.05209E+02 6.86808E+04-1.29009E+02 1.30343E+02
 -1      8913 9.35450E+04-3.08923E+05 2.57674E+03 5.51621E+04 5.51798E+02 3.12173E+02
 -1      8914-1.25624E+05 2.81930E+05 2.61934E+04-2.36246E+04-5.87075E+03-7.69965E+03
 -1      8915-1.02050E+05-1.72347E+06 6.67732E+03 2.21054E+05-8.90212E+03-4.86873E+03
 -1      8916-1.00798E+05-1.73630E+06 1.99624E+02 2.21640E+05 1.11773E+04 1.15977E+03
 -1      8917-1.31100E+05-1.56091E+06-9.83059E+03 2.63013E+05 1.53927E+04 2.08944E+03
 -1      8918 1.95220E+05 6.47082E+05-1.57856E+04 3.12486E+05 1.47189E+04 9.46906E+03
 -1      8919 2.39251E+05 8.29828E+05 6.52276E+04 3.83475E+05-5.29784E+03-2.26806E+03
 -1      8920 8.67151E+04 7.01042E+05-4.25923E+04 1.74549E+05 1.74038E+04 8.88237E+03
 -1      8921 2.40203E+05 7.75288E+05 5.01141E+04 3.59440E+05-3.56830E+04-3.22030E+04
 -1      8922-2.05457E+02-1.27694E+06-8.60525E+01 3.30437E+04-3.26916E+02-1.97795E+02
 -1      8923 9.42539E+01-1.27645E+06-8.98657E+01 3.32038E+04 4.14116E+02 2.03298E+02
 -1      8924-8.81278E+03 5.24310E+04-1.00981E+02 1.83195E+04 1.46441E+01-7.92082E+01
 -1      8925-4.95376E+03-1.24091E+03-3.02027E+01 4.35761E+04-5.46754E+00-5.38309E+01
 -1      8926-1.09020E+05 1.48822E+05 2.25030E+03-1.17359E+05-2.42502E+03-3.53421E+03
 -1      8927-1.40329E+05 1.58863E+05-5.14155E+03-1.22719E+05-1.17793E+03-3.10717E+03
 -1      8928-1.28506E+05 2.03917E+05 1.77309E+03-6.54209E+04-2.82554E+03-2.94250E+03
 -1      8929-1.60672E+05 1.67166E+05-2.34656E+03-1.04609E+05-2.21687E+01-1.25959E+01
 -1      8930-1.80901E+04 9.87752E+04-5.73957E+03-1.45124E+05 9.30500E+03-1.00326E+04
 -1      8931-6.70893E+03 2.68629E+05-2.54104E+04-1.29219E+05 2.62970E+04-1.58923E+04
 -1      8932 7.41414E+04-3.38402E+05 2.59416E+03 6.03958E+04-4.13149E+03-1.62604E+03
 -1      8933-1.43722E+04 3.23097E+05-2.94864E+04-9.30346E+04 2.63511E+04-9.57012E+03
 -1      8934-9.66084E+03 7.97649E+05-1.11718E+02 2.63628E+04-4.69856E+02 3.72378E+00
 -1      8935-9.57343E+03 7.67758E+05-1.25789E+02 2.54350E+04-2.20510E+02 7.06779E+01
 -1      8936-9.63647E+03 7.97540E+05 4.75770E+02 2.67345E+04 4.13222E+02-7.30931E+00
 -1      8937-9.20000E+03 7.67531E+05 1.62983E+02 2.57709E+04 2.74865E+02 1.59382E+02
 -1      8938-9.06471E+03 6.34201E+05 6.90950E+01 4.93979E+04-2.44488E+01-1.59985E+02
 -1      8939 4.71602E+04 7.17672E+05 1.22341E+03 1.12006E+05 7.80454E+02 3.51960E+02
 -1      8940 3.76100E+04 1.21621E+06-1.21672E+03 1.20785E+05 8.51332E+02 2.63090E+02
 -1      8941-6.71519E+03 2.57914E+05-3.34008E+02 1.17993E+05-4.07493E+02 1.29554E+01
 -1      8942-1.20541E+04-1.96680E+06 3.22876E+03 4.82263E+04 1.80864E+03-1.17146E+03
 -1      8943-1.23728E+04-1.96647E+06 4.04247E+03 4.88068E+04-2.38855E+03 1.01132E+03
 -1      8944-2.98680E+04-1.56414E+06-4.75404E+02 8.39915E+04 1.45933E+02 1.85023E+02
 -1      8945-3.91551E+03-9.62617E+04-7.76851E+02 1.24026E+05 5.69119E+01 5.28654E+02
 -1      8946-4.23373E+03 1.58051E+05 3.70822E+02 1.20793E+05-3.75600E+02 1.48120E+02
 -1      8947 4.93354E+04 4.43470E+05 8.76270E+04-1.33161E+05 1.51209E+04 5.87698E+03
 -1      8948-7.92317E+03-1.05627E+04 1.87423E+03-1.56421E+05 2.82727E+03 4.23772E+03
 -1      8949-1.54765E+03-1.39791E+05 2.11752E+04-1.40727E+05 1.09382E+04 7.98337E+03
 -1      8950-9.81928E+03 8.64352E+04 7.68775E+01 8.91401E+03 1.39373E+02 1.73675E+01
 -1      8951-9.79040E+03 8.67447E+04-5.36689E+01 8.92349E+03-1.48098E+02 4.28365E+01
 -1      8952-8.11568E+03 1.84989E+05 2.00095E+02 4.17898E+04 4.48489E+01 1.40350E+02
 -1      8953-6.63967E+04 1.79490E+05 8.28186E+02-7.70512E+04 1.40330E+03 2.17544E+03
 -1      8954-6.58048E+04 1.79335E+05 1.21493E+03-7.67417E+04-1.31401E+03-2.42130E+03
 -1      8955-1.00803E+04 1.09709E+06 2.74210E+02 2.50646E+04 3.20382E+02-9.71895E+01
 -1      8956-9.84004E+03 9.64765E+05-1.25636E+02 4.23263E+04 2.22172E+01-2.40517E+02
 -1      8957-8.29502E+03 1.01118E+06 5.08447E+02 7.02053E+04-1.25968E+02-1.04203E+02
 -1      8958-9.96917E+03 9.40838E+05 1.51318E+02 2.34353E+04-2.43726E+02 1.06376E+01
 -1      8959-9.86135E+03 7.78648E+05-3.17038E+01 4.54747E+04 7.35888E+01-1.60666E+01
 -1      8960-1.01707E+04 9.39884E+05 2.02051E+02 2.38294E+04 5.26302E+02-7.04070E+01
 -1      8961-9.46410E+03 9.41105E+05 1.64752E+02 2.81152E+04 1.82722E+02 2.43069E+01
 -1      8962-9.07269E+03 7.77806E+05 4.98688E+02 4.95304E+04 1.47804E+02-1.64079E+02
 -1      8963-9.28671E+03 1.18114E+05 3.04415E+00 2.19039E+04 5.47443E+01 7.97380E+01
 -1      8964-7.57885E+03 4.43013E+05 6.89257E+00 9.01027E+04-8.04055E+01 2.76711E+02
 -1      8965-8.53220E+03 3.35791E+05-9.48393E+00 5.19995E+04-3.46855E+01-1.89608E+02
 -1      8966-4.88176E+03-4.21119E+02 6.33059E+01 3.47324E+04-8.46932E+01 3.05100E+01
 -1      8967-2.42110E+04 2.22037E+04-1.11038E+04-1.75886E+03 4.98005E+03-5.88805E+03
 -1      8968-4.07048E+03-9.78309E+04 2.80962E+02-3.23622E+04 7.68317E+02 3.14359E+02
 -1      8969 4.37013E+03-1.12699E+05-2.79241E+02-4.20352E+04 3.22428E+02-8.73787E+01
 -1      8970-2.08208E+03-2.23377E+05 2.20896E+04-1.20205E+05-2.74890E+04-1.87942E+04
 -1      8971 5.09608E+03-3.48414E+05 2.65268E+04-4.57414E+04-2.05645E+04-5.49960E+03
 -1      8972 1.25009E+04 2.46705E+05-1.94504E+02 1.25151E+05 1.77596E+02 1.49776E+02
 -1      8973-2.15624E+03 4.08539E+05-3.40759E+04-5.78160E+03-5.07463E+04 7.77243E+03
 -1      8974-6.83271E+03 3.38685E+05-3.50206E+04-7.25535E+04-5.26062E+04 1.15478E+04
 -1      8975 7.86087E+02-1.18517E+06 1.42879E+02 3.09996E+04-3.61764E+02-9.01347E+01
 -1      8976-9.41858E+03 5.06921E+05 4.66286E+00 3.96233E+04-8.72655E+00-1.81257E+02
 -1      8977-1.00767E+04 6.07766E+05-1.20743E+02 1.87325E+04-2.68495E+02 1.00583E+02
 -1      8978-1.00220E+04 6.07574E+05 2.02619E+02 1.86852E+04 2.99135E+02-1.29074E+02
 -1      8979-9.78112E+03 5.04544E+05-7.32729E+01 3.59245E+04-1.77802E+02-1.76585E+02
 -1      8980 6.08243E+04-1.96717E+05-3.85541E+03-2.29823E+04-2.45085E+03-2.54281E+03
 -1      8981-9.05637E+04-4.43508E+05-7.77609E+04 1.10081E+05 1.79620E+05-4.81464E+04
 -1      8982-8.77498E+04-4.27459E+05-7.32516E+04 1.03792E+05-1.77104E+05 4.78493E+04
 -1      8983-9.80157E+03 4.85659E+03 4.04176E+01 1.85275E+03 4.44234E+01-4.09577E+01
 -1      8984-9.60606E+03 6.29127E+03 5.54519E+01 3.31352E+03-1.21098E+01 2.53714E+01
 -1      8985-9.79636E+03 4.82265E+03 9.78130E+01 1.88735E+03-5.31279E+01 3.96384E+01
 -1      8986-4.30932E+02-1.57458E+06 3.40566E+02 3.10798E+04-3.84909E+02 3.81190E+02
 -1      8987-1.00066E+04 7.64344E+05 2.60056E+02 2.14166E+04-4.13324E+02-5.16201E+01
 -1      8988-9.12269E+03 6.35139E+05 2.52625E+02 4.48821E+04-1.27282E+02 3.30223E+02
 -1      8989-1.00218E+04 7.65073E+05 1.74372E+02 2.11763E+04 2.71931E+02 6.45388E+01
 -1      8990-9.90129E+03 6.33133E+05-2.41263E+01 4.09969E+04-6.43087E+01 7.80318E+01
 -1      8991-9.23758E+03 1.96938E+05 7.50041E+01 2.79593E+04-6.35093E+00 1.08019E+02
 -1      8992-9.04054E+03 1.81265E+05-1.87194E+00 2.71849E+04-1.03984E+02-1.21188E+01
 -1      8993-9.82272E+03 1.48853E+06 3.12954E+02 3.64378E+04 6.25955E+02-3.14274E+02
 -1      8994-9.48096E+03 5.21703E+05-2.47900E+02 5.04993E+04-2.55912E+02 1.49513E+01
 -1      8995-7.97263E+03 5.50340E+05 1.41833E+01 7.28570E+04 1.40487E+02-1.93769E+02
 -1      8996 1.24754E+05-2.56328E+05 1.26663E+03 3.34446E+04 1.50781E+02-1.55713E+02
 -1      8997-9.78978E+03 1.51314E+05-5.64923E+01 1.16212E+04 2.10851E+02-8.74425E+01
 -1      8998-9.72734E+03 1.51276E+05 2.00090E+02 1.16230E+04-2.39362E+02 2.60025E+01
 -1      8999-1.02318E+04 1.13384E+06 1.80238E+02 2.60342E+04-5.05279E+02 8.85341E+01
 -1      9000-9.52245E+03 1.13047E+06 9.40615E+01 3.08612E+04-1.47250E+02 8.18135E+01
 -1      9001-8.90721E+03 9.34175E+05 5.75278E+02 5.42366E+04-1.14374E+02 2.39802E+02
 -1      9002-9.98883E+03 1.13515E+06 6.07601E+01 2.55000E+04 3.06516E+02-7.47981E+01
 -1      9003-9.77662E+03 9.39682E+05-4.90045E+01 4.96080E+04-1.44559E+01-3.20433E+01
 -1      9004-8.18904E+03 5.72892E+05-1.05809E+02 6.50924E+04 1.80737E+02-1.68392E+02
 -1      9005-9.14762E+03 1.69018E+06 8.09038E+02 3.67083E+04 4.44988E+02-6.59852E+01
 -1      9006-9.62504E+03 1.68947E+06 6.25148E+02 3.72357E+04-5.56053E+02 1.77494E+02
 -1      9007-9.36502E+03 1.72691E+06 3.68451E+02 3.71651E+04-3.55974E+02 1.20728E+02
 -1      9008 3.72147E+03-2.91742E+05 4.50375E+02 1.20307E+05 5.96000E+02-4.97644E+02
 -1      9009 1.04422E+03-3.03668E+05 2.71722E+02 1.21351E+05 5.47794E+02 4.68195E+01
 -1      9010 1.20293E+02-6.68350E+01 3.98247E+00-1.65293E+01-6.52201E+00-1.89843E+01
 -1      9011 1.20937E+02-6.47491E+01 3.57392E+00-1.61223E+01 6.90225E+00 1.85224E+01
 -1      9012-1.41719E+03-1.77669E+05 7.81505E+00 3.93827E+04-2.08282E+02-2.84076E+01
 -1      9013-9.92297E+03 2.32233E+05 2.31982E+01 1.46324E+04-2.54731E+02 3.83541E+01
 -1      9014-9.87595E+03 2.32508E+05 1.86623E+00 1.43837E+04 1.14724E+02-4.82746E+01
 -1      9015-4.98193E+03-1.38022E+04-4.46779E+00 1.22237E+05-2.81821E+02 6.20643E+01
 -1      9016-9.13886E+03 6.28181E+05-3.49272E+02 7.23760E+04 1.94264E+01-3.11647E+01
 -1      9017-7.49252E+03 5.39930E+05 4.80672E+02 8.03492E+04-2.98029E+02 3.44461E+02
 -1      9018-8.51621E+03 3.12440E+05-4.37156E+02 6.59468E+04-2.65261E+02-7.34598E+01
 -1      9019-2.19170E+03-4.92873E+02-2.85032E+00 2.19592E+03-7.85834E+00-5.29527E+00
 -1      9020-1.50109E+03-1.59332E+03-3.13823E+01 2.50919E+03-6.89502E+00-9.76625E+00
 -1      9021-7.05225E+02-2.69891E+03-8.22857E+00 2.50449E+03-5.87892E+00-3.47109E+00
 -1      9022-9.27276E+03 7.81543E+05 3.66478E+01 6.06578E+04-2.15128E+02-9.96608E+01
 -1      9023-9.05003E+03 8.08091E+05 3.36274E+02 5.60067E+04-4.07611E+01 1.41692E+02
 -1      9024-1.42499E+03-1.22048E+05 8.29811E+01 3.27114E+04 9.18126E+01-3.67468E+01
 -1      9025-2.98867E+03-6.14058E+04 2.13851E+02 3.92951E+04 1.17553E+02-6.99504E+00
 -1      9026-2.82382E+03-2.21605E+05 1.47767E+02 1.22082E+05-1.53776E+02-1.44151E+02
 -1      9027 5.01025E+02-1.08969E+06 2.13090E+02 8.90083E+04 4.62497E+02-2.98965E+02
 -1      9028-4.84366E+03-9.31299E+02 2.42900E+01 1.61776E+04-1.13916E+01 8.70833E+01
 -1      9029-4.82792E+03-1.16939E+03-2.92347E+01 1.75081E+04-4.80765E+01 2.81359E+00
 -1      9030-3.58295E+03-7.19803E+03 1.74209E+02 1.60467E+04 4.17273E+01-1.73801E+01
 -1      9031-8.51267E+02-6.82227E+05-6.75575E+02 1.11934E+05 7.81893E+01-4.71207E+02
 -1      9032-1.00188E+04 4.49511E+05 5.59286E+01 2.00393E+04-3.48865E+02 4.20402E+01
 -1      9033-9.23611E+03 3.75118E+05 1.36015E+02 3.79659E+04 1.84316E+01 1.95816E+02
 -1      9034-9.88795E+03 4.50165E+05 4.73595E+01 1.96945E+04 1.85664E+02-1.87569E+01
 -1      9035-9.20302E+03 3.52897E+05-5.47960E+01 3.72727E+04-1.14804E+02 1.50693E+01
 -1      9036 6.85623E+03 7.57750E+04-5.17283E+02-9.42757E+04 1.14217E+02 2.63040E+03
 -1      9037 2.57775E+02-3.87747E+05 9.69149E+01 1.77729E+04-2.78723E+02-1.95053E+02
 -1      9038 1.41238E+02-2.80508E+05-6.11161E+01 1.50904E+04-3.10693E+02-1.37075E+02
 -1      9039-1.58552E+03-7.71831E+04-4.15010E+01 2.59716E+04-7.13315E+01 4.33299E+01
 -1      9040-1.75710E+03 1.73850E+05-2.18113E+02-6.95478E+04 5.39517E+01 1.41903E+01
 -1      9041 2.11689E+04 1.65966E+05-1.44773E+03-7.74780E+04-7.82259E+02 4.80615E+02
 -1      9042 2.06402E+04 1.57090E+05-3.35830E+02-8.69469E+04 1.22735E+02 2.04898E+01
 -1      9043-1.72562E+02-2.44607E+04 6.88375E+01 4.41018E+03-1.02789E+02-3.41473E+01
 -1      9044-8.05702E+03 3.61723E+05-3.49673E+01 5.92775E+04-1.27729E+02 1.34343E+02
 -1      9045 1.97516E+05 1.50709E+06 2.54842E+04 4.49140E+05-2.78218E+04 4.46017E+03
 -1      9046 2.04873E+05 1.21216E+06 7.58300E+04 4.16595E+05 4.00239E+03 4.94413E+03
 -1      9047 1.96394E+05 1.51126E+06 7.20610E+03 4.51161E+05 2.76242E+04-1.32832E+03
 -1      9048-9.88456E+03 3.32099E+05-8.76414E+01 1.72113E+04-2.19114E+02 1.54572E+02
 -1      9049-9.01906E+03 2.59328E+05 9.63555E+01 3.25175E+04-5.50672E+01-3.10000E+01
 -1      9050-9.71585E+03 3.32081E+05 2.41477E+02 1.72723E+04 3.15006E+02-4.49250E+01
 -1      9051-1.00140E+04 1.35232E+05-5.15868E+03-1.08339E+05-4.30292E+04 2.95456E+04
 -1      9052 1.16168E+05 1.37412E+02 2.62645E+03-6.37665E+04 3.93670E+03-8.70345E+02
 -1      9053-8.21083E+03 6.66004E+05-2.49610E+02 7.92276E+04-1.76676E+02 7.22339E+01
 -1      9054-8.04903E+03 4.50150E+05-4.09414E+02 6.60396E+04 9.30557E+01-2.79609E+02
 -1      9055-2.15798E+02-7.53637E+02-8.96747E+00 6.85989E+02 2.51340E+00-9.58106E-01
 -1      9056-1.09129E+03-6.94750E+02 1.36320E+01 1.45881E+03-4.11137E+00-1.86739E+00
 -1      9057-4.54998E+02-1.55064E+03 1.69237E+01 1.49250E+03-1.84105E+00-1.02091E+01
 -1      9058-1.30055E+03-8.26921E+04-1.33541E+02 2.16783E+04 5.28491E+01 7.87612E+01
 -1      9059-8.07486E+03 4.66557E+05-9.15071E+01 5.85126E+04-1.49062E+02 1.59599E+02
 -1      9060 3.70735E+02-1.70142E+06 3.92537E+00 3.42107E+04-4.48149E+02-2.27938E+02
 -1      9061-5.50683E+01-1.70268E+06 1.39547E+02 3.44940E+04 5.43926E+02 3.76148E+00
 -1      9062-2.87427E+02-1.46528E+06 4.19644E+02 5.21326E+04 2.71434E+02 7.81590E+01
 -1      9063-9.60657E+03 1.29392E+06-4.61892E+02 4.74389E+04-3.58867E+02-1.49446E+02
 -1      9064-9.97342E+03 1.44649E+06-3.27750E+02 3.64206E+04-6.26972E+02 9.33780E+00
 -1      9065-9.94591E+03 1.44558E+06-1.59439E+01 3.62098E+04 4.06224E+02-7.64652E+00
 -1      9066-9.73865E+03 9.88386E+05-1.14628E+03 7.76260E+04-2.27904E+02-4.65220E+02
 -1      9067 6.23762E+04 5.28918E+03-4.85085E+03-6.77706E+04 3.38518E+02 1.74434E+03
 -1      9068 4.96158E+04 2.24681E+04 2.19310E+03-7.32720E+04 8.61693E+02 7.54548E+02
 -1      9069 2.78103E+04 3.98174E+05 5.20997E+02 1.14800E+05 3.17058E+02 8.57870E+01
 -1      9070-8.90294E+03 3.72504E+05-1.36038E+02 5.53409E+04-2.57276E+02-6.77365E+01
 -1      9071-7.76523E+03 3.72225E+05-3.31709E+01 5.23877E+04-1.95463E+02 8.35773E+01
 -1      9072-1.95707E+05-1.33285E+06-4.20198E+04 3.90557E+05 3.52528E+04 1.11176E+03
 -1      9073-2.01261E+05-1.36676E+06-2.83850E+04 3.87336E+05-2.43183E+04 2.77860E+03
 -1      9074-6.51246E+03 6.26327E+05 3.91736E+02 9.69473E+04 2.33103E+02-4.28906E+02
 -1      9075-4.10754E+02-2.13098E+05 9.70663E+01 1.36426E+04 3.06515E+02-6.36736E+01
 -1      9076 4.94311E+02 1.46863E+05 2.51862E+04-7.82418E+04-7.73209E+04 4.78418E+04
 -1      9077-8.12060E+03 2.70126E+05-3.75802E+04-9.48679E+04-4.23751E+04 2.48579E+04
 -1      9078-1.12953E+03-1.23784E+06-3.85130E+01 3.27834E+04 3.62197E+02-7.01016E+01
 -1      9079 7.01315E+04-3.49590E+05 4.56064E+03-3.03316E+04 5.70671E+03 2.34486E+03
 -1      9080-3.98344E+04-3.72684E+05-2.06460E+04-5.15814E+04 9.67687E+03 6.52088E+03
 -1      9081-2.08639E+04 3.42720E+04-9.66647E+03 8.15966E+03-2.28491E+03 7.96486E+03
 -1      9082 1.30491E+04 1.04434E+05 4.81485E+03-4.63153E+03-3.09095E+03-1.89341E+02
 -1      9083-4.87194E+03 1.24035E+06 6.82620E+02 8.98253E+04-5.20790E+02 5.73826E+02
 -1      9084-1.76831E+04 2.04039E+05-1.32319E+04-1.13832E+05-1.19241E+04 8.84008E+03
 -1      9085-9.62290E+03 9.59927E+03 3.29206E+01 3.63219E+03-3.40579E+01 1.58120E+01
 -1      9086 7.44207E+04 2.58512E+05-3.11298E+04 1.56311E+05-3.66570E+02 5.96498E+02
 -1      9087 1.09196E+05 2.01051E+05-1.74795E+04 1.59382E+05-1.22090E+04-1.14887E+04
 -1      9088 8.71431E+04 1.72146E+05-1.52630E+04 1.34315E+05-1.97787E+03-2.39163E+03
 -1      9089 3.76736E+04 2.33955E+05 1.68621E+03 1.34839E+05-5.47593E+03-6.19983E+03
 -1      9090 3.24109E+02-5.11274E+05 1.12896E+02 2.04925E+04-3.71050E+02-2.19159E+02
 -1      9091-1.34666E+03-5.26091E+02-1.19601E+01 1.29093E+03 5.93838E-01-4.30463E+00
 -1      9092-5.82499E+02-4.54739E+02-1.46615E+01 5.13882E+02-1.59225E-01 1.92616E+00
 -1      9093-4.16258E+02-6.10333E+02-2.01448E+01 6.30476E+02-1.81926E-01 3.11079E+00
 -1      9094-9.12545E+03 9.06797E+05 2.10689E+02 2.35177E+04 3.82931E+02 2.10159E+02
 -1      9095-7.80356E+02-1.41597E+05 9.84647E+01 2.30387E+04-1.50586E+01-1.09977E+02
 -1      9096-8.44620E+02-1.18783E+05 6.56881E+01 2.67165E+04-1.96585E+02 2.90427E+01
 -1      9097 3.58181E+05-1.53549E+05 6.36291E+04-1.99930E+05-5.22278E+03 6.35412E+03
 -1      9098 1.25975E+04-6.76160E+04 3.23648E+01-1.30684E+05 7.11311E+02 7.26788E+02
 -1      9099 4.75113E+04-2.30313E+05-4.49992E+02 4.62343E+04 6.41049E+02-2.43463E+02
 -1      9100 4.01544E+02-6.52915E+05 5.21194E+01 2.32442E+04 3.93808E+02 1.82843E+02
 -1      9101-1.58298E+03-1.04117E+05-4.55078E+02 3.15519E+04 2.45420E+02 2.01726E+01
 -1      9102-1.40772E+03-8.60878E+04-6.40330E+00 2.14974E+04 1.25203E+02 8.73622E+01
 -1      9103 2.90728E+03-1.07168E+05-4.97563E+02 2.42966E+04-1.96958E+02 1.46182E+02
 -1      9104 5.10095E+02-8.11772E+05 4.24182E+02 2.61366E+04-3.87381E+02-2.42086E+02
 -1      9105 5.13786E+03-3.45205E+05 2.55282E+04-4.60393E+04 2.07239E+04 5.43702E+03
 -1      9106 3.08094E+04-2.06759E+05 6.11610E+03-9.16884E+04 7.57933E+03 3.96241E+03
 -1      9107-6.32896E+02-3.01879E+04-1.27935E+02 8.21123E+03 1.93616E+01 4.94183E+01
 -1      9108-7.42424E+02-2.34964E+04 7.55410E+01 9.05316E+03-1.70072E+01-1.01094E+01
 -1      9109 5.15346E+02-9.87810E+05 2.90096E+02 2.86641E+04-6.20305E+02-4.16696E+02
 -1      9110-7.99584E+03 6.90980E+05 1.67969E+02 7.13710E+04-1.98075E+02 2.26273E+02
 -1      9111-8.90840E+03 9.48511E+04-1.73101E+02 2.42076E+04 6.35730E+00 1.38028E+02
 -1      9112-1.79856E+05 2.12686E+05 7.46290E+02-1.17105E+05-1.87486E+03-2.52793E+03
 -1      9113-1.63450E+05 2.18570E+05-2.30279E+03-5.15017E+04-1.06436E+03-5.59584E+03
 -1      9114-9.60697E+03 7.33816E+05 6.98093E+01 2.09599E+04 3.15085E+02 2.35864E+02
 -1      9115 2.59358E+04-5.04751E+05-1.71237E+04 3.47605E+04 2.62629E+03 2.33895E+03
 -1      9116 6.21007E+03-5.48223E+05-1.73126E+04 7.18474E+04 9.99357E+03-3.34520E+03
 -1      9117-1.96700E+04-3.86610E+05 6.23502E+03 1.38008E+03 1.14191E+03-2.20310E+03
 -1      9118-4.91409E+03-2.66187E+05-6.77305E+02 1.16314E+05-4.66250E+01 5.23829E+02
 -1      9119-7.82168E+03 5.66130E+05-9.90992E+01 9.66361E+04-1.51117E+01 2.58834E+00
 -1      9120-2.26667E+04 1.95621E+05 6.78994E+02 5.93311E+04 4.28684E+01-3.76567E+02
 -1      9121-8.91516E+02-6.94940E+05-2.24479E+02 2.47155E+04 4.19246E+02-1.97726E+02
 -1      9122-5.55395E+02-1.03920E+06-3.43460E+02 2.99429E+04-5.53162E+02 3.83675E+02
 -1      9123 4.56062E+04-1.24987E+05-3.42317E+03-1.01834E+05 1.02335E+03-4.30852E+03
 -1      9124 2.77803E+04-1.06345E+05 3.27586E+02-9.61199E+04-4.93317E+02 1.00294E+03
 -1      9125-4.98252E+02-5.48127E+05-1.74918E+02 2.17948E+04-4.32129E+02 2.89509E+02
 -1      9126-9.60397E+03 3.39771E+04-2.47249E-01 5.62784E+03-7.03064E+01-1.96505E+01
 -1      9127-8.87377E+03 2.41960E+04-2.83197E+01 1.18378E+04-1.39628E+00-1.13298E+02
 -1      9128 5.83751E+04 4.27585E+05 5.86198E+04 4.26323E+04-1.62292E+05-3.14021E+04
 -1      9129 2.28739E+04-1.74550E+05-2.49943E+02 2.25621E+04 2.81535E+02 9.21381E+01
 -1      9130 1.87679E+04-1.67016E+05 5.88558E+01 4.19977E+04 5.75775E+02-4.38326E+02
 -1      9131-5.99308E+03-3.44071E+05 7.35395E+03 8.06183E+04 2.09330E+04-6.03323E+03
 -1      9132 6.73753E+02-2.73447E+05 4.69818E+02 1.21629E+05 4.59553E+02-2.30805E+02
 -1      9133-9.68930E+03 9.73914E+05 2.87004E+02 2.91338E+04-3.82261E+02-1.18549E+02
 -1      9134-9.14709E+03 9.41048E+05-3.98718E+01 2.83067E+04-1.90125E+02-3.23573E+02
 -1      9135-9.54368E+03 9.74589E+05 3.05842E+02 2.92494E+04 4.16472E+02 1.32291E+02
 -1      9136-9.05943E+03 7.74338E+05 1.69430E+02 5.41731E+04 6.56692E+01-7.90979E+01
 -1      9137-6.19581E+02-1.17608E+05-8.00894E+01 2.12214E+04-3.33192E+01 7.47801E+01
 -1      9138-1.18945E+03-1.08126E+05-2.62628E+01 2.56509E+04-1.83327E+02-2.24819E+01
 -1      9139-6.42476E+03 1.76409E+05 5.67391E+02 6.31708E+04 6.85027E+02-2.44646E+02
 -1      9140-1.86068E+03 1.10458E+02-4.37377E+00 6.75220E+02 1.74033E+00 2.80646E+00
 -1      9141-3.04471E+04-1.69963E+05-3.20767E+04-8.64743E+04-7.09986E+04-5.18010E+04
 -1      9142 2.70174E+03-7.95276E+04 1.71147E+02 9.28078E+03 7.99942E+00-2.56599E+01
 -1      9143 1.38211E+03-7.92559E+04-1.75357E+01 1.41177E+04-9.25074E+01-2.64499E+02
 -1      9144 1.18762E+04-1.27304E+05 1.15126E+02 1.87419E+04-2.94988E+02-2.04185E+02
 -1      9145-4.05294E+02-7.55217E+04 2.09185E+01 8.41283E+03-1.68266E+02 4.28247E+01
 -1      9146-9.75304E+03 1.72644E+06-4.95496E+02 3.73284E+04 5.50891E+02 1.47453E+02
 -1      9147-5.41489E+02-7.21062E+05 1.73228E+03 1.03210E+05-2.46056E+02 3.68933E+02
 -1      9148-9.52560E+03 5.80246E+05 2.43712E+01 1.85069E+04-3.15352E+02-8.04692E+01
 -1      9149-1.73532E+04 3.36358E+05-1.28957E+04 1.05129E+05 7.85468E+03-2.54461E+03
 -1      9150-3.26965E+04 3.39946E+05-8.62382E+03 5.43901E+04 7.37242E+03 2.17231E+02
 -1      9151 2.71856E+04 1.50325E+05 3.71624E+02 8.29301E+04-6.97536E+02-1.70197E+02
 -1      9152 9.03698E+04-3.38569E+05 1.78587E+03 7.13555E+03-1.74729E+03 6.88932E+02
 -1      9153 6.97445E+03-1.43809E+05 4.25159E+02-1.33024E+02-1.62084E+02 4.09873E+02
 -1      9154 8.06197E+04 1.29991E+05 2.45754E+04-1.11565E+05-3.27899E+03 7.83617E+03
 -1      9155 1.75898E+05 8.85970E+05 6.65405E+04 3.07247E+05-8.93041E+04-5.80936E+04
 -1      9156 1.06347E+04 4.08056E+05-2.97548E+04 1.16005E+05 2.87281E+04 1.84856E+03
 -1      9157 5.77312E+03-2.44737E+05 1.96473E+04-1.14722E+05 1.70952E+04 7.58749E+03
 -1      9158-8.98398E+03 5.68849E+05-1.59171E+02 6.85314E+04 3.98829E+02-7.22824E+01
 -1      9159-4.09062E+04 2.17181E+05 3.58767E+02 5.14998E+04 3.25346E+03-2.80146E+02
 -1      9160 4.35559E+03-8.37892E+04 5.23538E+01 1.31305E+03-3.51056E+00-9.37618E+01
 -1      9161 3.21753E+03-7.74259E+04 1.50915E+02 4.20865E+03-1.63079E+02 7.56578E+01
 -1      9162 3.56832E+03-8.47528E+04 1.16020E+02 2.37059E+03 3.00143E+02-8.04829E+01
 -1      9163-8.99081E+03 1.13051E+06-1.00341E+02 3.11952E+04 1.90946E+02 1.92834E+02
 -1      9164-9.13813E+03 9.25308E+05 1.60189E+02 5.96067E+04-1.17279E+02 8.10291E+01
 -1      9165-1.05465E+04 6.65927E+05-1.99088E+02 2.34814E+04-2.82298E+02 1.44541E+02
 -1      9166-4.88844E+04-2.14579E+05 2.04332E+04-7.96308E+04 2.64268E+03 1.72125E+04
 -1      9167 1.73267E+04 1.22051E+06-1.14560E+03 1.05279E+05 1.44577E+02-1.43728E+02
 -1      9168-2.14567E+03 1.31663E+06-2.07992E+03 9.50098E+04 4.53280E+02 7.81450E+02
 -1      9169 1.36918E+03 1.58867E+06 3.83228E+02 8.34027E+04 4.57888E+02-1.51339E+02
 -1      9170-8.94833E+03 4.65104E+05 1.10816E+02 6.16607E+04-2.34518E+02-1.83282E+02
 -1      9171-7.72882E+04 2.96142E+05-4.29178E+02 5.91651E+04-2.81318E+03 7.06819E+02
 -1      9172-7.77543E+04 3.30790E+05 8.01416E+03 4.82929E+04-4.67637E+03 1.90427E+03
 -1      9173-9.56006E+03 6.28700E+03 2.58903E+01 3.33184E+03 4.40031E+01-7.54616E+00
 -1      9174-1.00474E+04 1.19314E+05-8.50317E+01 1.00372E+04 1.79765E+02-9.63843E+01
 -1      9175 1.16569E+04-1.41358E+04-1.26876E+02-1.32976E+05 7.68506E+02 1.24891E+03
 -1      9176 1.10385E+05 2.03413E+05-2.11785E+04 1.77665E+05 2.80577E+04 2.02050E+04
 -1      9177 1.07071E+05 3.08244E+05-2.10657E+04 1.86507E+05 1.66256E+04 1.07514E+04
 -1      9178 1.54671E+04 3.12287E+05-1.09874E+04 1.43536E+05 1.14650E+04 7.26256E+03
 -1      9179 5.28415E+04 3.86412E+05-2.59829E+04 1.58911E+05 3.57173E+04 1.10055E+04
 -1      9180 1.62725E+05 4.04199E+05-3.20103E+04 2.11328E+05 4.46726E+04 2.42119E+04
 -1      9181-3.21604E+03-1.20308E+05-1.12757E+03 3.68667E+04-1.63205E+02-6.14453E+02
 -1      9182-3.21673E+03-5.85332E+05-3.42827E+02 1.09343E+05-1.98718E+02-2.89102E+02
 -1      9183-1.58671E+03-4.96774E+05 1.20656E+02 1.14795E+05-3.51010E+02 1.84116E+02
 -1      9184 5.10344E+04-1.57470E+05-1.72234E+03-6.26241E+04 5.52180E+02 2.98409E+03
 -1      9185-2.62625E+03-1.15975E+05 8.78295E+02 1.22466E+05-2.42530E+02-3.81600E+02
 -1      9186-1.16749E+05-1.97898E+06 4.34380E+03 3.00604E+05 4.79585E+03 4.92761E+03
 -1      9187-1.10149E+05-1.97233E+06 5.00724E+03 2.88666E+05-5.07842E+03-4.88924E+03
 -1      9188-1.09569E+04-9.05225E+04-1.33970E+03-1.06129E+05 1.43843E+03 5.82607E+02
 -1      9189-3.23285E+04-9.51544E+04-2.35950E+03-9.22414E+04-4.54637E+01 3.19778E+02
 -1      9190-3.97281E+04-9.78052E+04-2.42221E+02-8.24293E+04 3.27147E+02 2.43928E+02
 -1      9191 1.30453E+04-1.17661E+05 5.10454E+02-7.85563E+04 3.85907E+02-1.10521E+03
 -1      9192-1.12852E+04-1.11369E+05 3.60341E+02-6.56821E+04 1.34902E+02 2.24563E+02
 -1      9193-3.63615E+04 1.79953E+05 1.65323E+02-5.67609E+04 3.87740E+02-2.17851E+02
 -1      9194-1.84194E+02-6.32873E+01 1.57868E+01 2.23639E+02-1.17794E+01 6.52892E+00
 -1      9195-1.74913E+02-3.11067E+01 1.58682E+01 2.26208E+02 7.09812E+00-8.56023E+00
 -1      9196-1.26173E+01 1.58040E+02-8.60713E+00 1.05482E+01 1.85587E+00-2.01519E-01
 -1      9197-2.25042E+02-2.20966E+02 2.03193E+01 1.76857E+02 8.12336E+00-1.47204E+00
 -1      9198-2.34112E+02-2.15166E+02 1.67928E+01 1.68019E+02-3.57853E+00 2.31868E+00
 -1      9199 1.91437E+04 5.51252E+05-1.10309E+03 1.21435E+05 3.72282E+02 4.23609E+02
 -1      9200 8.83541E+03 6.56722E+05 4.71895E+02 1.17765E+05 1.71410E+02-2.82577E+02
 -1      9201 2.92750E+04 8.59941E+05-1.65567E+02 1.21706E+05 4.14889E+02 6.73315E+01
 -1      9202-9.61894E+03 4.85682E+04-1.16652E+03-3.62079E+04 2.65040E+01-9.10597E+02
 -1      9203-4.72401E+03 9.33679E+04-1.98517E+03-3.50999E+04-2.56250E+03-1.14125E+03
 -1      9204-7.29034E+03 1.49980E+04 4.03126E+02-3.13387E+04-3.33138E+03-3.68189E+03
 -1      9205 8.27081E+03 1.04035E+04-2.08230E+03-6.15355E+04-1.54650E+03-7.26680E+02
 -1      9206 7.73162E+03 4.36639E+04-3.69150E+03-6.54976E+04-2.85449E+03-1.69154E+03
 -1      9207-1.06468E+04 1.00742E+06-1.45507E+02 2.88629E+04 3.70457E+02-1.62242E+01
 -1      9208-7.84319E+02-4.09778E+01 1.75149E+01 2.66606E+02 3.00459E+00-5.50887E+00
 -1      9209 7.45265E+03 1.10009E+05-4.60558E+02 1.26925E+05 3.35077E+01-6.58523E+02
 -1      9210 1.06196E+05-3.09237E+05 3.58427E+03 7.58958E+03-1.72163E+03 1.20128E+03
 -1      9211-2.06648E+03-1.14449E+06-1.75527E+03 7.78945E+04 2.64093E+02 4.46455E+02
 -1      9212 2.48447E+04 1.39361E+05 9.69256E+01 7.28886E+04 6.77621E+02 2.31044E+02
 -1      9213-8.15896E+01 7.21694E+03 1.44008E+02 1.27592E+05 1.52951E+02 6.36625E+02
 -1      9214-1.05020E+04 8.27645E+05 1.20539E+02 2.62049E+04 4.48813E+02-1.58920E+02
 -1      9215 2.27659E+04 4.09702E+04 6.73061E+02-1.05312E+05 1.54670E+03 2.31362E+03
 -1      9216 2.11824E+04 1.59539E+06 9.44872E+02 1.02197E+05 3.62234E+02-3.49408E+02
 -1      9217 3.19277E+04 6.76852E+04 2.09278E+04-1.83639E+05-2.51282E+03-1.54461E+02
 -1      9218-8.17126E+02 4.49485E+04 4.00419E+03-1.61765E+05 3.82914E+02-6.10290E+02
 -1      9219-7.29702E+03 4.29342E+04 6.87614E+03-1.56068E+05-3.86626E+03 7.44141E+02
 -1      9220 9.47402E+04-1.23641E+05 1.49166E+03-1.30394E+05 1.60201E+03-7.32123E+03
 -1      9221-3.91385E+03-9.83986E+04 7.44482E+01-3.27843E+04-3.88669E+02-5.31984E+00
 -1      9222-8.46778E+04 3.57574E+04-3.64970E+03-1.10163E+05-1.40080E+03 1.25187E+03
 -1      9223-2.57454E+04-1.10987E+04-1.90994E+03-1.47722E+05-1.56730E+03 1.18253E+02
 -1      9224-5.15425E+03 2.61758E+05-2.18598E+03 1.16712E+05 1.19591E+03 2.81478E+02
 -1      9225-9.25990E+03 1.77277E+06 4.47661E+02 3.81065E+04-5.73019E+02 1.43071E+02
 -1      9226-6.59578E+03 1.60414E+06 2.79211E+02 5.78180E+04-3.47135E+02 5.02924E+02
 -1      9227-9.37857E+03 1.77361E+06-2.59816E+00 3.77036E+04 4.31884E+02-2.28580E+02
 -1      9228 5.93356E+03 1.60293E+04-2.92986E+03-7.45880E+04-2.62040E+03-8.20932E+03
 -1      9229 4.32161E+04 2.26566E+04 1.46202E+03-8.37793E+04-1.34168E+03-4.20809E+03
 -1      9230-1.01170E+04 1.93502E+05-2.12387E+02 1.27843E+04 2.33920E+02-1.18141E+02
 -1      9231-9.37080E+03 1.25549E+06 1.67583E+01 4.70925E+04-4.23847E+02-1.48714E+02
 -1      9232-1.01515E+04 1.29386E+06 2.89914E+02 4.80104E+04 5.78489E+02 4.38904E+01
 -1      9233-9.00413E+03 1.25579E+06 5.53189E+02 4.76763E+04 6.51472E+02 1.70921E+02
 -1      9234-7.82952E+03 8.43822E+05 3.02493E+02 8.65112E+04 9.83789E+01-1.23432E+02
 -1      9235 2.30448E+03 5.18709E+05 6.67177E+02 1.21027E+05-1.72591E+02-2.15457E+02
 -1      9236 3.58625E+03-2.13785E+04 2.86668E+02 1.28354E+05-2.22046E+02 6.33094E+01
 -1      9237-1.06367E+03-8.61310E+05-4.16315E+02 1.00719E+05-1.45128E+02-6.17742E+02
 -1      9238-6.38254E+02-7.74260E+05-2.06631E+01 1.07661E+05-8.40557E+01-4.92303E+00
 -1      9239-9.04223E+03 6.81250E+05 3.18304E+01 7.49978E+04-5.44371E+02 1.54234E+02
 -1      9240-2.24469E+03-3.70398E+05-8.64315E+01 1.18920E+05-3.55420E+02-1.97479E+02
 -1      9241-9.50314E+04-7.17273E+04 4.71123E+01-9.43740E+04 8.75699E+01 5.64782E+02
 -1      9242-5.49253E+04-7.74634E+04-6.95547E+02-1.00089E+05-1.83060E+02 2.34633E+02
 -1      9243-9.55181E+04-7.21030E+04-2.03842E+01-9.47194E+04-1.07815E+02-4.44547E+02
 -1      9244-6.87565E+04-5.88150E+05-3.10091E+04 1.16085E+04-2.21729E+03 1.33760E+04
 -1      9245 6.50374E+04 2.26263E+06-1.08697E+03 1.16795E+05 1.07782E+03 3.01114E+03
 -1      9246 1.33019E+05 1.77099E+06-1.46435E+03 1.50385E+05 3.30278E+03 3.27015E+03
 -1      9247 1.76164E+04 2.15719E+05-3.45144E+03 1.17648E+05 1.66658E+03 8.29566E+01
 -1      9248-7.92819E+03 7.00098E+05 1.16126E+01 9.03650E+04-6.37318E+01-3.77354E+02
 -1      9249-6.07748E+04 1.42624E+05 5.30343E+03-1.01964E+05 1.74031E+02 2.78449E+03
 -1      9250-3.89931E+04 1.17473E+05 5.08808E+03-1.18885E+05-7.04559E+02 4.04202E+03
 -1      9251-2.37841E+04 1.30982E+05 1.43000E+04-1.12410E+05-5.65442E+02 3.80336E+03
 -1      9252-6.27461E+04-3.24634E+05-4.29562E+04-4.35221E+04-1.19948E+05-1.81668E+04
 -1      9253-1.20269E+04 1.74469E+05 3.65866E+02 5.36949E+04-5.59969E+02-2.05849E+02
 -1      9254-5.45221E+03 1.61221E+05 1.30667E+02 4.48316E+04-8.11876E+01 1.48526E+01
 -1      9255-2.07415E+03 1.54361E+05-2.12281E+02 3.75514E+04-4.62559E+02-1.15684E+02
 -1      9256-2.63900E+04 1.82201E+05 1.00051E+03 3.40680E+04 1.86748E+01-2.85893E+01
 -1      9257-1.70174E+04 1.70575E+05 1.12426E+03 2.50298E+04 4.87737E+01 1.02188E+02
 -1      9258-3.40957E+03-4.78003E+05-3.99236E+02 1.11470E+05-2.62709E+02 6.05980E+01
 -1      9259-2.47810E+03 4.10141E+05-3.28637E+04-6.37112E+03 5.15022E+04-8.13851E+03
 -1      9260-8.67607E+03 3.24832E+05-3.21078E+04-7.13023E+04 5.75363E+04-1.21241E+04
 -1      9261 6.51109E+04 2.26132E+06-1.18773E+03 1.16924E+05-5.51280E+02-3.28240E+03
 -1      9262 1.33107E+05 1.76777E+06 1.09932E+02 1.50573E+05-3.75997E+03-3.30737E+03
 -1      9263-7.92404E+03 8.38358E+05 4.97659E+02 6.87582E+04-1.74824E+02 3.63844E+01
 -1      9264-3.99921E+04 6.50878E+04-1.01039E+04 2.01308E+01 8.72502E+02 9.58341E+02
 -1      9265-1.17067E+04-9.05906E+04-9.64330E+02-1.06784E+05-1.55968E+03-3.60721E+01
 -1      9266-4.03817E+04-9.84735E+04-2.16609E+02-8.29812E+04-1.54407E+02-9.21801E+00
 -1      9267 1.16147E+04-1.19106E+05 3.37300E+01-7.87896E+04-2.63358E+02 1.65207E+03
 -1      9268-1.12195E+04 2.58697E+05-3.40188E+04-9.62532E+04 4.47844E+04-2.44753E+04
 -1      9269 6.85862E+04 1.25218E+05 2.50902E+04-1.09985E+05 4.52820E+02-1.01186E+03
 -1      9270 5.08326E+04 1.40308E+05 9.59173E+03-1.04915E+05-8.25624E+01-4.57922E+02
 -1      9271 1.88680E+04 4.40033E+05-3.07144E+04 9.00060E+04 3.81746E+04-4.61507E+02
 -1      9272-1.05641E+04 1.20298E+06-1.11525E+02 3.16578E+04 4.37064E+02-1.98922E+02
 -1      9273 6.45880E+03-1.69564E+05 9.76601E+01-6.15128E+03 1.01282E+02 6.17046E+02
 -1      9274 7.69931E+03-1.32432E+05 1.26979E+02 8.82014E+02 1.93220E+02 4.68712E+02
 -1      9275-2.07399E+03-1.33231E+04 5.16966E+01 1.26294E+04 3.31400E+01 4.35288E+01
 -1      9276-9.69709E+03 1.16692E+06 1.67781E+02 3.19770E+04-4.14834E+02 3.34577E+01
 -1      9277-9.65343E+03 1.16678E+06 2.61363E+02 3.22698E+04 3.75133E+02 1.60315E+01
 -1      9278 1.17680E+04 9.65972E+05 3.22198E+02 1.15098E+05-1.22839E+02 7.51254E+02
 -1      9279-1.26787E+04 1.18705E+05 1.67046E+04-1.14683E+05 9.14287E+02-4.61540E+03
 -1      9280 1.63757E+03 1.30813E+05 1.99683E+04-1.09502E+05-7.00644E+02 2.39006E+03
 -1      9281-2.16378E+02-4.19300E+03 2.04107E+01 1.56297E+03-2.12080E+01-3.21364E+01
 -1      9282 2.09366E+04 1.65752E+05-1.20678E+03-7.76039E+04 6.45875E+02-4.19456E+02
 -1      9283-1.35030E+04 1.69216E+05 1.28989E+03-7.57475E+04 6.71516E+02-4.91634E+02
 -1      9284 1.15619E+04 1.52109E+05 1.99796E+03-9.31380E+04 7.83541E+02-2.91152E+02
 -1      9285-6.11969E+04-8.86086E+04-2.13837E+02-9.17017E+04-1.47786E+02 4.35255E+02
 -1      9286-6.18863E+04-8.89222E+04-1.99685E+02-9.21682E+04 1.86129E+02-2.63849E+02
 -1      9287-9.58556E+03 1.37929E+05 1.71125E+00 1.12485E+04 2.82365E+02 8.79846E+01
 -1      9288 4.36986E+01 2.12472E+02 3.53011E+00 1.55503E+02-1.38067E+01-1.04382E+01
 -1      9289 4.30311E+01 2.11700E+02 4.26264E+00 1.56301E+02 1.38749E+01 1.33236E+01
 -1      9290 5.68957E+01 5.72409E+01-1.07233E+01 5.81343E+01 3.32405E+00 1.54026E+01
 -1      9291 5.44729E+01 5.98860E+01-1.50777E+01 5.50533E+01-5.64525E+00-1.76690E+01
 -1      9292-1.14732E+04 1.80072E+05-2.45574E+02-3.72381E+04 2.58478E+02-2.38169E+02
 -1      9293 9.56877E+04 1.71257E+05-8.20125E+03 1.37618E+05-1.96010E+03-5.85304E+03
 -1      9294 3.30252E+04 1.96957E+05-1.58623E+02 1.19277E+05-3.45390E+02-1.72727E+03
 -1      9295-3.50365E+03 1.97332E+06 6.18706E+02 4.64435E+04-6.24216E+02 7.62440E+02
 -1      9296 1.14226E+04 1.97770E+06-2.81471E+03 6.89341E+04-2.59549E+03 5.41324E+02
 -1      9297 1.15259E+04 1.97855E+06-1.80623E+03 6.81907E+04 1.77600E+03-5.59365E+02
 -1      9298-6.62663E+01-1.07871E+02-5.56117E+00 2.96347E+02-1.04925E+01 1.53706E+01
 -1      9299-1.15781E+05-5.88517E+04 9.82373E+02-9.44445E+04 2.16592E+02 5.77850E+02
 -1      9300-1.32428E+05-3.70544E+04 8.77412E+02-9.08663E+04 1.12838E+02 1.23987E+03
 -1      9301-1.19066E+05-3.59567E+04-1.29701E+03-9.75286E+04-4.21692E+02-1.15847E+02
 -1      9302-8.94774E+03 1.09738E+06 1.45141E+02 2.57527E+04-3.39201E+02-1.36536E+02
 -1      9303 9.98672E+03 1.42602E+05 3.55404E+04-7.62809E+04 7.91743E+04-5.41463E+04
 -1      9304 2.22455E+01 8.22236E+01 7.65729E+00-2.25752E+01 3.78822E+00-4.01045E+00
 -1      9305-4.71327E+00 2.30959E+01 4.46791E-01-4.88755E+00 4.08614E+00-2.14188E+00
 -1      9306-2.29379E+00 2.38080E+01 3.01806E+00-4.35073E+00-4.56209E+00 1.74977E+00
 -1      9307 2.36886E+01 8.29599E+01 8.24603E+00-2.26585E+01-3.86966E+00 3.49882E+00
 -1      9308-1.67700E+03 1.06035E+06-2.27338E+02 1.08621E+05 1.48095E+02 2.75117E+02
 -1      9309-6.01767E+03 1.64985E+06-7.21602E+01 6.08223E+04-5.38047E+02 2.77908E+02
 -1      9310-5.57462E+03 1.64753E+06 5.22182E+01 6.00512E+04 2.53597E+02-3.98709E+02
 -1      9311-5.34164E+03 1.60378E+06 8.23391E+02 5.84701E+04 6.09042E+02-3.65948E+02
 -1      9312-1.24404E+03-1.42535E+06-1.54624E+02 5.24896E+04-5.10117E+02-4.26721E+01
 -1      9313 1.05729E+01-1.46603E+06 5.38420E+01 5.28776E+04-5.36201E+02-8.16074E+01
 -1      9314-9.88250E+02-9.41857E+05 7.49245E+01 9.55768E+04-2.68139E+02-1.72438E+02
 -1      9315-8.88399E+02-1.42596E+06-6.53219E+02 5.17295E+04 3.76684E+02 7.59302E+01
 -1      9316-5.55930E+02-1.70867E+02-1.51410E+01 2.47681E+02-1.77445E+00-1.62650E+00
 -1      9317-1.07077E+04 1.48273E+05-1.66759E+04-1.28830E+05 4.68119E+01-8.22580E+01
 -1      9318 1.09822E+05-2.94854E+05-4.54418E+02 4.16919E+04-3.27705E+01-3.56531E+02
 -1      9319-9.59562E+03 3.11917E+05-4.47391E+01 1.69258E+04-3.41124E+02-9.17000E+01
 -1      9320-2.89242E+03-1.01856E+04 1.00987E+02 1.40188E+04 2.15490E+01 4.56544E+00
 -1      9321 9.75803E+04-2.38365E+05 4.77450E+02 1.71434E+04 2.49876E+02-1.02362E+03
 -1      9322 1.16198E+05-2.23438E+05 3.87566E+01 2.70129E+04 9.11629E+02-1.45115E+03
 -1      9323-5.09323E+03 1.96967E+06 6.70817E+02 4.78771E+04 1.29818E+03-9.65558E+02
 -1      9324-8.33864E+03 3.68535E+05 2.33787E+02 4.50270E+04-1.61881E+02 7.46290E+01
 -1      9325 1.49565E+05 1.58225E+06-3.09193E+03 1.30986E+05 1.84577E+03-8.52172E+02
 -1      9326 5.50399E+04 4.25044E+05 5.89494E+04 4.66591E+04 1.59350E+05 3.35873E+04
 -1      9327 2.85809E+05 8.83035E+05 8.09440E+04 4.66459E+05-7.78908E+04-3.50281E+04
 -1      9328-8.67790E+03 5.73686E+05-2.87667E+02 8.73091E+04-1.39696E+02-5.38070E+01
 -1      9329-1.46793E+03-1.33506E+05-2.26948E+02 2.75252E+04 1.78985E+01-7.83322E+01
 -1      9330-1.15518E+05-1.90736E+06-2.44960E+03 2.29317E+05-1.63836E+03-3.77187E+03
 -1      9331 4.90915E+04-2.29551E+05-2.25348E+02 1.39803E+04 4.07336E+02-2.49185E+02
 -1      9332 3.39795E+04-1.97457E+05-1.10947E+02 6.00477E+03-2.87026E+02-5.42081E+02
 -1      9333-1.77720E+03-2.43590E+02-3.10481E+00 1.30761E+03-5.61464E+00 1.39638E+00
 -1      9334-2.75397E+04-1.15228E+05 1.80337E+03 6.64292E+04-8.87697E+02-1.03648E+02
 -1      9335-1.14330E+04-1.44729E+05-2.31923E+03 5.95452E+04-1.81708E+02 3.59344E+02
 -1      9336-1.55882E+04 1.70124E+05-4.08298E+02 2.56115E+04 3.71449E+02 1.07159E+02
 -1      9337-5.07579E+03 1.58666E+05-9.49371E+02 3.06453E+04 3.85668E+02 3.50588E+02
 -1      9338-1.88445E+04 1.74322E+05 1.21189E+03 1.79801E+04-3.69537E+02-7.19958E+01
 -1      9339 6.30958E+04 2.47336E+04 2.38675E+03-8.67839E+04-2.14321E+03 9.76302E+03
 -1      9340-4.28631E+02-1.61783E+06 1.54909E+02 3.20266E+04-4.56681E+02 2.45278E+02
 -1      9341-3.49965E+02-1.61710E+06-1.08033E+02 3.21472E+04 6.30243E+02-8.27731E+01
 -1      9342 3.96415E+02-8.21565E+04-4.81427E+01 1.71861E+04 1.64341E+02 2.22544E+02
 -1      9343 4.88558E+03-1.02626E+05-4.51249E+01 2.00329E+04-8.26905E+01-1.58516E+01
 -1      9344-8.78870E+02-2.16146E+05 8.46181E+01 3.50661E+04-9.62679E+01-1.48559E+01
 -1      9345-9.55692E+04 3.40839E+04-6.84271E+03-1.00919E+05 1.21986E+03-2.84960E+03
 -1      9346-1.00873E+05 1.97266E+04-9.93212E+03-1.01389E+05 2.57291E+02-8.44715E+02
 -1      9347-1.46714E+04 1.80544E+05-1.08605E+04-1.05768E+05-7.95595E+02 9.58324E+02
 -1      9348-3.28674E+05 2.14283E+05-3.52966E+04-1.13579E+05 6.36195E+03 1.15547E+04
 -1      9349-1.53432E+05 2.52172E+05 8.97864E+03-4.20187E+04 1.41580E+03 8.12530E+03
 -1      9350-9.20550E+02-9.60037E+04 1.43881E+02 2.33884E+04-3.36806E+01 3.12674E+01
 -1      9351-6.04799E+03 3.13104E+05-5.58030E+03 1.18554E+05 2.79018E+03-6.51194E+02
 -1      9352-4.33558E+04 2.17949E+05-2.78220E+03 5.51563E+04 1.30604E+03-2.10478E+03
 -1      9353-6.30156E+03 1.91909E+06 7.20398E+02 4.45887E+04-7.04170E+02 1.24765E+03
 -1      9354-5.36599E+03 1.92123E+06 9.27354E+02 4.54478E+04 5.85090E+02-8.90609E+02
 -1      9355-2.27882E+04 2.19097E+04-1.20576E+04-5.07617E+04-1.00154E+03-1.80711E+02
 -1      9356 6.59030E+04-2.59096E+05 8.30096E+02 9.42319E+03-1.09340E+03 4.04110E+02
 -1      9357 8.58890E+04-2.87348E+05 1.38724E+03 6.38782E+03-8.54215E+02 1.04100E+02
 -1      9358-7.66242E+04 1.47683E+05 7.45973E+03-1.11073E+05-7.00981E+02-3.85758E+03
 -1      9359-1.18185E+05 1.63383E+05 4.55705E+03-9.78900E+04-8.06906E+02-2.20419E+03
 -1      9360-8.32417E+03 4.75424E+05 1.48941E+01 8.03259E+04 2.99055E+02-1.97475E+01
 -1      9361 1.12851E+05-2.65153E+05-1.43410E+03 3.45489E+04 3.11681E+01-5.80768E+02
 -1      9362-7.91674E+01-5.08859E+02-2.01428E+00 3.08204E+02 9.05394E+00-2.45637E+01
 -1      9363-2.15324E+02-1.44270E+03 2.44494E+01 1.05659E+03 9.20726E+00-2.64983E+01
 -1      9364-7.46636E+01-5.05209E+02-8.75743E+00 2.95616E+02-1.18938E+01 2.36320E+01
 -1      9365 3.74407E+05-2.22173E+05 5.25220E+04-1.81950E+05 5.92651E+02-1.66489E+04
 -1      9366 9.60648E+04-2.39453E+05-8.15690E+03 4.97489E+03-1.51240E+04 3.54452E+03
 -1      9367 2.82019E+05-3.14840E+05 2.91755E+04-3.74663E+04-7.06335E+03-2.93838E+04
 -1      9368 1.03755E+05-4.62251E+05-6.05923E+04-5.74149E+04-9.39101E+03-1.40569E+04
 -1      9369-1.17819E+04-1.69922E+05 5.39613E+03-3.63260E+03-2.51522E+04 4.17241E+03
 -1      9370-1.65450E+05 2.11337E+02-1.87455E+04-6.65001E+04 2.04934E+03-4.87894E+03
 -1      9371-1.77784E+05-5.18184E+03-2.48743E+04-6.12848E+04 5.84218E+02-1.08372E+03
 -1      9372 1.84008E+03-6.29171E+04-1.94742E+03-1.40988E+05-3.67724E+03 1.60123E+03
 -1      9373 4.42460E+04-3.12158E+04 5.73750E+03-1.80691E+05-6.49216E+03 1.30745E+03
 -1      9374-3.14803E+02-2.43228E+03-4.27329E+01 1.29014E+03-2.83333E+00-2.63085E+01
 -1      9375-3.00642E+02-2.38218E+03-2.78758E+01 1.28115E+03 9.55393E+00 2.93967E+01
 -1      9376-9.20452E+02 9.88401E+04-1.33649E+03-1.07619E+05 7.00874E+02 9.71043E+02
 -1      9377 4.94820E+04 2.82429E+04 1.12294E+04-2.14845E+05-5.12685E+03-3.26999E+03
 -1      9378 2.55834E+05 1.49028E+05 1.05921E+05-3.12802E+05-3.36960E+04 1.06729E+04
 -1      9379 1.02384E+05 8.24015E+04 4.73398E+04-2.24819E+05-8.81575E+03 4.85649E+03
 -1      9380-3.84579E+04 1.88626E+05 3.31876E+02 7.29553E+03-4.21801E+02 5.46594E+01
 -1      9381-7.97004E+03 7.04179E+05 2.70784E+02 6.24295E+04 1.24489E+02-4.23583E+02
 -1      9382 6.61788E+04-2.59747E+05 7.84138E+02 8.92565E+03 9.55640E+02-4.54591E+02
 -1      9383 8.60051E+04-2.89259E+05 1.15957E+03 6.22696E+03 4.31027E+02-1.99683E+02
 -1      9384-1.25159E+05 2.04634E+05 2.19311E+03-6.42287E+04 3.36918E+03 4.80227E+03
 -1      9385-1.21942E+03-1.29815E+02-5.18192E+00 5.60030E+02 3.23639E-01 1.38017E+00
 -1      9386 8.94683E+04 4.60768E+05 2.87997E+04 1.00320E+05-1.76033E+05-4.85528E+04
 -1      9387 1.04853E+05 6.20347E+05-1.22176E+03 1.59033E+05-8.07655E+04-2.71343E+04
 -1      9388 2.61945E+04 4.48497E+05-4.33325E+04 4.40286E+04 6.36919E+04 4.30572E+03
 -1      9389 9.55202E+04 4.58920E+05 2.67601E+04 1.07585E+05 1.76067E+05 4.88178E+04
 -1      9390 8.75239E+04 5.97095E+05-5.38377E+03 1.50836E+05 8.30956E+04 2.75172E+04
 -1      9391 3.12945E+03-8.49988E+04 1.29199E+02-1.16020E+04-1.54958E+02-1.85695E+02
 -1      9392 1.02736E+04-1.05595E+05 2.21492E+02-1.18669E+04 3.26047E+02 3.06647E+01
 -1      9393 3.22484E+03-8.47371E+04 2.44771E+01-1.14856E+04 5.53401E+02 2.71048E+02
 -1      9394-1.74049E+04 2.02391E+05-1.49425E+04-1.13876E+05 1.14176E+04-8.36431E+03
 -1      9395-1.82514E+05 2.02697E+05 3.39085E+03-1.16379E+05 3.20624E+03 3.24086E+03
 -1      9396-1.89789E+05 1.81581E+05-5.24754E+03-1.04384E+05 2.19913E+03 3.41534E+03
 -1      9397-9.63979E+03 8.75418E+04-1.63568E+03-1.45868E+05-2.92895E+03 2.55985E+03
 -1      9398-1.44928E+04 1.88470E+05-9.23077E+03-1.15713E+05-5.55121E+03 3.01520E+03
 -1      9399 5.20433E+03-1.23849E+05-2.14572E+02 3.58537E+04 1.31870E+02 9.23834E+01
 -1      9400 3.71435E+05 1.23595E+04 9.59999E+04-3.31878E+05 8.86115E+03-1.84120E+04
 -1      9401 1.37163E+05-2.68537E+05-2.73728E+04-1.16384E+05 3.71776E+03-6.12474E+03
 -1      9402 2.18040E+04-1.30828E+05-7.36373E+02-5.26443E+04-8.83246E+01-4.24534E+02
 -1      9403-5.20242E+01-1.05479E+02-2.44340E+00 2.88413E+02 1.41843E+01-1.55896E+01
 -1      9404-4.84121E+04 1.89931E+04-1.43817E+04-2.42639E+04 1.56894E+03 4.25675E+02
 -1      9405-2.21796E+02-1.46835E+03 3.36721E+01 1.06247E+03-1.31442E+01 9.82690E+00
 -1      9406-8.77528E+03-1.01162E+05 3.23745E+02-3.91895E+04 9.63278E+02 5.76589E+02
 -1      9407-6.86968E+03-1.09240E+05 3.24155E+01-4.94788E+04 7.71547E+02 3.08952E+02
 -1      9408-2.56217E+02-1.13200E+05-1.11160E+02-5.09694E+04 2.62230E+02 8.54475E+01
 -1      9409 1.10894E+05 2.02455E+05-2.09604E+04 1.62609E+05 1.46308E+04 9.87851E+03
 -1      9410-3.08012E+04-1.67617E+05-2.82477E+04-8.33168E+04 7.01242E+04 5.17594E+04
 -1      9411-1.99124E+03-2.09439E+05 1.86165E+04-1.16352E+05 2.67427E+04 1.90847E+04
 -1      9412 1.37751E+05 2.64930E+04 8.71144E+03-8.58577E+04-5.55739E+02 2.58502E+03
 -1      9413 1.36533E+05-1.04632E+05-2.19542E+03-2.17040E+05 4.79430E+03-9.90594E+03
 -1      9414 2.30215E+05 9.48301E+04 9.22210E+04-2.97025E+05-1.31209E+03-2.92893E+03
 -1      9415-2.85354E+03 8.35908E+04 8.15701E+02-1.20120E+05 1.45808E+03 2.14383E+03
 -1      9416-9.38763E+02-3.69781E+02-2.95907E+01 5.62986E+02 1.63249E+00-6.60866E+00
 -1      9417-3.98656E+03 4.39875E+04-3.06194E+03-1.32600E+05 1.00649E+03 6.90806E+02
 -1      9418 2.22399E+04 1.41257E+05 4.51341E+03-1.03663E+05 4.55021E+01-4.08417E+02
 -1      9419 3.24056E+04 2.59676E+05 1.27441E+03 1.40181E+05 7.00897E+03 5.45709E+03
 -1      9420 8.50990E+04 2.00225E+05-1.39716E+04 1.43363E+05 5.58436E+03 3.84275E+03
 -1      9421-1.12535E+05 1.67372E+05 8.97428E+03-9.65041E+04 1.76711E+03 3.64658E+03
 -1      9422 5.93682E+04 1.35142E+05 2.32612E+03-1.06994E+05-9.72298E+01-2.35522E+03
 -1      9423 7.98518E+04 1.27984E+05 2.75475E+04-1.11283E+05 2.79054E+03-8.17129E+03
 -1      9424 5.65706E+04 1.25490E+05 1.88576E+04-1.10047E+05 2.81221E+03-1.01644E+04
 -1      9425 4.51584E+04 1.24889E+05 1.99545E+04-1.09287E+05 2.36533E+02-5.16798E+03
 -1      9426-1.15559E+03-2.47939E+04 2.32944E+01 1.13501E+04 2.38325E+01 9.56308E+01
 -1      9427-1.15447E+05-2.99218E+05 9.07161E+03 2.02115E+05-4.80124E+04 3.05741E+04
 -1      9428-1.15653E+05-2.99952E+05 8.53289E+03 2.02158E+05 4.87229E+04-3.08330E+04
 -1      9429 1.48831E+04 1.40723E+05-7.76624E+02 6.33252E+04 8.78959E+02 7.79453E+02
 -1      9430 8.68995E+04-3.02796E+05-8.98741E+01 9.16171E+01 2.85215E+02-9.42074E+02
 -1      9431 3.55586E+04 3.73148E+05 2.80011E+04-3.42487E+04-1.32784E+05 1.74640E+04
 -1      9432-9.97297E+03 1.41552E+06-5.53509E+01 2.93956E+04-5.97335E+02 7.10497E+01
 -1      9433-9.82233E+03 1.41631E+06-1.21853E+02 2.90256E+04 5.01139E+02 6.90582E+01
 -1      9434-4.93090E+04 1.84459E+04-1.58429E+04-2.29375E+04-1.43172E+03-7.62587E+02
 -1      9435-5.49495E+02-1.71108E+02-9.51593E+00 2.42710E+02-3.25801E+00-2.24965E+00
 -1      9436 4.41578E+03-8.52045E+04-3.10588E+02-1.03048E+03-5.92257E+01-1.05600E+02
 -1      9437 4.38675E+03-8.45733E+04 7.32401E+02 6.25295E+02 2.93674E+02 4.18077E+01
 -1      9438-1.74842E+01 1.67984E+01-1.09892E+01 1.35796E+01 4.75297E-01 3.45580E+00
 -1      9439 6.73892E+01 7.08531E+00 4.77347E+00 1.98110E+01-1.04068E+01-1.01959E+01
 -1      9440-5.76966E+01 3.93362E+01-4.75705E+01 3.04654E+01-8.18540E-01 6.79783E+00
 -1      9441-1.12229E+03-1.83935E+04-3.29253E+01 9.77373E+03-1.29341E+01-2.24345E+00
 -1      9442 1.47021E+05-2.05957E+04 4.95341E+03-4.14026E+04-4.13215E+03 1.71220E+03
 -1      9443-2.09526E+01 2.99332E+01-1.56237E+00-1.28005E+01-7.97828E-01 1.14879E+00
 -1      9444-1.03061E+01 1.49427E+01 6.60706E-01-1.09666E+01 3.72912E-01-1.41718E-01
 -1      9445 2.74454E+00 1.90199E+01 3.18949E+00-5.93407E+00 3.66063E+00-1.50604E+00
 -1      9446 7.60796E+04 2.31724E+06 4.22712E+03 1.69139E+05-7.92483E+02-4.19027E+03
 -1      9447 7.93775E+04 2.13405E+06 1.84603E+02 1.68557E+05-2.87138E+03-1.11088E+03
 -1      9448 1.22249E+05-1.05871E+05 2.28384E+03 1.16467E+03-1.71554E+03-2.60992E+03
 -1      9449 1.16371E+05-3.68452E+04 5.85166E+03-2.36821E+04-7.73764E+02 1.52321E+03
 -1      9450 1.35768E+05 2.44801E+05-1.46723E+04 1.98826E+05 5.68565E+04 4.08768E+04
 -1      9451 1.75736E+05 4.82388E+05-3.53136E+04 2.26605E+05 7.58917E+04 4.45376E+04
 -1      9452-2.70661E+04-1.15278E+05 1.79753E+03 6.59214E+04 9.54875E+02 1.64316E+02
 -1      9453 1.47824E+05-1.93760E+04-1.16866E+03-3.67526E+04 1.98956E+03-8.28608E+02
 -1      9454 4.65701E+04 4.04504E+05-2.87217E+04 1.42227E+05 5.22392E+04 9.17427E+03
 -1      9455 7.60497E+04 2.31891E+06 4.15165E+03 1.69827E+05 1.10445E+03 4.23338E+03
 -1      9456 7.93097E+04 2.13464E+06-7.41535E+02 1.69310E+05 2.32688E+03 1.33723E+03
 -1      9457-5.07860E+04-1.82107E+04-1.58577E+03-1.33201E+05-3.08216E+03 8.16293E+02
 -1      9458-9.93246E+03 8.56680E+04-2.90489E+03-1.45579E+05 2.80346E+03-3.64303E+03
 -1      9459 2.59099E+01 2.37071E+02 1.07479E+01 1.42941E+01 1.98469E+01 1.52712E+00
 -1      9460-9.49543E+01-1.09228E+02-1.57097E+01-6.33781E+00 1.04797E+01-1.63387E+01
 -1      9461 2.01545E+01 2.30448E+02 1.87920E+01 1.50577E+01-2.07219E+01-2.69307E+00
 -1      9462-8.98565E+01-1.00909E+02-1.85824E+01-3.42625E+00-9.20576E+00 1.62672E+01
 -1      9463 1.51318E+04 1.69284E+05-6.71033E+02-7.05142E+04 4.52470E+02-8.92449E+02
 -1      9464-4.20887E+03 1.78178E+05-7.38239E+02-5.46733E+04 3.40860E+02-3.52927E+02
 -1      9465-8.35251E+03 1.75643E+05-3.80679E+02-6.13147E+04 6.00092E+00 6.19239E+01
 -1      9466-4.59524E+03 1.78268E+05-8.00596E+02-5.47121E+04-4.88409E+02 4.85597E+02
 -1      9467 1.50586E+04 1.69342E+05-7.61107E+02-7.03587E+04-7.42812E+02 1.02686E+03
 -1      9468 7.14138E+04-3.19747E+05 1.69808E+03 7.64415E+04-1.13989E+03 4.43419E+02
 -1      9469-1.46063E+04 1.86229E+05-9.47830E+03-1.15730E+05 5.40136E+03-3.18258E+03
 -1      9470 1.88320E+01 2.80043E+02 9.61236E+00 3.10939E+01 1.21069E+01-1.72296E-01
 -1      9471 4.50650E+01 2.06174E+02 2.00402E+01 2.72590E+01 1.72069E+01-4.50956E+00
 -1      9472 1.61399E+01 2.25826E+02 8.32123E+00-3.25115E+01 1.29350E+01-7.79309E+00
 -1      9473 1.90082E+01 2.80275E+02 9.50500E+00 3.13551E+01-1.20231E+01 3.16443E-01
 -1      9474 1.64335E+01 2.26471E+02 8.27826E+00-3.19619E+01-1.28542E+01 7.73571E+00
 -1      9475 4.42356E+01 2.05722E+02 1.94469E+01 2.76613E+01-1.70586E+01 4.75450E+00
 -1      9476-1.81430E+05-1.01814E+04-4.01099E+03-6.20981E+04 1.27233E+03-2.66317E+03
 -1      9477-1.16654E+05-5.93164E+04 7.90695E+02-9.47870E+04-3.48716E+02-6.17973E+02
 -1      9478-1.33002E+05-3.74135E+04 8.52065E+02-9.12466E+04-2.61206E+02-1.54527E+03
 -1      9479-1.15633E+05-1.10081E+04-1.73553E+03-9.89276E+04-1.45788E+03-6.46848E+02
 -1      9480 1.53835E+05 6.49673E+05-2.04491E+04 2.15446E+05 9.85338E+04 5.05545E+04
 -1      9481 7.11764E+04 4.43202E+05-3.12412E+04 1.26723E+05 7.30041E+04 6.95162E+03
 -1      9482 1.30306E+05 3.94017E+05 2.73864E+04 1.80535E+05 1.74056E+05 8.65584E+04
 -1      9483 1.69140E+05 8.66175E+05 7.32342E+04 2.94765E+05 9.24272E+04 6.48902E+04
 -1      9484-7.62070E+04 1.44310E+05 6.24200E+03-1.12477E+05 3.54338E+02 3.91244E+03
 -1      9485-1.40765E+03 4.20088E+04 1.10691E+04-1.65371E+05-6.30923E+03-1.88098E+03
 -1      9486 2.28650E+04 5.63372E+04 1.81145E+04-1.90622E+05-6.51682E+02-5.03389E+03
 -1      9487-1.52460E+05 1.19564E+04-1.02781E+04-6.92692E+04-1.26860E+03 5.01290E+03
 -1      9488-1.33265E+05 7.78109E+03-7.89371E+03-8.24158E+04-4.93208E+02 2.69334E+03
 -1      9489-1.39555E+05-5.29093E+03-4.60038E+03-8.58197E+04-2.05030E+03 1.76131E+03
 -1      9490 1.59613E+01-1.56813E+02 2.15701E+01 1.42663E+02 2.05110E+01 1.41618E+01
 -1      9491 1.04087E+01-1.62762E+02 1.44082E+01 1.43364E+02-1.56419E+01-7.83874E+00
 -1      9492-3.26385E+01 1.59015E+02 1.11678E+01 1.52381E+02 3.80246E+00 5.65905E+00
 -1      9493-1.98891E+04-1.08565E+05-4.19609E+02-6.47006E+04 7.74809E+02 2.93329E+02
 -1      9494 1.00601E+05 1.74452E+05-1.31512E+04 1.49943E+05 1.19422E+04 1.77853E+04
 -1      9495 9.40498E+04 1.70560E+05-1.00193E+04 1.36583E+05 2.47035E+03 5.85753E+03
 -1      9496 1.00146E+05 1.76765E+05-1.14272E+04 1.49715E+05-1.14811E+04-1.67442E+04
 -1      9497-8.22039E+03 1.79655E+05-5.24841E+02-4.55941E+04 2.42696E+02-2.65350E+02
 -1      9498-1.31581E+04 1.78774E+05 2.87228E+02-5.05037E+04-4.47443E+01 4.08704E+01
 -1      9499-1.25214E+04 1.80374E+05-1.06844E+02-3.73601E+04-4.36946E+02 1.97683E+02
 -1      9500-8.72235E+03 1.79808E+05-5.95090E+02-4.54720E+04-5.76145E+02 3.66351E+02
 -1      9501 4.24554E+01-2.03767E+01 2.29775E+00-9.17037E+01 1.19435E+01-9.25737E+00
 -1      9502-2.46450E+01 7.73294E+00 3.30258E+00-8.65938E+01 1.71923E+01-4.82833E+00
 -1      9503-9.62597E+00 1.46229E+02 5.67127E+00-2.84046E+01 9.64171E-01 6.61195E-01
 -1      9504-4.60896E+00-5.02215E+01 1.45211E-01-9.00293E+01 4.14527E+00-1.04292E+00
 -1      9505 4.32629E+01-1.92675E+01 2.50973E+00-9.11345E+01-1.17826E+01 8.45625E+00
 -1      9506-2.30211E+01 1.13990E+01 1.62333E-01-8.60040E+01-1.61576E+01 5.67102E+00
 -1      9507-4.33240E+00-5.00951E+01-6.86352E-01-9.06613E+01-3.06887E+00 1.45034E+00
 -1      9508-1.34482E+04-1.10166E+05-4.92496E+02-5.73861E+04 7.29517E+02 3.60638E+02
 -1      9509-7.09396E+03-1.12817E+05-2.62919E+02-5.84443E+04 1.50698E+02 1.77080E+02
 -1      9510-6.62908E+04-3.27534E+05-4.19826E+04-4.76124E+04 1.24343E+05 1.94425E+04
 -1      9511 1.88400E+01-3.00781E+01-1.56729E+01-1.14302E+02-3.94627E-01 3.99924E+00
 -1      9512 1.42484E+01-3.05539E+01-1.01222E+01-1.14604E+02-2.34114E+00 5.83952E-01
 -1      9513 3.57621E+04-2.03138E+05-3.78577E+02 3.20328E+04 4.55014E+02 7.21317E+01
 -1      9514 2.90830E+04 2.20730E+05-1.07813E+02 1.26222E+05 1.47566E+03 1.43991E+03
 -1      9515-9.73970E+04-1.99694E+06-8.49758E+02 1.43272E+05-7.05649E+02 4.38845E+03
 -1      9516-9.27641E+04-2.00246E+06 1.65443E+03 1.37064E+05-1.26373E+03-3.62586E+03
 -1      9517-6.67082E+04-1.93170E+06 5.98587E+03 1.25807E+05 2.39625E+03 1.72957E+03
 -1      9518 1.26282E+04-1.25914E+05 1.63151E+03-1.22755E+05 4.41826E+03 2.55752E+03
 -1      9519-7.45302E+03-1.09395E+05-4.33833E+01-5.00005E+04-4.00972E+02-1.91525E+02
 -1      9520-8.43204E+03-1.01630E+05 2.33906E+02-3.97028E+04-6.27522E+02-2.56023E+02
 -1      9521 2.05965E+04-1.31100E+05-9.91304E+02-5.34035E+04 1.11587E+02 5.17857E+02
 -1      9522-1.46005E+03-1.89957E+04 4.99425E+01 1.20860E+04 5.59754E+00 2.13908E+01
 -1      9523-1.89044E+03-1.84166E+04-1.21237E+01 1.33792E+04 9.68589E+00 8.27400E-01
 -1      9524-1.85802E+03-1.82130E+04-9.01560E+01 1.31715E+04 5.98928E+01 3.86004E+01
 -1      9525-3.26481E+03-8.93678E+03 1.63684E+02 1.49082E+04 1.35649E+01 1.58853E+01
 -1      9526-2.82163E+03-1.01480E+04 1.04521E+02 1.40535E+04-6.43804E+01-4.00973E+01
 -1      9527 8.29927E+04-2.66730E+04-1.54514E+03-2.41984E+05-9.22941E+02-2.32587E+03
 -1      9528 3.65240E+05 1.26223E+04 9.89673E+04-3.42148E+05-1.06506E+04 1.13088E+04
 -1      9529 1.67430E+05-2.50555E+05-1.68151E+04-1.45163E+05-1.56383E+04 1.30422E+04
 -1      9530 1.00246E+05-1.48487E+05-1.43103E+04-1.71861E+05 1.17934E+04-3.58361E+03
 -1      9531 4.77590E+02-3.59004E+04 8.58823E+02-1.48570E+05 2.59617E+03 2.10220E+03
 -1      9532-1.19345E+04 1.45450E+05-4.78861E+02-2.92578E+04-4.59818E+02-7.16297E+02
 -1      9533 2.65923E+04 1.18846E+05 8.18091E+03-1.09619E+05-1.56807E+03 4.86126E+03
 -1      9534 5.65375E+04 1.34587E+05-5.35907E+03-1.05796E+05 1.60697E+03-5.49621E+02
 -1      9535 2.19069E+04 1.41189E+05 3.22175E+03-1.03323E+05 3.23135E+02 1.33947E+02
 -1      9536 1.37983E+05 2.83007E+05-8.83898E+03 1.91668E+05 8.10275E+04 4.01882E+04
 -1      9537 8.68456E+03 1.75938E+04-3.22314E+03-7.06379E+04 2.95909E+03 7.61253E+03
 -1      9538 2.79903E+04 1.63869E+04-9.18046E+02-7.47088E+04 1.25480E+02 6.35546E+03
 -1      9539 1.36764E+04-5.55337E+05 1.12420E+03 6.72762E+04-2.57324E+04-8.27716E+02
 -1      9540 1.25153E+05-2.07449E+05-1.48828E+03 4.16163E+04 1.66940E+03 4.22423E+03
 -1      9541 1.38769E+05-6.96618E+04 1.92570E+04-2.05565E+05-8.63276E+03 6.65251E+03
 -1      9542 4.16721E+04 2.35929E+05-1.98954E+03 1.33620E+05-1.97704E+04-9.66202E+03
 -1      9543-8.45207E+04 3.85167E+05 8.20088E+03 8.66235E+04-8.33113E+03 1.34119E+03
 -1      9544-1.00602E+04 8.39323E+04-4.06426E+01 5.69325E+03 1.22025E+02-8.35233E+01
 -1      9545-1.00023E+04 8.40080E+04-2.05211E+02 5.53954E+03-1.51329E+02 4.25763E+01
 -1      9546 3.74231E+04-3.31291E+05 1.28919E+03 1.02017E+05-9.17758E+03 2.85222E+03
 -1      9547 9.20249E+04-1.04025E+05 2.55575E+03 2.60109E+04 5.55375E+03-1.00408E+04
 -1      9548-1.77838E+05-6.83721E+03-2.16007E+04-6.26339E+04-1.71665E+03 1.61628E+03
 -1      9549-1.27830E+02-1.48043E+06-6.75989E+02 2.43234E+04-6.19887E+02 2.10972E+01
 -1      9550 9.21811E+04-3.11311E+05 2.67769E+03 5.22654E+04 9.41217E+02-9.45477E+02
 -1      9551 5.57008E+04 1.24361E+05 1.62011E+04-1.08817E+05-2.52467E+03 8.04953E+03
 -1      9552 6.79115E+00 3.08189E+01-1.27328E+00 1.69291E+01 3.89592E+00 9.74063E-01
 -1      9553 9.59796E+00-3.28131E+01 2.62375E+00 2.33114E-01-7.53670E+00-2.48918E+00
 -1      9554 9.61808E+00-2.48224E+00 2.31614E+00 7.38054E+00-1.48789E+00-4.84563E-01
 -1      9555 2.78062E+00 2.42327E+00-7.61638E-01 1.05855E+01-2.48363E+00-4.77296E-01
 -1      9556-6.16061E+00-6.68592E+01 1.70853E+00-1.09143E+01-9.85896E+00-1.84091E+00
 -1      9557 2.38150E+00-2.88559E+01 8.61142E-01 8.21496E+00-2.43878E+00 1.19465E+00
 -1      9558 2.80970E+04 1.61412E+05-1.61727E+03-8.42254E+04-1.08522E+03 8.13333E+02
 -1      9559 3.57692E+04 1.49759E+05-1.09484E+03-9.43829E+04-1.09003E+03 1.18838E+03
 -1      9560 3.03184E+04 1.55049E+05 1.73030E+03-9.35611E+04 3.93740E+02-8.18224E+01
 -1      9561-6.18932E+02-1.46264E+05-4.57518E+01 1.62389E+04-1.09416E+02 1.84264E+01
 -1      9562-4.97507E+02-1.52845E+05 2.60298E+02 1.60731E+04 3.53891E+01-8.87255E+00
 -1      9563-8.48673E+02-1.39732E+05-3.49530E+02 1.57455E+04 2.03760E+01-2.52427E+01
 -1      9564-6.11410E+02-1.46224E+05-2.87767E+01 1.62537E+04 1.12231E+02-2.01540E+01
 -1      9565-1.55733E+02-6.46355E+04-2.46821E+02 5.30517E+03 1.68292E+02-5.67397E+00
 -1      9566 6.17933E+03 1.19560E+05 1.71364E+04-1.11309E+05 2.38928E+03-8.84170E+03
 -1      9567 1.38009E+04 1.26461E+05 1.92681E+04-1.08455E+05 9.73241E+02-3.04592E+03
 -1      9568-1.00473E+04 2.36098E+05-3.26236E+02 8.96305E+03-1.70314E+02-9.51578E+01
 -1      9569-1.00158E+04 2.35839E+05 1.99246E+01 9.14324E+03 1.84931E+02-1.30279E+02
 -1      9570-1.39312E-01 9.71589E+01-1.80017E+00-1.21670E+01-2.48355E+00 1.62241E+00
 -1      9571-2.13433E+00 1.86131E+01 4.68412E+00 4.19134E+00 8.34763E-01 2.80548E+00
 -1      9572-5.71747E+00-6.35557E+01 2.86584E+00 4.27188E+01 1.48045E+00-7.82583E-01
 -1      9573-6.91388E+00-1.14372E+02-6.75579E+00 4.06640E+01-9.78647E+00 1.68586E+00
 -1      9574-1.33732E+01-1.61605E+02 9.97096E+00 4.39258E+01-3.02603E+00 3.43160E+00
 -1      9575 1.97119E+00-3.14718E+00 2.23859E+00 4.69947E+00 3.12836E+00 9.92583E-01
 -1      9576 6.20493E+02-1.14117E+05-9.75696E+02 3.01648E+04-1.97348E+02-3.10564E+02
 -1      9577 1.75541E+03-1.28561E+05-5.08907E+02 4.22105E+04 6.85182E+02 1.21932E+02
 -1      9578-5.90129E+00-6.33603E+01 2.80828E+00 4.29628E+01-2.04106E+00 1.03984E+00
 -1      9579-6.43521E+00-1.14500E+02-6.61857E+00 4.08047E+01 9.73288E+00-1.87779E+00
 -1      9580-1.37625E+01-1.62134E+02 1.01389E+01 4.42602E+01 2.63619E+00-3.09573E+00
 -1      9581-3.29471E+00 1.71509E+01 3.93740E+00 4.40068E+00-1.80977E+00-3.05091E+00
 -1      9582 2.47695E+00-3.83935E+00 2.43029E+00 4.48734E+00-3.33884E+00-1.31859E+00
 -1      9583 3.60522E-01 9.68048E+01-1.65095E+00-1.26002E+01 2.47562E+00-2.01015E+00
 -1      9584-9.81704E+04 4.23927E+03-1.53627E+03-1.09035E+05-2.61154E+03 7.53937E+02
 -1      9585-2.05454E+04-1.08946E+05-4.12787E+02-6.51139E+04-4.72421E+02-9.42487E+01
 -1      9586-4.10455E+04-1.88271E+06-2.13977E+03 6.39073E+04 4.89979E+02-2.21677E+02
 -1      9587 1.00719E+05-2.78505E+05-1.25710E+03 4.10192E+04 1.51433E+02-2.77028E+02
 -1      9588-1.40190E+04-1.10418E+05-4.90939E+02-5.78379E+04-3.71412E+02-1.62440E+02
 -1      9589 5.45522E+02-9.28465E+05 2.59763E+02 1.80011E+04 4.04148E+02 1.96406E+02
 -1      9590-2.34826E+02-9.29404E+05 3.78360E+02 1.75189E+04-3.85989E+02 2.07720E+02
 -1      9591-7.15388E+00 6.98654E+00-2.18673E+01 5.64616E+00-1.31855E+00-1.59382E+00
 -1      9592-4.06224E+00-7.06872E+00-1.35216E+01 1.69559E+00-2.98348E+00-6.47428E-01
 -1      9593-4.63677E+03 1.58582E+05-2.84793E+02 3.09414E+04-2.75702E+02-2.63538E+02
 -1      9594 5.51593E-01-4.17118E+01 5.41738E+00 9.59025E+00-1.01289E+01 1.58428E+00
 -1      9595 3.35597E+00-2.03835E+01-5.73321E-01-7.62692E+00-3.34584E+00 6.09186E-01
 -1      9596 8.91496E+00-2.03966E+01 4.65777E+00-2.25068E-01-6.98774E+00 1.94866E+00
 -1      9597 5.58343E+00-1.04449E+01 2.34378E-01-8.35784E+00-2.05993E+00-4.93623E-01
 -1      9598 5.21335E+00 2.52788E+01-1.36148E+00-1.96017E+01 3.22012E+00 8.94797E-02
 -1      9599 3.36592E+00 5.38932E+00-1.24401E+00-1.26562E+01-3.22879E+00 2.15220E+00
 -1      9600-1.41724E+05-3.02897E+04 1.14408E+03-8.74302E+04 9.98210E+01 1.11676E+03
 -1      9601-1.30489E+05-2.71850E+04-1.33991E+03-9.32372E+04-4.33949E+02-1.71904E+02
 -1      9602 6.42948E+03 1.47998E+05-2.94293E+02 5.27990E+04-8.34795E+02-3.63718E+01
 -1      9603 1.79303E+03 1.49669E+05 3.71438E+01 4.30370E+04-8.55090E+02 3.67511E+01
 -1      9604-1.01072E+03 1.57121E+05 6.69169E+02 4.95413E+04 7.61750E+01-9.42102E+01
 -1      9605-1.74057E+04 1.74465E+05-2.17352E+02 1.87236E+04 3.97694E+02 7.79580E+00
 -1      9606-2.16699E+04 1.76520E+05 1.06875E+02 9.27535E+03-1.98881E+02 4.84976E+01
 -1      9607-1.38793E+02-8.93290E+03 6.72748E+01 1.62917E+03 4.00442E+01 3.77243E+01
 -1      9608 2.25340E+04 1.18037E+05 7.40035E+03-1.10277E+05 1.64198E+03-4.77926E+03
 -1      9609-9.78803E+03 2.54085E+04 1.59171E+00 3.22398E+03 8.08154E+01-1.86486E+01
 -1      9610-9.92263E+03 2.53144E+04 1.36446E+01 3.16084E+03-7.24140E+01 3.55934E+01
 -1      9611 2.97569E+03-7.77250E+04 2.86075E+01 6.51776E+03-4.66076E+01 4.90966E+01
 -1      9612 3.52297E+03-8.56464E+04-2.56960E+02 4.05497E+03 2.35872E+02-9.44053E+01
 -1      9613 1.37259E+05-5.89938E+04 1.13109E+04-1.41226E+04-3.28246E+02-1.75635E+03
 -1      9614-2.43100E+01 2.63603E+01-5.57356E+00 1.62759E+01 9.37895E+00 3.36531E+00
 -1      9615 1.11951E+00 3.58155E+01-4.07934E+00 1.08613E+01 2.29908E+01 4.87367E+00
 -1      9616-1.53233E+01 3.57588E+01-6.49562E+00 1.61348E+01-2.61270E+01-8.36649E+00
 -1      9617-2.45655E+01 2.39413E+01-4.85674E-01 1.70152E+01-8.56406E+00-4.73752E+00
 -1      9618-1.35968E+01-1.43974E+02 1.08511E+01-3.93310E+01-4.38064E+00-3.19390E+00
 -1      9619-3.17460E+00-5.30843E+01 2.85722E+00-3.88895E+01 6.75109E-01 1.16009E+00
 -1      9620-8.80819E+00-9.83115E+01-6.21214E-01-3.49255E+01-9.21987E+00-2.40735E+00
 -1      9621-4.62974E-01-9.54131E+00 9.14343E-02-6.65694E+00-8.67227E-01-2.15309E+00
 -1      9622-3.95027E-01 9.54917E+01-1.48423E+00 8.78837E+00-3.60065E-01-4.91119E-01
 -1      9623-3.97088E+00 3.39394E+00-2.96479E-01-5.16800E+00-1.64701E+00-1.54806E+00
 -1      9624-8.63847E+00 1.96657E+01 3.56874E-01-1.03329E+01 1.11993E+01-9.68262E-01
 -1      9625-2.14550E+01 1.90449E+01 4.70104E+00-1.71438E+01 7.43212E+00-4.14572E+00
 -1      9626-2.07753E+01 1.99407E+01 2.61801E+00-1.72723E+01-7.14890E+00 2.45769E+00
 -1      9627-9.76124E+00 1.28649E+01-2.22030E+00-1.09021E+01-1.71031E+00-1.90564E-01
 -1      9628-7.60371E+00 1.79262E+01 1.17788E+00-9.78904E+00-1.02550E+01 1.50221E+00
 -1      9629-1.84891E+01 2.51566E+02-6.76021E-01 2.03922E+01 1.88889E+01-5.89581E+00
 -1      9630-4.97274E+01 2.23329E+02-3.31022E+00-6.33947E+00 2.19284E+01-3.08781E+00
 -1      9631-1.40280E+02-1.49125E+05 2.69358E+01 6.69951E+03-1.83620E+02 5.28457E+01
 -1      9632 5.68816E+01-1.48891E+05-3.74885E+01 6.83080E+03 1.74792E+02 9.76964E+00
 -1      9633 2.40930E+01-4.57741E+05 7.72889E+02 1.17903E+04 4.08892E+02 9.13992E+01
 -1      9634 5.40311E+01-3.36026E+05 4.96129E+02 1.00233E+04 2.74925E+02 1.28833E+02
 -1      9635-1.94084E+01 4.41225E+00-7.45820E+00 1.50574E+01 7.56990E+00 5.72412E-01
 -1      9636-1.92903E+01 5.62873E+00-5.98117E+00 1.41966E+01-7.80883E+00-1.03345E+00
 -1      9637-1.60164E+01 2.51339E+02 4.44352E-01 2.03981E+01-1.97259E+01 4.66372E+00
 -1      9638-4.95701E+01 2.25796E+02-6.24085E+00-5.85142E+00-1.87209E+01 4.53574E+00
 -1      9639-5.90590E+00-1.94485E-03-4.13042E-01-5.27034E+00 1.56814E-01 3.33005E-01
 -1      9640 6.22516E+00 2.29928E+01-6.01933E-01-1.69041E+01-2.67612E+00 4.89536E-01
 -1      9641 6.55045E+00-2.46937E+01 1.61487E+00-2.85272E+00 5.85265E+00-2.97611E+00
 -1      9642 7.21160E+00-2.57810E+00 3.57775E+00-6.67523E+00 1.40581E-02-8.35571E-01
 -1      9643 3.42317E+00 3.89379E+00-5.82522E-01-1.08906E+01 2.30575E+00-1.01105E+00
 -1      9644-1.91200E-01-4.51212E+01 3.11446E+00 6.30148E+00 8.53133E+00-1.51555E+00
 -1      9645 3.66584E+00-1.75162E+01-3.39966E-01-9.96753E+00 3.11800E+00 4.68171E-01
 -1      9646-1.40554E+04 1.15771E+05 1.21405E+04-1.14982E+05-1.79416E+03 5.52893E+03
 -1      9647-1.83950E+01 3.36364E+00 1.46704E+00-1.55654E+01 6.01117E+00-2.67588E+00
 -1      9648-1.66731E+01 3.95506E+00 1.42888E+00-1.55260E+01-6.12668E+00 2.44701E+00
 -1      9649-1.38902E+02-1.24520E+05-2.03699E+02 6.51768E+03-1.90461E+02-4.47147E+00
 -1      9650-1.46868E+04 1.74307E+05-1.65276E+02 1.18308E+03 4.16818E+02 1.93938E+01
 -1      9651 7.95302E+04-1.67140E+05 7.10343E+03 4.08001E+04-6.41800E+03 6.00968E+03
 -1      9652-3.42408E+01-2.02555E+05-1.81555E+02 8.28852E+03-2.24804E+02-3.47231E+01
 -1      9653-5.83143E+00-3.69024E+04-1.21556E+01 3.24427E+03 1.00209E+02 2.23759E+01
 -1      9654-1.23105E+02-3.69513E+04 3.77340E+01 3.18982E+03-1.27504E+02 1.02504E+01
 -1      9655-9.81679E+03 6.57226E+04 2.51666E+02 5.39584E+03-1.91368E+02 3.70379E+00
 -1      9656-3.23278E+03-1.07861E+05 1.63635E+02 3.66270E+04-5.32589E+02-2.02143E+01
 -1      9657 3.42575E+04 3.79678E+05 2.74457E+04-3.47366E+04 1.34252E+05-1.56837E+04
 -1      9658-9.77322E+03 3.02322E+05-3.03937E+01 1.08802E+04-3.61571E+02-1.01519E+02
 -1      9659-9.78125E+03 3.02296E+05 2.61369E+02 1.07255E+04 1.91202E+02-1.94601E+01
 -1      9660 2.86118E+05 8.33474E+05 7.99530E+04 4.27388E+05 1.18702E+05 6.89065E+04
 -1      9661 2.61252E+05 8.37816E+05 7.49161E+04 4.40047E+05 7.38985E+04 4.01431E+04
 -1      9662 1.78079E+05 5.78028E+05-4.30719E+04 2.91138E+05 3.55189E+04 1.75843E+04
 -1      9663-9.80646E+03 4.24190E+05 6.30951E+02 1.16231E+04 4.52667E+02 6.20341E+01
 -1      9664-1.00838E+04 4.68766E+05-4.47834E+02 1.15527E+04-2.92806E+02-1.03047E+02
 -1      9665-1.02350E+04 4.68487E+05-5.42370E+01 1.16849E+04 2.74732E+02-2.02634E+02
 -1      9666-9.82440E+03 5.61158E+05 5.06923E+02 1.34044E+04 3.49765E+02 6.55666E+01
 -1      9667-4.35930E+04 1.54797E+04-7.47614E+03-1.40549E+05-3.92799E+03 9.08505E+02
 -1      9668 8.87561E+04 1.20451E+05 3.98560E+04-1.11311E+05-6.05326E+03 1.25197E+04
 -1      9669 7.73394E+04 1.21904E+05 3.56689E+04-1.11352E+05-3.41456E+03 4.41164E+03
 -1      9670 5.72693E+04-3.02530E+05 3.76411E+04 1.94640E+04-9.35290E+03-2.75334E+03
 -1      9671 2.28499E+00 3.74985E+01-2.27185E+00 2.11974E+01 1.34062E+00 2.21242E+00
 -1      9672 8.14707E+00 1.05416E+01 6.79936E+00 1.07903E+01-1.03772E+00 2.74590E+00
 -1      9673-5.07761E+04-9.42308E+04 1.55944E+02-8.80014E+04 3.90554E+01-9.03690E+01
 -1      9674-4.06387E+04-8.76363E+04-4.61945E+02-9.66231E+04-9.67676E+01 2.95856E+02
 -1      9675-5.01911E+04-9.38988E+04 7.98699E+01-8.74772E+04 1.18436E+02 3.22401E+02
 -1      9676 1.25055E+05-1.24380E+05 4.88974E+02 2.09749E+04-1.34425E+03 2.68050E+03
 -1      9677 1.37759E+02-1.08278E+02 3.89015E+01 2.61659E+02-4.21820E+01-3.55536E+01
 -1      9678 2.04820E+01 4.06324E+02 1.39977E+01 2.19454E+02-9.35311E+01-1.55501E+01
 -1      9679-1.54344E+02-4.61160E+02-7.34817E+01 1.75100E+02-5.44299E+01 1.27941E+01
 -1      9680 9.54401E+04-1.29839E+05 4.00023E+03 1.60563E+04-2.85028E+03 5.10014E+03
 -1      9681 4.59563E+04-3.07422E+04-2.44681E+02-1.83045E+05 6.55310E+03-2.96550E+03
 -1      9682-1.37071E+04 1.77398E+05 4.87050E+01-6.45845E+03 3.80881E+02-1.38178E+02
 -1      9683-2.16810E+04 1.79029E+05-5.09930E+01 5.32589E+02-1.02740E+02 1.73713E+02
 -1      9684 2.09459E+01 4.09224E+02 1.52699E+01 2.14452E+02 9.53742E+01 1.79577E+01
 -1      9685 1.31985E+02-1.08868E+02 3.26290E+01 2.62461E+02 4.04655E+01 3.98002E+01
 -1      9686-1.49483E+02-4.67880E+02-6.07303E+01 1.67042E+02 5.60415E+01 6.17357E-01
 -1      9687-1.93811E+04 1.74183E+05 4.56174E+02 1.84716E+04-4.38896E+02-2.35765E+01
 -1      9688 1.06901E+04 1.43895E+05-2.73851E+02 5.73408E+04-1.00648E+03-1.94037E+02
 -1      9689 4.74952E+03 1.56396E+05 1.96866E+03 5.54740E+04 8.74799E+01-1.42999E+02
 -1      9690 2.23230E+01-1.00800E+01-1.81357E+01 8.34430E+00-6.43665E+00-2.65272E+00
 -1      9691 2.42769E+01-1.40110E+01-2.02516E+01 5.52050E+00 7.29481E+00 7.79125E+00
 -1      9692-2.43546E+03-1.57662E+04-1.17479E+01 1.55442E+04 5.74739E+01-7.18554E+01
 -1      9693 3.31551E+01-4.76424E+01 2.49871E+00-4.98250E+01 1.03673E+01-8.38155E+00
 -1      9694 3.35306E+01-4.95258E+01 1.32172E-01-4.90676E+01-1.14157E+01 7.29309E+00
 -1      9695 9.48577E+04-2.84968E+05 4.22383E+02 3.11230E+04 6.06831E+02 4.95151E+02
 -1      9696-5.50862E+00-6.25659E+01 3.93668E+00-1.09307E+01 9.43128E+00 2.48969E+00
 -1      9697 2.16518E+00-2.87630E+01-5.65080E-01 7.50676E+00 2.36504E+00-3.89667E-01
 -1      9698 5.23457E+00-3.10702E+01 1.87989E+00-8.07538E-01 7.32138E+00 3.05958E+00
 -1      9699 7.51325E+00-5.39060E+00 2.40144E+00 4.47845E+00 2.24544E+00 6.86904E-02
 -1      9700 8.19265E+00 3.03999E+01-7.74835E-01 1.82207E+01-2.90592E+00-5.28123E-01
 -1      9701 4.02356E+00 1.18139E+00-9.00106E-01 1.02649E+01 2.79016E+00 1.80313E-02
 -1      9702-1.88768E+05-6.38008E+03-3.54578E+04-5.21308E+04-2.13211E+03 1.21266E+04
 -1      9703-1.87023E+05-1.17616E+04-2.32398E+04-5.86074E+04-3.02386E+03 7.46324E+03
 -1      9704-1.81330E+05-4.76751E+03-3.40348E+04-5.70259E+04 4.76828E+02 4.42251E+03
 -1      9705-7.92845E+04-2.22109E+06-9.05515E+03 1.46015E+05-5.92522E+03 5.64519E+03
 -1      9706-7.79007E+04-1.54990E+06 6.89648E+03 9.63479E+04 1.93133E+03 5.24174E+03
 -1      9707-7.58791E+04-2.21399E+06-2.72839E+03 1.46635E+05 4.72137E+03-3.56877E+03
 -1      9708-7.85112E+04-1.54889E+06 7.43394E+03 9.43504E+04-1.61336E+03-5.56507E+03
 -1      9709-9.82507E+04-6.12060E+05-5.57372E+04-4.09666E+04-2.04643E+04 1.29716E+04
 -1      9710 4.13040E+04 1.70297E+05-1.50812E+03 1.07310E+05 2.13792E+01 7.36979E+02
 -1      9711-1.16542E+05 2.10028E+04-1.09365E+04-8.78095E+04 2.60110E+03-5.45129E+03
 -1      9712-8.00121E+04 4.83034E+04 3.29379E+03-1.11059E+05-4.69859E+02-3.55004E+02
 -1      9713 1.18268E+05-1.10493E+05 7.38652E+03-2.00928E+03-1.43693E+03 1.68878E+02
 -1      9714-1.00197E+05-2.12578E+06-8.37917E+03 1.97698E+05 5.39958E+03 4.56060E+03
 -1      9715 7.90676E+03 8.03967E+04-1.65396E+02-1.00679E+05 5.41969E+02 4.25810E+02
 -1      9716 5.27613E+04 3.59780E+05 1.54588E+04 1.94588E+05-1.33915E+04-6.94644E+03
 -1      9717 3.04412E+03 4.04507E+05 4.02967E+04 1.71412E+05-4.04330E+03-5.10315E+02
 -1      9718 7.71830E+00-1.31784E+01-1.10527E-01 3.10057E+00 3.58610E+00-6.33357E-01
 -1      9719 1.69285E+01-4.30267E+00 2.22885E-01 1.65462E+00-2.58365E+00 8.65408E-01
 -1      9720 9.70099E+00-2.43001E+00 1.49024E+00-3.03971E+00-8.17167E-01 2.03129E+00
 -1      9721-1.10436E-01-1.54770E+01-5.98469E-01 6.20868E+00 1.20986E+00-7.81898E-01
 -1      9722 2.35401E+01 2.37059E-01-9.72987E-01-1.44097E+01-1.01291E+00 2.08761E+00
 -1      9723 2.58337E+01 3.94910E+00-3.12686E-01-1.32343E+01-1.71528E+00 2.10838E+00
 -1      9724 1.83282E+00-1.24315E+01-3.72690E-01 5.69031E+00 1.46866E+00-8.97038E-01
 -1      9725 5.47703E+03 8.06870E+04-1.50291E+03-8.32484E+04 1.09817E+03 1.37643E+03
 -1      9726 6.80027E-01 1.11783E+02 2.72656E+00 6.73787E+00 8.14407E-02 7.19441E-01
 -1      9727-1.36082E+01-1.16162E+02-3.86099E+00-3.83398E+01 8.50657E+00 2.62279E-01
 -1      9728-9.05127E+00-2.01016E+01-6.06289E+00-1.61836E+01 9.45078E-01 3.46876E+00
 -1      9729-3.02750E+00 1.77341E+01-1.45344E+00-8.83897E+00 7.40069E-01 2.92447E+00
 -1      9730-5.69349E+00-1.40765E+02 1.42578E+01-3.31016E+01 5.20504E+00 2.96522E+00
 -1      9731-7.60870E+00-5.25854E+01 2.73407E+00-3.71327E+01-5.43233E-01-2.90051E+00
 -1      9732-9.14104E+03 1.58008E+05-5.04464E+03 9.34002E+04-6.85646E+03-1.41901E+04
 -1      9733 3.20693E+04 1.38220E+05 1.92389E+01 7.82317E+04-1.06706E+03 3.02658E+02
 -1      9734 4.08149E+04 1.37119E+05-1.18091E+03 8.59373E+04-4.26013E+02 1.63641E+01
 -1      9735 2.89082E+04 1.61851E+05-4.48699E+03 9.52269E+04-2.91528E+02-3.27779E+02
 -1      9736 4.05360E+04 1.65817E+05-4.66596E+03 1.04348E+05 3.42757E+02 7.19975E+02
 -1      9737 8.41283E+04 1.25767E+05 1.40883E+04-1.08869E+05-9.06100E+02 1.27325E+04
 -1      9738-6.26865E+03 1.30930E+05-1.01057E+03-8.00940E+04 6.34243E+02-1.05284E+02
 -1      9739 4.42007E+04 2.49242E+05 1.06532E+05-3.73961E+04-1.38002E+05 1.79316E+04
 -1      9740 1.02359E+05-8.30168E+04 2.30336E+03 8.64981E+03-3.54516E+03 5.05471E+03
 -1      9741 1.05117E+05-5.00467E+04 6.03768E+03-4.96258E+03-1.54731E+03 4.72331E+03
 -1      9742-1.40080E+04 1.78232E+05 1.72098E+02-6.41267E+03-5.06794E+02 9.96237E+01
 -1      9743-1.35145E+04 1.79855E+05 3.70322E+01-1.49080E+04-4.51205E+02-3.94289E+01
 -1      9744 8.26889E+01 1.03356E+02 8.52023E+00 1.22631E+02 9.07123E+00-1.82292E+00
 -1      9745-4.80421E+03-8.12912E+02 5.65357E+01 1.60250E+04 7.68464E-01-1.09889E+02
 -1      9746 1.22446E+05-3.45102E+04-5.23973E+03-2.27646E+04 1.91827E+03 3.51988E+03
 -1      9747 9.80069E+04-4.54718E+04-6.95240E+02-1.03277E+04 5.84339E+03 8.02506E+02
 -1      9748 8.07709E+04-2.24742E+04 3.24063E+03-4.78536E+04 5.06874E+03-1.00936E+03
 -1      9749-4.10683E+02 3.97134E+02 1.82214E+02 1.67036E+02 2.21539E+01 8.48010E+01
 -1      9750-4.26341E+02 4.17635E+02 1.73368E+02 1.67981E+02-1.32900E+00-5.89538E+01
 -1      9751-1.42424E+04 1.75472E+05 1.14177E+02 2.09724E+03-4.48636E+02-7.52167E+01
 -1      9752-8.23686E+03 7.84299E+04-4.34391E+03-1.35791E+05-6.55323E+02 6.49128E+02
 -1      9753-1.24219E+04 1.24785E+05-2.59637E+03-1.28758E+05-3.33599E+03 2.10983E+03
 -1      9754-5.86048E+02 1.20094E+01 1.38660E+01-4.16348E+02-3.22487E+01 1.87432E+01
 -1      9755-6.60585E+02 4.17928E+01 2.24733E+01-4.08711E+02 3.86086E+01-3.95242E+01
 -1      9756 4.65439E+04 1.43052E+05 7.54374E+02-1.00803E+05-5.78166E+02 7.31955E+02
 -1      9757 4.04330E+04 1.46957E+05 2.87492E+03-9.97837E+04 2.37156E+02-2.71198E+02
 -1      9758-3.30219E+02-1.48051E+05 1.00766E+01 1.12785E+04-1.17398E+02 3.56636E+01
 -1      9759-3.75256E+02-1.48072E+05-8.52489E+01 1.11894E+04 8.87797E+01-8.55577E+01
 -1      9760 8.77275E+04-9.37440E+03 4.12060E+02-2.36302E+05 4.24519E+03 5.37165E+02
 -1      9761 6.55349E+04 7.85736E+04 2.85721E+04-2.04163E+05-6.60997E+02 3.67329E+03
 -1      9762-2.57956E+02-1.76557E+05-6.96519E+01 1.22557E+04-3.51402E+01-1.10608E+02
 -1      9763-2.83385E+02-1.76086E+05 1.02285E+02 1.21856E+04 1.07756E+02 1.15598E+02
 -1      9764 9.38913E+00-4.78693E+00 8.08384E-01-9.93306E-01-1.85982E+00 1.34509E+00
 -1      9765-5.45976E-01-2.16829E+01-1.83961E+00 1.09835E+01 7.25044E-01-1.80782E+00
 -1      9766 1.86211E+03 1.49450E+05-5.36090E+01 4.30416E+04 6.36373E+02-5.61437E+01
 -1      9767 6.31955E+03 1.47956E+05-2.53441E+02 5.26200E+04 6.20278E+02 9.60727E+00
 -1      9768-1.42460E+05-3.04650E+04 1.10702E+03-8.77837E+04-2.20165E+02-1.48218E+03
 -1      9769 8.60537E+01 5.17947E+00-1.02294E+01 2.13970E+01-2.85668E-01-3.01822E+00
 -1      9770 1.24974E+01-2.58203E+00-2.98880E+00 2.34763E+00-1.79694E+00-1.01906E+00
 -1      9771 4.11810E+00-3.94646E+00-4.33957E+00 2.63468E+00-1.31348E+00-2.16053E+00
 -1      9772 2.98732E+00-5.38400E+00-2.28615E+00-3.12696E+00-7.97127E-01 8.73125E-01
 -1      9773 3.98790E+01 1.60935E+02 2.62215E+01 6.28677E+01-9.79223E+00 7.84439E+00
 -1      9774 3.88778E+01 1.58689E+02 2.47678E+01 5.99286E+01 1.31652E+01-7.93895E+00
 -1      9775-2.33000E+04-4.04347E+05-1.67988E+04-5.35517E+04-1.37891E+04 1.96354E+04
 -1      9776 1.02734E+01 3.09644E+00 5.46289E+00 1.43787E+01-6.19988E+00-1.39767E+00
 -1      9777 3.51552E+00-6.92327E+00-1.07726E+00-7.31942E+00-1.11424E+00-1.32996E-01
 -1      9778 6.51017E+00 1.43161E+01-1.58063E+00-1.38376E+01 3.74109E+00-2.10840E+00
 -1      9779-1.93871E+05-9.56984E+03-4.10981E+04-5.12851E+04 7.67002E+01 4.00475E+03
 -1      9780-1.90720E+05-1.18172E+04-2.99543E+04-5.66495E+04-4.17114E+02-1.81495E+03
 -1      9781 3.09435E-02 1.39981E+02 7.70271E+00-1.78065E+01-1.68974E+00-1.23300E+00
 -1      9782-1.22060E+01 4.28195E+00 3.75645E+00 9.60901E+00-5.05373E-01 1.09763E+00
 -1      9783 2.88572E+03-7.72434E+04 1.34134E+02 6.49198E+03 2.07027E+02-4.13949E+01
 -1      9784 9.47832E+04 1.23997E+05 4.41093E+04-1.12577E+05-2.86388E+03 4.00286E+03
 -1      9785 8.64512E+04 1.30322E+05 3.26767E+04-1.11090E+05 1.43122E+03-9.44075E+02
 -1      9786 9.12744E+01 6.86893E-01-1.01185E+01-2.71135E+01-8.96727E-01 1.43374E+00
 -1      9787 1.48971E+01 1.51161E-01-4.72581E+00-5.92727E-01-1.07954E-01-2.60475E-01
 -1      9788 2.33206E+01-1.15107E+00 2.68618E+00 1.50838E-01 6.25111E-01 1.02120E-01
 -1      9789 1.43193E+01-6.73371E-01-1.24404E+00 2.08488E+00-3.04866E-02-1.23039E+00
 -1      9790 3.06466E-01 1.39145E+02 7.63133E+00-1.75427E+01 1.85844E+00 1.12884E+00
 -1      9791-1.13874E+01 4.26689E+00 4.18275E+00 1.00430E+01 4.48103E-01-9.24740E-01
 -1      9792-1.59027E+05-1.63878E+04-1.52035E+01-7.58012E+04-9.13044E+01-6.80472E+02
 -1      9793-1.80591E+05-1.09251E+04-8.25184E+02-6.35582E+04-9.90017E+02 1.13285E+03
 -1      9794 3.39170E+04 1.47462E+05-1.39762E+03 8.77645E+04 2.90214E+02-5.31020E+02
 -1      9795 4.45276E+04 1.49445E+05-2.97404E+03 9.57266E+04-4.53146E+02-4.21396E+02
 -1      9796 9.43839E+01 2.34349E+02 8.13800E+01-2.61740E+01 3.41761E+01 1.61446E+01
 -1      9797 9.18925E+00-2.91477E+01 1.02632E+01 9.33578E+01 4.69958E+01 2.50463E+01
 -1      9798 1.13236E+01-4.83576E+01-1.59518E+01 8.54606E+01 1.20428E+01 7.28401E+00
 -1      9799 6.44722E+04 1.51957E+05-4.05441E+03 1.11726E+05-1.28682E+03-2.39979E+03
 -1      9800 5.17513E+04 1.49112E+05-8.14047E+03 1.01280E+05-1.34844E+03-1.92421E+03
 -1      9801 5.78527E+01 1.66059E+02 3.23826E+01 6.93128E+01-1.33785E+01 3.32047E+00
 -1      9802-2.02966E+01-5.75981E+01-1.39581E+01-5.09525E+01 1.24056E-02 2.60884E+00
 -1      9803-4.05914E+00-3.88925E+01 4.83737E+00-4.71359E+01-1.60755E+01 7.57704E+00
 -1      9804 1.08773E+01-2.87388E+00-8.89610E-01 4.45785E+00 1.26571E+00 6.09812E-01
 -1      9805 1.14031E+01-2.05854E+00-8.51084E-01 7.77832E+00 2.81829E+00 1.04419E+00
 -1      9806 1.38370E+01 2.80804E+00 1.32957E+00 8.03604E+00-1.40081E+00-9.46671E-01
 -1      9807 2.03582E+01 1.42454E+00 3.30632E+00 7.96594E+00-4.26825E+00-4.29689E+00
 -1      9808 2.23695E+01-1.27671E+00 4.96071E-01 7.61842E+00-3.06546E+00-3.11539E+00
 -1      9809 1.96578E+01-2.87928E-01-5.42482E+00-1.78347E+00 1.51326E-01-2.13836E+00
 -1      9810 9.90361E+01 1.24046E+02 1.26817E+01-1.32538E+02 6.66880E+00 3.58772E+00
 -1      9811-1.42206E+05 1.48426E+05-4.62734E+03-1.28351E+05 4.13030E+02-7.89623E+02
 -1      9812 4.00291E-01-1.37287E+01 6.79696E+00 8.16196E+00-2.49008E+00 2.86367E+00
 -1      9813 1.99853E+02-4.11025E+01 3.85394E+01 1.61719E+02-4.48805E+01-4.33210E+01
 -1      9814 8.77611E+01 2.39362E+02 8.05631E+01-2.28375E+01-3.28686E+01-1.99809E+01
 -1      9815 4.52049E+01 2.80837E+02 5.64284E+01-2.00551E+01-5.11293E+01-2.13246E+01
 -1      9816-1.71841E+00 1.50432E+02 1.16069E+01 2.46571E+01-9.89047E-01 1.75985E+00
 -1      9817 4.81058E+00 4.35523E+01 1.46753E+01 8.53074E+00-7.21496E-01-2.79277E+00
 -1      9818 8.47475E-02-1.48491E+01 7.37928E+00 7.26381E+00 3.06965E+00-2.99803E+00
 -1      9819 5.84451E+01 1.65240E+02 2.97358E+01 6.85561E+01 1.40507E+01-3.31043E+00
 -1      9820 9.55777E+01 1.16075E+02 1.24052E+01-1.29942E+02-7.97409E+00-3.92277E+00
 -1      9821-1.19303E+05 1.96780E+04-1.15910E+04-8.81755E+04-2.06019E+03 4.98434E+03
 -1      9822 9.18395E+00-3.74929E+00-3.31969E+00-1.56689E+00-1.74885E+00 7.97965E-01
 -1      9823 2.14714E+01 5.46743E+00-5.09722E+00-1.66765E+01-2.33033E+00 2.73157E+00
 -1      9824 3.60049E+00-9.49853E+00 2.30573E+00 3.52732E+00-4.69450E+00-1.73167E+00
 -1      9825 1.02299E+01 1.69037E+00-2.67006E+00-6.63955E+00-4.72141E-01 1.55037E+00
 -1      9826 6.42718E+04 1.49723E+05-5.69960E+03 1.10100E+05 1.87003E+03 2.39601E+03
 -1      9827 5.45991E+04 1.74238E+05-5.62048E+03 1.13038E+05 1.81273E+03 2.35765E+03
 -1      9828 4.02601E+00-1.42300E+00 3.46046E+00-9.38060E+00-2.50406E+00 6.67018E-01
 -1      9829 2.72128E+05 1.16934E+06 4.42225E+04 5.50941E+05-3.87329E+04-6.14934E+03
 -1      9830 2.70930E+05 1.17195E+06 4.82335E+04 5.49296E+05 3.88568E+04 3.39565E+03
 -1      9831 1.29408E+01-2.51124E+00-8.28979E-01 8.28502E+00-3.61450E+00-3.32654E-01
 -1      9832 1.26636E+00-1.60941E+01 5.84209E+00-1.08477E+01-2.72634E+00-2.99600E+00
 -1      9833-1.22274E+04 1.49323E+05-2.79161E+02-9.84237E+04 1.73646E+03 1.90040E+02
 -1      9834 3.13465E+04 1.37430E+05-1.30965E+02 7.79215E+04 1.20611E+03-1.14734E+02
 -1      9835 1.27804E+02-8.24198E+04-1.74638E+02 1.74978E+04-1.24354E+02-1.95266E+02
 -1      9836-2.52886E+03-1.37642E+05-2.78746E+02 5.09417E+04 9.10268E+02-5.52595E+02
 -1      9837 1.04377E+01 2.07401E+00 4.72320E+00-1.23878E+01-5.16487E+00 2.53383E+00
 -1      9838 1.27302E+02 8.89115E+01 2.36113E+01 9.43904E+01-1.53462E+01 5.90429E+00
 -1      9839-1.90648E+01 1.38605E+01-5.19837E+00-1.97212E+01 5.63115E-02-4.07773E-02
 -1      9840-8.33719E+01-1.19454E+02-2.08994E+01-1.23707E+02-5.99128E-01 1.95551E-01
 -1      9841-8.44951E+01-1.20937E+02-5.51726E+01 1.25718E+02 3.23072E-01-9.08731E-01
 -1      9842-2.11920E+01 1.29565E+01-8.67478E+00 1.97992E+01-3.38300E-01 3.94799E-01
 -1      9843 2.86322E+04 1.61039E+05-1.34096E+03-8.45853E+04 7.93849E+02-4.76823E+02
 -1      9844-1.53046E+05-2.29267E+04 3.70720E+02-8.14834E+04 1.11014E+02-1.72623E+03
 -1      9845 5.46670E+00-1.11486E+01-7.85723E-02-5.96323E+00 1.94566E+00 2.54913E-01
 -1      9846 3.61334E+00 6.11130E+00-1.30622E+00-1.03762E+01 3.39633E+00-2.55556E+00
 -1      9847-2.01859E+04-1.08902E+05 1.66623E+03 5.87421E+04 3.97967E+02-1.46237E+02
 -1      9848 5.80568E+00-1.30708E+01-2.99195E-02 6.69730E+00-3.13412E+00 6.19256E-01
 -1      9849-4.92239E+03-1.09228E+05-8.13377E+02 3.72990E+04 3.30550E+02-9.10416E+01
 -1      9850 1.04775E+04 1.43932E+05-2.01151E+02 5.71985E+04 8.21543E+02 2.04052E+02
 -1      9851 1.57772E+01-1.22534E+00-3.60858E+00-4.74963E-01 1.46900E-01-1.96166E+00
 -1      9852 2.01204E+01-1.62415E+00-7.18685E-01-3.74249E+00 1.36310E+00-2.12773E-01
 -1      9853 1.01638E+01 3.51774E+00 2.62983E+00-1.34889E+01 4.30100E+00-1.87782E+00
 -1      9854 6.95463E+00-5.04621E-01 3.02782E+00 1.12944E+01 6.66514E+00 1.23596E+00
 -1      9855-4.46422E+04 2.68624E+05-3.52248E+04 7.32752E+04-3.83120E+03 2.23243E+03
 -1      9856-8.10386E-01 2.61459E+01 4.74448E+00-3.98478E+00 4.83362E+00 2.59423E+00
 -1      9857 3.82099E+04 1.47820E+05 2.59783E+03-9.73599E+04 6.66694E+02-4.03909E+02
 -1      9858-3.11345E+00 2.54323E+01 2.65846E+00 3.63465E+00-6.40218E+00 2.25764E+00
 -1      9859 1.07353E+04 1.18673E+05 1.74159E+04-1.12458E+05-3.22541E+03 9.46307E+03
 -1      9860-2.49226E+00 2.59603E+01 3.05640E+00 3.30615E+00 5.84992E+00-2.27159E+00
 -1      9861-5.07722E-01-1.58807E+01-6.07711E-02 7.99705E+00-5.00227E-01 1.64542E+00
 -1      9862 2.62188E+01 3.66939E+00 2.89032E-02-1.38202E+01 1.59550E+00-1.73726E+00
 -1      9863 5.60208E+00-7.01657E+00 6.64392E-01 7.80626E-01 1.62985E+00-1.95497E+00
 -1      9864-1.78525E-01-2.11048E+01-6.34184E-01 7.66292E+00-4.45997E-01 9.84678E-01
 -1      9865 2.31760E+01-2.22874E+00-1.30506E+00-1.31196E+01-1.02958E-01-1.05047E+00
 -1      9866 4.59610E+03-1.07727E+05 2.30030E+02 2.43127E+04-3.40979E+02-7.29078E+01
 -1      9867-2.37685E+03-8.69217E+04-6.83913E+02 2.19774E+04 1.96295E+00-2.43712E+01
 -1      9868 9.56460E+00-1.41279E+00-1.27181E+00-5.44047E+00-1.56937E+00 2.56150E-01
 -1      9869 2.89046E+01 1.67002E+01 1.46487E+00-2.57245E+01-5.42086E+00 2.67539E+00
 -1      9870-9.55014E+03-1.14673E+05-9.16154E+02 4.44308E+04 1.54133E+02-2.71508E+02
 -1      9871 4.42320E+04 2.51973E+05 1.06060E+05-3.87107E+04 1.37830E+05-1.71453E+04
 -1      9872-1.86892E+04 2.03157E+05-8.17802E+03-9.70056E+04 3.65925E+03-3.54287E+02
 -1      9873-9.25168E+01 2.54346E+01-1.25263E+01-1.06059E+02 2.60052E+00 2.60653E+01
 -1      9874-9.73467E+01 2.00433E+01-1.39624E+01-1.11870E+02-6.92654E+00-2.02776E+01
 -1      9875 5.00560E+03-8.50061E+04 1.55604E+02-7.56197E+02 4.17725E+02 5.66140E+01
 -1      9876 3.73186E+03-8.45746E+04-9.80174E+01 2.75592E+03 3.07714E+02 3.81436E+01
 -1      9877 8.77411E+01-2.29350E+02-4.52816E+01 1.53865E+02 5.07375E+01-3.63490E+01
 -1      9878 8.32417E+01-2.29179E+02-4.75774E+01 1.52037E+02-5.39481E+01 3.86033E+01
 -1      9879 1.01663E+01 8.09743E-02-1.35898E+00 9.09869E+00 6.54943E-01 5.83118E-01
 -1      9880 9.29283E+00-1.06642E+00-2.47204E+00 7.67937E+00-1.22652E-01-4.66444E-01
 -1      9881 1.00483E+01-3.82622E+00 3.80383E-01 3.35088E+00 1.09464E-01 2.74705E-01
 -1      9882 2.29975E+01 1.58295E+01-1.36921E+00 1.63318E+01-4.91705E-02-4.03748E-01
 -1      9883 4.55186E+00-1.13835E+01 2.10101E+00 2.65968E+00 3.85328E+00 7.62942E-01
 -1      9884 3.85848E+04 1.54098E+05-4.21965E+02-9.09537E+04 8.25465E+02-1.04421E+03
 -1      9885 4.69837E+00-2.40470E+00 1.62658E+00 8.56942E+00-2.41179E-02 2.57440E-02
 -1      9886-3.51090E+00 2.84402E-01-1.00650E-01 1.15154E+01 9.93478E-02 9.30219E-01
 -1      9887-1.72535E+00-8.94916E+00 1.77719E+00 7.06099E+00 1.87128E+00 2.32545E-01
 -1      9888 4.75181E+00-4.73093E+01 6.43369E+00 9.04509E+00 1.03055E+00-8.38548E-01
 -1      9889 7.12867E+00-2.51410E+01-2.95563E+00-6.53467E+00-2.15867E+00 1.40793E+00
 -1      9890 2.65001E+00-1.56436E+00 4.24337E+00-6.38663E+00-4.34014E-01-6.69327E-01
 -1      9891 2.37727E-01 4.14817E+00-5.05926E-01-1.11776E+01 6.91670E-02 9.47361E-01
 -1      9892-5.15236E+00 2.01199E+01-6.14356E-01-4.69229E+00-3.22279E+00-1.28088E+00
 -1      9893 9.72228E+00-1.21009E+00-1.86303E+00 7.30827E+00 5.68262E-01 1.02618E+00
 -1      9894 1.21035E+01-1.99331E-01 3.57508E-01 1.91486E+00 5.78798E-02-1.29317E+00
 -1      9895 8.05568E+00-3.51083E+00-5.57160E+00 2.08083E+00 6.46031E-01 5.24120E-01
 -1      9896 1.47636E+01-1.96459E+00 1.08717E+00 1.26671E+00-1.10467E+00-7.94524E-01
 -1      9897-1.37402E+01-5.45988E+00-1.34816E+00-7.22251E+00-1.37740E+00-1.29355E-01
 -1      9898-9.30052E+00-2.15338E+01 4.45182E+00-1.12942E+01-1.78107E-01 2.11016E+00
 -1      9899-6.78799E+00 1.76307E+01 5.44695E+00-8.28469E+00-1.35804E+00 1.38674E+00
 -1      9900 1.16213E+01-2.92595E+00 1.23646E+00 3.33463E+00-6.29189E-01-1.54830E+00
 -1      9901-1.08015E+01-1.71568E+02 1.32917E+01 4.98390E+01 4.04602E-01 1.68778E-01
 -1      9902-8.35044E-01-1.41923E+01 7.49372E+00 1.13073E+01-2.29002E+00-4.12054E-01
 -1      9903-1.81877E-01-6.33132E+00 6.53491E-01 6.04423E+00-1.25825E+00 2.01428E-01
 -1      9904 1.12175E+00-1.03380E+01 3.64203E+00 9.63035E+00-7.33993E-02 1.46853E-01
 -1      9905 2.66115E+00-1.53763E+00 4.30281E+00 6.65273E+00-2.90666E+00-1.63418E+00
 -1      9906 2.71867E+00 8.29204E-01 9.12019E+00-1.42535E+01-3.75199E-01 1.82891E+00
 -1      9907-5.90847E+00-2.22001E+01-1.12892E+01-2.52277E+01-1.98155E+00 1.76497E+00
 -1      9908 5.31749E+00 1.82313E+00 4.47873E+00-6.14367E+00 3.27767E+00-2.22752E+00
 -1      9909 7.57796E+00 1.43641E+01 6.98640E+00 1.11210E+01 3.20649E+00-1.78867E+00
 -1      9910 4.66651E+00-3.56665E+00 4.57316E+00 1.03246E+01 1.22645E+00-4.67017E-01
 -1      9911 9.16952E+00-7.14578E+00 3.39358E+00 8.26082E+00 1.51627E+00-3.08991E+00
 -1      9912-9.89765E+01-1.65733E+01-4.46688E+01-7.28505E+00 7.73338E+00 1.58966E+01
 -1      9913-9.73452E+01-8.46066E+00-3.95795E+01-4.61475E+00-7.80400E+00-9.25445E+00
 -1      9914 7.37629E+00-2.28605E+00-2.75567E+00 3.06195E+00 6.76298E-01-1.36299E-02
 -1      9915 1.09808E+01-3.49354E+00-5.96357E+00 1.10598E-01 3.87218E-01 1.26500E-01
 -1      9916 1.56242E+01-3.53286E+00-2.06369E+00-1.38976E+00 8.56123E-01-4.60155E-01
 -1      9917 8.94390E+01 3.53477E+00-1.08164E+01-2.53296E+01 7.88326E-01-2.14127E+00
 -1      9918 2.57032E-02-1.44768E+01 9.12133E+00 1.12335E+01 1.95384E+00 1.65775E-01
 -1      9919-2.09913E+04-2.01931E+06 4.93041E+03 7.16856E+04 1.64856E+03 4.37926E+01
 -1      9920-4.63721E+04-1.92136E+06 2.18510E+03 8.13959E+04 9.37195E+02 1.63067E+02
 -1      9921 1.17640E+01 2.19696E+00-1.82796E+01 6.97126E+00-2.78231E+01-2.15717E+00
 -1      9922 1.47781E+00 3.54445E+00-1.02120E+01 1.27844E+01-1.39291E+01-3.15823E-01
 -1      9923 1.06652E+00 1.95313E+00-8.87240E+00 1.30104E+01 1.31149E+01 3.21705E-02
 -1      9924 1.22301E+01-5.77533E-01-1.53740E+01 3.63112E+00 2.90279E+01-9.10829E-01
 -1      9925 8.13761E+04 1.16692E+05 1.26911E+04-1.10876E+05 1.94992E+03-5.97440E+03
 -1      9926 8.27394E+04 1.17182E+05 1.37493E+04-1.13263E+05-3.66597E+03 6.60330E+03
 -1      9927 7.15974E+00-1.91855E+00-4.46273E+00-1.13788E+01 1.66420E+01 9.01453E-02
 -1      9928 1.74285E+00-7.69372E-01 6.66450E-01-1.49768E+01 1.18342E+01-1.64956E+00
 -1      9929-4.53496E+02-1.02656E+05 3.99220E+02 3.11503E+04-2.00320E+02 9.10726E+01
 -1      9930 7.08050E+00-6.53650E+01 1.03487E+01-1.60111E+01-6.34292E-01-1.06468E+00
 -1      9931 9.82075E+00 6.46645E+00 8.50456E+00 1.04389E+01-5.52307E-01 1.20758E+00
 -1      9932-1.03060E+01-8.36478E+00 2.30500E+00 1.11298E+01-2.69579E+00 3.13870E+00
 -1      9933 5.34950E+00-6.21281E+00-2.96518E+00-1.16928E+00 8.17621E-01-5.46886E-01
 -1      9934-3.14315E+00 1.01533E+01 5.26720E+00-6.37767E+00 1.46098E+00-6.35144E-01
 -1      9935 9.76877E+00-4.60645E+00-1.97697E+00-2.88908E+00-8.16750E-01 8.45434E-01
 -1      9936 3.16108E+00-1.52771E+00 3.07909E+00-7.23359E+00 1.12496E+00 9.37204E-01
 -1      9937 1.63408E+05 9.68024E+05 3.17928E+04 3.51700E+05-4.74215E+04-2.68367E+03
 -1      9938 1.51311E+05 9.47288E+05 3.20389E+04 3.41856E+05 4.54501E+04 8.35412E+02
 -1      9939 2.67201E+04 7.51880E+04 2.08237E+04-1.86635E+05 2.99651E+02 7.64334E+03
 -1      9940-4.39004E-01-5.70913E+00-5.56958E+00 2.58896E+00-8.23724E-01 1.26881E+00
 -1      9941 1.97702E+01 4.22421E+00-2.64508E+00-4.91746E+00-1.06350E+00 8.49030E-01
 -1      9942 5.08989E+00-5.11334E-01 1.45230E+00-9.68386E+00 2.06450E-01 1.04538E+00
 -1      9943 1.99022E+00-1.03313E+01 2.89767E+00-3.57174E+00-1.55443E+00 6.27747E-01
 -1      9944 2.44902E+01 3.21577E+00 1.74881E+00-1.17993E+01-2.19498E+00 2.81305E+00
 -1      9945 1.39460E+01 1.38735E-01 1.38859E-01-5.77330E+00-1.37050E-01 1.32448E+00
 -1      9946 8.21535E+00-1.02197E+01-8.09513E-01 1.45187E+00 1.70740E+00-1.07576E+00
 -1      9947 1.41571E+01-1.89380E+00-3.96448E-01-7.20009E-01-8.83503E-01 6.74542E-01
 -1      9948 8.90300E+01 1.59448E+00-9.93700E+00 2.52711E+01 4.27824E-01 2.02040E-01
 -1      9949 2.00869E+01-3.85728E+00 3.48637E-01-8.49258E-01-7.29287E-01 1.87629E+00
 -1      9950 1.77630E+01-1.95811E+00-5.35750E+00 1.90128E+00-1.01543E-01-8.53974E-02
 -1      9951-9.91725E+00-8.34416E+00 2.70634E+00 1.12669E+01 2.83660E+00-3.05920E+00
 -1      9952 1.18253E+05 3.90150E+05 1.61091E+04 1.92327E+05 1.24236E+05 6.28446E+04
 -1      9953 2.55578E+00-1.37821E+01 1.33192E+00-4.37738E+00 2.33516E-02 5.38340E-01
 -1      9954-5.50516E-01-3.58126E+00 2.83571E+00 8.17073E+00-2.94479E+00 5.21784E-01
 -1      9955-1.87363E+05-1.01560E+04-2.65474E+04-5.85170E+04 2.76166E+03-7.99160E+03
 -1      9956-1.67928E+01-1.66732E+00-6.60639E+00 2.47828E+01 2.91343E+00-3.01990E+00
 -1      9957 2.68002E+01 2.22882E+02 1.73481E+01 6.15179E+01-8.80891E+00 1.98865E+00
 -1      9958 2.69010E+01 2.22653E+02 1.65078E+01 6.10235E+01 8.95881E+00-1.73038E+00
 -1      9959 1.18618E+05 2.06655E+06-1.39150E+03 2.54978E+05-2.50427E+03-5.48151E+03
 -1      9960 3.89205E+01 3.42085E+01 6.48231E+00-3.45754E+01-7.02939E+00 6.65835E+00
 -1      9961-1.45566E+01 3.01701E+00-1.45849E+01-4.39063E+01 4.88309E-01-8.40086E+00
 -1      9962-1.64746E+01 2.49080E+01 9.74792E-01 2.70309E+00 1.49111E-01 6.67148E-02
 -1      9963-2.08391E+04-2.01837E+06 5.11586E+03 7.21003E+04-9.70787E+02 2.19043E+02
 -1      9964-6.55475E-01-3.38118E+00 4.42650E-01-1.28100E+01-1.18107E+01 1.89562E+00
 -1      9965 3.62599E+00-7.39240E+00-4.12691E+00-5.07923E+00-1.68385E+01-1.97410E+00
 -1      9966 4.02050E+00-2.71791E+00 1.97616E+00 8.21812E+00 1.08051E-01 1.68563E-01
 -1      9967-1.73839E+01-1.75510E+00-6.75844E+00 2.43691E+01-2.81213E+00 3.21511E+00
 -1      9968 6.19103E+00-3.16097E+00-6.50092E+00-2.82691E+00-6.31458E-01 1.74662E+00
 -1      9969-2.25215E+03 1.99393E+05-4.46031E+03 1.09451E+05 1.21600E+04 1.22047E+04
 -1      9970 3.82630E+01 3.37007E+01 6.94419E+00-3.45739E+01 6.40191E+00-6.72577E+00
 -1      9971-1.45326E+01 2.98785E+00-1.44471E+01-4.38859E+01-8.18077E-01 8.42212E+00
 -1      9972-1.38580E+01-9.04969E+00 1.78172E+00-1.17012E+01 2.33705E+00-2.42138E+00
 -1      9973 1.48794E+01-1.97200E+00 1.66484E-01-1.35146E+00 1.30738E+00-2.01598E-01
 -1      9974 1.30573E+02-1.15291E+02-4.61045E+00-6.76107E+01 5.56495E+01 4.27681E+01
 -1      9975 5.18251E+02 2.37422E+01 1.86575E+01-1.12612E+02 1.11478E+01 3.71226E+01
 -1      9976 1.68033E+02-1.49744E+02-3.23768E+00 5.91272E+01 4.13721E+01-2.25631E+01
 -1      9977 1.29718E+02-1.13744E+02-3.39896E-01-6.76195E+01-5.68526E+01-4.02946E+01
 -1      9978 5.19379E+02 2.26289E+01 1.91033E+01-1.12553E+02-1.17023E+01-3.67452E+01
 -1      9979 1.66644E+02-1.47632E+02-1.36541E+00 6.00776E+01-4.23368E+01 2.41675E+01
 -1      9980-1.89941E+03 1.54736E+05-1.25656E+02 3.76488E+04 3.43327E+02 1.46953E+02
 -1      9981-1.10254E+04 1.47292E+05-1.83665E+03-1.10635E+05 1.44921E+03-3.42709E+02
 -1      9982-6.09616E+04-2.20465E+06-7.98385E+03 8.94195E+04-3.43701E+03 4.65794E+02
 -1      9983-5.31724E+04-1.91922E+06-3.56129E+02 8.42451E+04-1.24771E+03 1.69641E+03
 -1      9984 1.84169E+01-9.66498E+01-1.76088E+01-1.09443E+02 8.97653E+00 1.50989E+01
 -1      9985 1.78966E+01-9.68797E+01-1.75929E+01-1.09431E+02-8.96147E+00-1.60709E+01
 -1      9986 1.61251E+00 2.59468E+00 3.68720E+00 1.56621E+01 2.34520E+00-3.90851E-01
 -1      9987 1.00706E+01-2.27478E+00-3.33618E+00-5.29876E-01 6.61339E-01 3.17047E-01
 -1      9988 2.69785E+01 5.66476E+00-1.09587E+01-2.36490E+01-2.11266E+01-3.80445E+00
 -1      9989 5.19624E+00 1.00160E+01-1.20508E+01 2.03269E+01-8.81309E+00-5.86555E+00
 -1      9990 4.56758E+00 1.11730E+01-1.24789E+01 2.11457E+01 8.64908E+00 7.09726E+00
 -1      9991 2.93717E+01 7.22522E+00-1.08150E+01-2.30547E+01 2.08617E+01 3.71217E+00
 -1      9992 4.67369E+00 9.33247E+00-6.98434E+00-2.02059E+01 8.99841E+00-3.97344E+00
 -1      9993 2.02259E+01 6.22262E+00-1.22012E+01 2.14370E+01 2.12545E+01-2.20120E+00
 -1      9994 3.24207E+01 3.39149E+01 5.33873E+00 3.37417E+01-4.62010E+00-7.15538E+00
 -1      9995 8.20222E+00-2.87733E+00-2.76153E-01 2.00447E+00 1.82451E+00 2.82712E-01
 -1      9996 8.82886E+00-4.98032E+00-3.85681E-01-6.10406E-02 2.14342E-01 1.50190E+00
 -1      9997 4.24685E+00 2.53330E+00 5.52438E+00 1.47774E+01-4.00383E+00-4.71721E+00
 -1      9998 1.23736E+01-9.67617E+00-1.61996E+00 2.26374E+00 3.46265E-01 3.57880E-01
 -1      9999 9.08128E+04 2.10101E+06-7.86908E+03 2.07279E+05 1.07349E+03 3.12721E+03
 -1     10000 1.01131E+01 7.22375E+00 5.18668E+00 1.56822E+01-5.12010E+00 6.38529E-01
 -1     10001 1.87589E+01 1.37375E+00-3.40807E+00 4.65746E+00 4.70721E-01 1.05184E-01
 -1     10002 1.37111E+01 3.82551E+00 8.90230E-01 3.17099E+00 1.97523E+00 5.01788E-01
 -1     10003-6.06088E+04-2.19834E+06-6.68263E+03 8.84736E+04 3.45801E+03-6.78793E+01
 -1     10004 4.75459E+00-1.96432E+00 5.05569E-01-8.61342E+00-2.06216E+00 2.84997E-02
 -1     10005 6.26429E-01-1.20628E+01-3.25394E+00 7.45263E+00 5.16746E+00 2.16946E+00
 -1     10006 3.51017E+01 7.09857E+02 5.27452E+01 5.90550E+01 7.46604E+01 6.28178E+00
 -1     10007 3.68308E+01 7.09983E+02 5.36687E+01 6.19838E+01-7.37386E+01-3.90543E+00
 -1     10008 9.81990E+00-4.16047E+00-2.01762E+00-1.72363E+00-9.67885E-01 1.50359E+00
 -1     10009 8.96711E+04 2.09953E+06-6.61950E+03 2.08022E+05-1.36886E+03-2.91255E+03
 -1     10010-3.75976E+01 3.14206E+01-1.27658E+01 1.47637E+01 3.63300E+00 2.09367E-01
 -1     10011-1.47779E+01 5.92403E+00 2.14140E+00 2.99919E+01 1.19967E+00-1.31876E+00
 -1     10012-4.13643E+01 2.47499E+01-1.14266E+01 1.17649E+01-4.01864E+00 1.20636E+00
 -1     10013 2.90584E+01-3.04834E+00-1.43839E+01 2.09672E+01-1.76853E+01-4.55198E-01
 -1     10014-1.02122E+02-1.66804E+02-5.16376E+01-5.26781E+01-1.57157E+01 3.38172E+00
 -1     10015-3.64207E+00 8.63477E+00 2.37156E+00-6.17530E+00-1.48705E+01 1.23438E+00
 -1     10016-9.63056E+01-4.36548E+01 1.29408E+00-6.80540E+01-2.11528E+01-1.05738E+01
 -1     10017 1.22982E+01-5.90033E+00 7.96919E-01 1.80837E+00-1.49429E+00-1.01016E+00
 -1     10018 2.22657E+02-4.52000E+01 3.76189E+01 1.48640E+02 4.37866E+01 4.76488E+01
 -1     10019-1.35891E+01 1.82864E+00-5.27994E-01 1.57818E+01-1.24035E+01-2.46381E-01
 -1     10020-1.42508E+01 4.23354E+00-2.73665E-01 1.49407E+01 1.53764E+01 6.84057E-01
 -1     10021-9.89030E+00 3.51147E+00 1.49286E+00-1.53371E+01 1.21280E+01-7.66958E-02
 -1     10022-1.38418E+00-9.52109E+00-3.53903E-03 5.52247E+00-6.15461E-01-2.08696E+00
 -1     10023 8.07821E+00-5.47840E+00 1.85469E+00-4.76529E-01 1.21146E+00 1.78228E+00
 -1     10024 6.41554E+00-1.25539E+01 2.31534E-01-3.70945E+00-9.62731E-01-1.73423E+00
 -1     10025 2.14285E+01-2.57232E+00-2.49844E-01 7.48032E+00 1.49452E+00 2.96675E+00
 -1     10026 2.04210E+01-3.23201E+00 1.39212E+00 7.05221E+00 2.63466E+00 3.42289E+00
 -1     10027 7.26818E+00-1.02407E+01 7.12353E-01-2.76259E+00-1.47941E+00-1.23360E+00
 -1     10028-2.03134E+01-7.82397E+00-8.55920E+00-2.14510E+01-9.38941E-01-4.16696E+00
 -1     10029 9.89513E+00-1.00668E+01-9.80601E-02 4.49397E-01-1.78247E+00-3.01232E-01
 -1     10030-2.08128E+00-7.91483E+00-4.43268E+00 3.21046E+00 1.44069E-01-1.04322E+00
 -1     10031 1.28096E+01 4.43254E-01 7.55308E-02-3.25959E+00 2.35481E+00-2.38225E+00
 -1     10032 1.66050E+01-6.42709E-01-8.32470E-01-2.34112E+00 2.22903E+00-8.44474E-01
 -1     10033 9.80612E+00-2.41293E+00-6.83575E-01-1.97087E+00 5.64876E-02-2.91029E-01
 -1     10034-3.57775E+00 1.74938E+01 6.37932E+00-4.43656E+00 1.58056E+00 2.34137E+00
 -1     10035 2.57901E+00-1.27876E+01-1.99454E-02-4.58931E+00 9.19789E-01 1.48588E+00
 -1     10036 6.00476E+00-8.29416E+00 1.01764E+00-1.19234E+00-1.19168E+00-1.70038E+00
 -1     10037 2.75544E+00 5.41019E+00-7.81875E+00-1.94649E+01-9.94190E+00 4.47333E+00
 -1     10038 2.80132E+01 3.00908E+01 1.29808E+00 3.08788E+01 6.91522E+00 4.94508E+00
 -1     10039 8.72880E+00 1.57510E+02 1.63178E+01 1.17253E+02-1.08248E+01 1.86846E+00
 -1     10040 2.50798E+01-2.83418E+01-1.08700E+01-5.22489E+01-2.12367E-01-1.58951E-01
 -1     10041-6.32939E+01 3.81042E+01-1.12826E+01 1.48015E+01 6.01789E+00 6.16221E+00
 -1     10042 9.89273E+00-3.06082E+00-4.58029E+00-6.44422E-01 7.24853E-01 1.54155E+00
 -1     10043-5.28853E+04-1.91820E+06 4.18022E+01 8.30997E+04 6.76328E+02-1.76710E+03
 -1     10044-1.33676E+00-2.07116E+01-1.23758E+01 2.70014E+01 2.69497E+00-2.94125E+00
 -1     10045-6.30573E+01 3.77152E+01-1.12308E+01 1.55171E+01-6.01370E+00-5.91990E+00
 -1     10046 4.96651E+00-1.15183E+01-1.46592E+00 3.53470E+00-1.57401E+00 1.24935E+00
 -1     10047 1.16308E+01-8.52842E-01-2.41203E-01-4.66351E+00 2.14484E-01-6.30626E-01
 -1     10048 7.73302E+00-1.26049E+00-1.52830E+00-5.38956E+00 2.44019E+00-2.27624E+00
 -1     10049 1.75055E+01 1.67678E+00-9.72626E-01-9.52867E+00 1.68929E+00-8.97641E-01
 -1     10050 8.91076E+01 4.68356E+00-9.42236E+00 2.11908E+01 6.55608E-01 3.64154E+00
 -1     10051 1.07872E+01-3.30455E+00-3.42902E+00 3.20418E+00 3.76291E-02 1.91156E+00
 -1     10052 1.12796E+01 1.22638E-01-1.75341E-01 7.74253E-01 6.77395E-02 9.20332E-01
 -1     10053 2.35815E+02 1.64807E+01-7.55208E+00 3.67744E+01-7.56015E+00-4.40169E+01
 -1     10054 6.21238E+01-5.98297E+01 3.52413E+00-6.23619E+01 2.78809E+00 3.56317E+00
 -1     10055 9.11871E+01-6.36295E+01-7.02249E+00-5.47265E+00 1.30085E+01-2.36326E+01
 -1     10056 9.33382E+01-6.24912E+01-8.92954E+00-6.51876E+00-1.25212E+01 2.42710E+01
 -1     10057 2.38529E+02 1.74112E+01-8.34945E+00 3.76047E+01 7.88384E+00 4.44532E+01
 -1     10058 6.20335E+01-5.95224E+01 3.48984E+00-6.29757E+01-2.56424E+00-4.07204E+00
 -1     10059-1.87667E+05-9.10802E+03-1.19161E+04-5.64775E+04-1.04442E+03 4.90422E+03
 -1     10060-1.74839E+05-8.60725E+02-1.85448E+04-6.07895E+04-3.40517E+03 9.80658E+03
 -1     10061 4.31723E+04 1.50951E+05-9.75468E+02 9.71722E+04 2.65857E+02-7.24373E+01
 -1     10062-3.66815E+00 3.17446E+02 1.99192E+00-3.42226E+01 2.12310E+01-5.12484E+00
 -1     10063 7.67045E+00-3.79827E+00 2.63991E+00-4.78795E-01-8.18025E-01-2.37780E-01
 -1     10064 1.43218E+02-1.03699E+02-3.26141E+01-3.28522E+00 4.31529E+01-9.79923E+00
 -1     10065 1.43925E+02-1.03976E+02-3.15678E+01-2.37028E+00-4.34923E+01 1.10977E+01
 -1     10066 9.71541E+00-8.61174E+00-5.93070E+00 4.40180E+01 9.05018E-01 4.12375E-01
 -1     10067-6.14311E+01 2.76609E+01-2.77589E+01-2.15923E+01 6.20983E+00-5.65706E+00
 -1     10068-1.97739E+01 6.83243E+00-1.59612E+01 3.66283E+01 2.66095E-01 6.56858E+00
 -1     10069-3.41849E+00 3.18584E+02 1.24031E+00-3.39349E+01-2.16758E+01 5.00168E+00
 -1     10070 1.63552E+00-3.73573E+00-8.54613E+00 2.78057E+01-4.31592E+00 3.47394E+00
 -1     10071 1.95527E+01 7.38138E+01 6.45169E+00 3.69006E+01 1.97853E+00 4.06861E+00
 -1     10072-9.02956E+00-1.11022E+02-2.25963E+01 2.12785E+01-5.69062E+00 1.30782E+00
 -1     10073 5.88693E+00-4.31794E+01 7.21031E+00-1.21615E+00-1.20809E+01-3.37023E+00
 -1     10074 9.37369E+01 2.02480E+00-1.11018E+01-2.33964E+01-8.25124E-01 1.90341E+00
 -1     10075 1.60403E+01-1.23174E+00-1.51945E+00-2.76597E+00-6.65398E-01 1.81157E+00
 -1     10076 3.79961E+00-1.67561E+01-2.04988E-01-3.15282E+00 1.54514E+00 1.28408E+00
 -1     10077 1.87033E+01-6.28734E+00-1.06757E+00 8.79326E+00-1.16171E+00-2.10584E+00
 -1     10078 1.08013E+01-3.46798E+00 8.74674E-01 2.63259E+00 8.17191E-01 1.92347E+00
 -1     10079 4.48239E+00-4.13436E+01 6.37308E+00-4.06135E+00 1.22695E+01 3.28900E+00
 -1     10080 2.06285E+01 6.90201E+01 2.71541E+00 3.89562E+01-1.95830E+00-3.80943E+00
 -1     10081-1.54177E+01-1.05451E+02-2.28994E+01 1.85964E+01 7.74319E+00-1.82962E+00
 -1     10082 8.27756E+00 3.14894E+00 2.26649E+00-1.85694E+00-3.78879E-01 2.49931E+00
 -1     10083-5.83331E+00 1.37202E+00 3.83652E-01-5.18253E+00-2.63456E-01 7.04964E-01
 -1     10084 2.07036E+00-1.82228E+00 1.13722E+01-8.15124E+00 3.28509E-01 1.34559E+00
 -1     10085-8.66688E+01-7.66035E+01 2.89681E-01-7.75028E+01 1.43754E+01-4.22696E-01
 -1     10086-9.53077E+01-9.12188E+01-5.53295E+00-1.05757E+02 1.40066E+01 6.39955E+00
 -1     10087-2.17081E+01 4.04610E+01 8.50811E+00 8.61604E+00 1.10440E+01 3.77990E+00
 -1     10088 6.66707E+01 5.09492E+01-2.90930E+00 7.08383E+01 1.17496E+01 2.10302E+00
 -1     10089 2.80526E+05 1.06948E+06 9.21859E+04 5.02752E+05 7.71707E+04 1.87398E+04
 -1     10090 2.80097E+05 1.06839E+06 8.16626E+04 5.04215E+05-7.24151E+04-1.76165E+04
 -1     10091 9.40854E+00 5.39528E+01 3.46663E+00-3.27341E+01 3.38183E-01-3.53378E+00
 -1     10092 1.80718E+01-1.59373E+00 2.63224E+00-1.34488E+00 8.32672E-01-2.38011E+00
 -1     10093-9.00686E+01-9.42732E+01-7.19787E+00 1.00387E+02 1.32550E+01-1.25631E+01
 -1     10094-9.93322E+01-1.01324E+02-8.72311E+00 1.11297E+02-1.65065E+01 1.03365E+01
 -1     10095-9.15405E+01-6.45976E+01-4.17447E+00-9.82166E+01-1.68569E+01-1.35160E+01
 -1     10096-1.89462E+01-7.28758E+01 1.44998E+00 3.73399E+01-5.07951E+00 6.42334E-01
 -1     10097 1.02616E+01 1.16850E+02 3.76324E+00-3.23909E+01-2.82394E+00-4.02171E+00
 -1     10098-1.33524E+01 6.46206E+00-1.09185E+01-1.20749E+01-3.89949E+00-4.17678E+00
 -1     10099-3.81772E+01-1.13951E+02-2.87055E+01 1.21452E+01-7.61741E-01-3.40871E+00
 -1     10100-5.95690E-01 7.77889E+01 4.11307E+00-3.17198E+01-2.35661E+00-7.36498E-02
 -1     10101-1.09444E+01 4.89163E+00-1.11163E+01-1.21624E+01-4.78314E-01 4.08226E+00
 -1     10102-3.05160E+01-1.18758E+02-2.66815E+01 1.59882E+01 9.85457E-01 2.65154E+00
 -1     10103 8.65229E+00 1.19156E+02 5.22995E+00-3.28028E+01 2.36449E+00 3.72896E+00
 -1     10104-1.96993E+01-7.38328E+01 2.10263E+00 3.67216E+01 4.26274E+00-6.49157E-01
 -1     10105-8.77009E+00 1.06130E+02 9.27016E+00 2.16204E+01 4.01891E+00 1.55212E+00
 -1     10106 2.82505E+01 2.11386E+01-3.22767E+00-2.32759E+01-6.27034E-02-3.80669E-01
 -1     10107 9.25501E+00-4.67511E+00 1.34806E-02-2.69574E+00-1.18377E-01 6.10451E-01
 -1     10108 9.80569E+00 9.61123E-01-1.26951E+00-7.08082E+00 6.48548E-02 5.30659E-01
 -1     10109 9.95702E+00 1.88492E+00-5.51606E-01-9.65567E+00-6.96827E-01 7.46631E-01
 -1     10110 6.30605E+00-9.12608E+00 5.91487E-01 1.17134E+01-2.75571E+00-1.30772E-01
 -1     10111 8.88728E+00-1.35854E+00-4.65674E-01 5.55185E+00-2.15690E+00-2.32343E+00
 -1     10112 1.29065E+01-2.32696E+00-8.67052E-01-2.34433E+00-1.53768E+00-7.25484E-02
 -1     10113 1.62023E+01 4.85044E+01 2.42034E+00-2.88055E+01-3.40330E-01 1.56707E+00
 -1     10114 6.74882E+00-4.79027E+01-1.84540E+00-2.62967E+00 7.37651E+00-1.01718E+00
 -1     10115 3.90203E-01 1.04726E+02-3.13589E-02 2.58173E+01 3.95087E+00-2.48359E+00
 -1     10116 4.65769E+00-1.41229E+01-7.27826E+00 3.06099E+01 2.71132E+00 1.02314E+00
 -1     10117 1.17892E+01 4.94183E+00-1.14489E+00-3.84866E+00-6.68319E-01-7.86608E-01
 -1     10118 1.17431E+01-7.31236E+00-1.72641E+00-5.42691E+00-3.74651E+00 2.34941E+00
 -1     10119 4.50460E+00 7.88776E+00-1.82454E+00 1.11266E+01 4.09421E-01-2.26545E-01
 -1     10120 1.36234E+01 1.16358E+00-9.56682E-01-6.18302E+00-3.28173E-01 2.78173E-01
 -1     10121 1.06146E+01-5.26341E+00 7.07792E-01-6.36150E+00-6.70347E-01 1.28747E-01
 -1     10122 4.98006E+00-7.34424E+00 3.23686E+00 6.85059E+00 6.50589E-02-9.56204E-02
 -1     10123 3.84767E+00 2.49046E+01 1.30868E+01 5.06592E+00 7.12733E+00-4.71172E-01
 -1     10124-1.64698E+01 4.78827E+00-8.18638E+00-5.90301E+00 3.45387E+00 2.03071E+00
 -1     10125 1.73216E+01 8.13305E+00 1.19668E+00-2.87165E+00-2.31696E+00 1.22518E+00
 -1     10126 3.82301E+00-6.15422E+00-6.24561E+00-6.44094E+00-4.25179E-01-3.17174E-01
 -1     10127-3.03564E+00-1.70036E-01 4.93143E-01-7.51720E+00 2.71045E+00-4.05890E-01
 -1     10128-7.89268E+01 8.89772E+00-3.57149E+01 1.31298E+01-8.80940E+00 4.23481E+00
 -1     10129 5.04461E+00 3.44972E+00 2.24825E+00 1.89090E+00-2.90692E-01 4.29780E+00
 -1     10130 4.21615E+00 6.35523E+00 3.42741E+00-1.68732E+01-1.42586E+00-1.81240E+00
 -1     10131-3.37007E-01 1.82931E+01-1.20371E-01 2.20570E+01 3.26352E+00 6.66818E-01
 -1     10132 8.96582E+00-3.87238E+00-7.20498E-01-2.77416E+00-1.06965E+00 1.50047E+00
 -1     10133 3.96980E+00-1.60280E+01-2.75153E+00-7.72077E+00 4.78268E+00-6.00450E-01
 -1     10134 3.01716E+01-9.92126E+00 4.37074E+00-1.28493E+00-1.90394E-01-1.01212E+00
 -1     10135 1.27562E+01-1.24913E+01 1.22976E+00-1.05683E+01-4.70386E-01-1.08564E+00
 -1     10136-3.60182E+01 4.65888E+01 1.52340E+00 1.22693E+01-1.06830E+00-1.60409E+00
 -1     10137-6.19610E+00 1.10057E+02 9.87951E+00 2.28953E+01-3.04534E+00-1.22795E+00
 -1     10138 9.53047E+00 9.19838E-01-2.97451E+00-9.04476E+00-6.55805E-03-3.14828E-01
 -1     10139 7.25591E+00-1.65407E+01 1.06922E-01-8.39192E-01-3.58612E-01-7.35689E-01
 -1     10140 1.95131E+01-5.64532E+00-8.71566E-01 9.91170E+00 1.62934E+00 2.05901E+00
 -1     10141-1.92319E+01 3.12391E+01 1.61664E+01-4.82453E+01 1.16194E+00-3.19270E+01
 -1     10142-2.22763E+01 3.18711E+01 1.50532E+01-4.54042E+01-3.67520E+00 3.40020E+01
 -1     10143 6.67163E+01-5.63648E+01-9.03237E+00-3.19863E+01 3.73977E+00 1.03467E+01
 -1     10144 6.67312E+01-5.64046E+01-8.95022E+00-3.26373E+01-3.83054E+00-1.09227E+01
 -1     10145-9.09478E+01-8.73963E+01-2.68048E+00 8.13244E+01-1.63945E+01 1.84142E+00
 -1     10146 7.58500E+01 5.47228E+01-1.20689E+00-7.57668E+01-1.24791E+01 1.51223E+00
 -1     10147-1.99902E+01 4.50692E+01 9.38960E+00-7.39856E+00-1.08463E+01 4.71442E+00
 -1     10148 1.83779E+01-2.77465E+01 1.80364E+01 9.41232E+01-4.55525E+01-2.99638E+01
 -1     10149-8.43861E+00-6.98685E+00-5.41823E+00-6.00640E+00 9.82736E-01 3.02116E+00
 -1     10150 1.11390E+01-2.40497E+00-1.67815E+00 3.56901E+00 1.95506E+00-4.00120E-01
 -1     10151 3.97825E-01-2.43193E+01-4.23400E+00-9.89017E+00 1.33715E+00-6.23329E-01
 -1     10152 2.96600E+01 1.42555E+01 1.29785E+00 2.29944E+01 4.18535E+00 1.86790E+00
 -1     10153-9.20475E+00-2.48774E+01-1.40538E+00-2.30462E+01 7.27405E-01 2.09175E+00
 -1     10154-7.10455E+00 4.00887E+00 3.17301E+00 1.53335E+01-2.12974E+00 5.66049E+00
 -1     10155-6.65391E+01-7.03081E+01-1.31340E+00 8.81368E+01-1.95461E+01 1.24752E+01
 -1     10156 9.22246E+01 3.60648E+01 8.98437E+00-5.35300E+01-2.04725E+01 8.21450E-01
 -1     10157 6.39688E+01 3.53165E+01 4.04170E+00-5.16017E+01-1.28454E+01-2.43400E+00
 -1     10158-6.15333E+01-7.22352E+01-6.13166E+00 8.65716E+01 1.63528E+01-1.22311E+01
 -1     10159 6.63452E+01 4.01948E+01 5.05396E+00-5.49639E+01 1.42241E+01 2.61395E-01
 -1     10160 8.83644E+01 3.47128E+01 8.16411E+00-5.02413E+01 1.96651E+01-2.91868E-01
 -1     10161 8.56074E+01 3.33882E+01 9.04067E+00 4.76603E+01 2.11760E+01 3.68802E+00
 -1     10162-6.31312E+01-5.87916E+01 2.70438E+00-8.06683E+01 1.32115E+01 7.36766E+00
 -1     10163 5.57979E+01 3.73384E+01 2.64389E+00 4.36752E+01 1.08403E+01-2.57203E+00
 -1     10164-3.16307E+00 1.13590E+02 5.49307E+00 2.41932E+01-5.51255E+00 1.09509E+00
 -1     10165-1.66505E+01-7.85967E+01-2.02075E+00-3.20725E+01 5.13962E-01 1.05273E+00
 -1     10166-4.59874E+01-1.19907E+02-1.53659E+01-7.37021E+01 9.13990E+00 4.35311E+00
 -1     10167-3.41808E+01-7.14678E+01 2.79794E+00-7.42065E+01 1.16376E+01 5.80266E+00
 -1     10168-5.42928E+01-1.49194E+02-3.77799E+01 7.16063E+01-2.56435E+01 1.66335E+01
 -1     10169-3.49419E+01-8.12115E+01-1.28717E+01 8.01100E+01-2.40038E+01 1.29804E+01
 -1     10170-5.16701E-01-3.62814E+01 7.56000E+00-4.69282E+01 1.60506E+01-7.83482E+00
 -1     10171-1.61045E+01 1.30308E+02 1.33467E+01-9.55551E+00 3.40304E+00 1.72828E+00
 -1     10172 3.48904E+00 7.99306E+00-1.92423E+00 1.04559E+01-2.05428E-01 7.51723E-01
 -1     10173-8.22320E+00 3.71961E+02 1.40525E+01-2.32070E+01-5.39598E+01 5.79035E+00
 -1     10174-9.11299E+00 3.75115E+02 2.16468E+01-2.86728E+01 5.41794E+01-5.46880E+00
 -1     10175 1.45399E+01 4.51120E+00 7.25920E-01 8.60677E+00 6.40640E-01 1.01708E+00
 -1     10176 8.85409E+00-6.55409E+00-1.49980E+00 9.31390E+00 1.30995E+00 2.47908E-01
 -1     10177 9.84184E+00-1.02383E+01 9.46545E-02 4.21848E-01 1.40948E+00 7.37443E-01
 -1     10178-1.98500E+01 2.37768E+01 1.92127E+00-3.85035E+00 9.57578E-01 2.40857E+00
 -1     10179 9.52608E+00-3.81649E+00-6.28873E-01 5.18152E+00 7.40040E-01 2.81178E+00
 -1     10180 1.90159E+01 9.55096E-01-4.24041E+00 1.43252E+01 2.54554E+00 2.82593E+00
 -1     10181-2.61618E-02-6.27275E+00 6.92380E+00-8.91778E+00 2.45210E+00 9.79897E-01
 -1     10182 1.09526E+01-3.08797E+00-9.44772E-01 6.72162E+00 1.28906E+00 1.50241E+00
 -1     10183 7.51603E+00 4.01023E+00 2.68875E+00 1.06839E-01 3.03503E-01-5.01497E+00
 -1     10184 3.17875E+00-1.00042E+01 3.46803E+00-3.37701E+00 2.72824E+00-5.41721E-01
 -1     10185 5.65252E+00-5.09076E+00 8.72501E-01-7.68626E+00-4.05715E-01-7.67530E-01
 -1     10186 9.27104E-01-6.10744E+01-3.71735E+00-3.23616E+00-7.16888E+00 1.93385E+00
 -1     10187-2.13860E+01-8.66352E+01-6.01863E+00-3.13453E+01-2.42607E-01-1.03716E+00
 -1     10188-2.24575E+01 4.53368E+00-5.21948E+00-2.01142E+00-2.57225E-01-1.00277E+00
 -1     10189 1.22784E+01 3.74429E+01 1.64019E+01 2.09212E+01 2.13385E+00 6.07002E+00
 -1     10190-4.93562E-01-9.07074E+00-4.48653E+00-3.30848E+00 1.76271E-01-5.19309E-01
 -1     10191 5.16526E+00-1.38969E+01 7.07816E-01 8.96984E+00 2.64603E+00-7.50478E-01
 -1     10192 8.76058E+00 1.41572E+01 1.58109E+00 1.79610E+01-3.54335E+00-1.82924E+00
 -1     10193-8.44446E+00-1.54653E+02 1.43306E+01-5.30993E+01-1.58306E+00-2.61944E-01
 -1     10194-7.43408E+00-2.45126E+01-5.05817E+00-2.99636E+01-1.87390E+00 1.12645E+00
 -1     10195 1.05740E+01-2.37665E+00 7.12766E-01-4.42112E+00 4.50695E-01-1.19088E+00
 -1     10196 1.47323E+01-3.52217E+00-1.37065E-01 1.80089E+00 1.84700E+00-8.03669E-01
 -1     10197 1.07390E+01-1.25961E+00 3.91306E-01 2.03609E+00-2.41204E+00-2.60745E+00
 -1     10198 1.22233E+01-3.69169E+00-2.58882E+00 3.16473E-01-2.77315E+00-1.21083E+00
 -1     10199-1.86738E+01-7.79246E+00-2.19252E+01 3.19601E+01-2.22696E-01-6.51421E+00
 -1     10200-4.04340E+01 5.30540E+02 8.94417E+01 2.18577E+02-3.37306E+01-1.13751E+02
 -1     10201-1.74669E+05-9.29628E+02-1.87724E+04-5.95001E+04 3.10852E+03-9.99269E+03
 -1     10202-1.83716E+05-2.58356E+03-1.14265E+04-5.28601E+04 1.05716E+03-5.93161E+03
 -1     10203-1.44822E+01 1.40467E+01-7.95231E+00-1.46602E+01 4.35122E+00-3.67143E-01
 -1     10204-3.07318E+01 5.13701E+02 8.51767E+01 2.16169E+02 4.09095E+01 1.14549E+02
 -1     10205 1.30046E+01-8.23031E+00-5.01455E+00 1.32619E+01 7.61828E-01 1.08226E-01
 -1     10206-3.07511E+00 8.19703E+00 3.70093E+00 2.07665E+01 4.83189E+00 3.64751E-01
 -1     10207 2.78164E+01 4.05906E+01 1.67404E+01-2.81103E+01 7.79679E+00-6.98700E+00
 -1     10208-1.82407E+05-5.31785E+02-9.36209E+03-5.23699E+04-7.94271E+02 4.93090E+03
 -1     10209-2.05238E+00 2.30133E+01-3.19576E-01 4.03630E+00 2.11861E+00 1.74244E+00
 -1     10210 8.48837E+00 2.03230E+00 2.07979E+00-4.48660E+00-3.78364E-01-4.85377E+00
 -1     10211 5.49475E+01 3.97441E+01 3.02931E+00 4.81358E+01-1.08491E+01-1.94538E-01
 -1     10212 8.38116E+01 2.94684E+01 5.45040E+00 4.74250E+01-1.75015E+01-2.82687E-01
 -1     10213-5.80790E+01-5.92650E+01-2.13206E-01-7.91572E+01-1.18149E+01-6.72436E+00
 -1     10214 2.09430E+01-9.82980E+00 1.78577E+00 3.40007E+00 3.62362E-01 5.73737E+00
 -1     10215 6.74388E+00-6.04439E+00 1.87434E+00 1.43732E+00 1.83619E-01-9.09995E-01
 -1     10216 8.11646E+00 3.69277E+00-1.55204E+00-1.30453E+01 3.70071E-01 4.70514E-03
 -1     10217 1.07491E+01-9.99123E-01 1.18111E+00-7.54803E+00 1.16159E+00-2.80675E-01
 -1     10218-3.46804E+01 3.79585E+01 2.76495E+00 1.69927E+01-1.07817E+00 4.54492E+00
 -1     10219-3.16869E+00 1.38432E+01 5.75523E+00-5.14275E+00 4.16328E+00-5.80232E-02
 -1     10220-1.26474E+01 1.32584E+02 1.28958E+01-7.28795E+00-2.24032E+00-1.60345E+00
 -1     10221 6.01648E+00 4.54352E+00-5.85750E-01-1.17927E+01-7.31991E-01 9.76101E-01
 -1     10222 3.14397E+01 1.23222E+01 6.27631E-02-2.33672E+01 4.96220E+00-1.64982E+00
 -1     10223 2.68557E+01 2.16926E+01-3.43937E+00-2.48931E+01 4.87723E+00-4.73046E+00
 -1     10224 2.63769E+01 7.14894E+00-1.39965E+00 2.14294E+01-3.88116E+00-3.35273E+00
 -1     10225 2.05200E+01 1.43076E+01-2.80532E+00 1.76042E+01-5.62178E+00-5.57794E+00
 -1     10226-1.02274E+02-1.03167E+02-1.65519E+01 1.17812E+02 3.69873E+01-1.69394E+01
 -1     10227-4.66311E+01-1.43264E+02-3.63641E+01 6.81627E+01 2.21200E+01-1.44376E+01
 -1     10228-9.37851E+01-9.98964E+01-1.40759E+00-1.10025E+02-2.00771E+01-7.74556E+00
 -1     10229-3.88019E+01-1.13972E+02-1.25132E+01-6.94762E+01-7.00138E+00-3.20829E+00
 -1     10230 2.77879E+01 4.10451E+01 1.65111E+01-2.82151E+01-7.91280E+00 6.66765E+00
 -1     10231-2.67860E+01-3.25750E+00 1.10209E+00-3.36337E+01-5.19428E+00-2.58392E+01
 -1     10232-2.51214E+01-4.95699E+00-3.10539E+00-3.34851E+01 5.00987E+00 2.93284E+01
 -1     10233-8.03442E+00 1.90707E+01-6.40186E+00 1.21326E+01 3.59465E+00-2.79145E-01
 -1     10234-4.19950E+00 8.89180E+01 4.12117E+00-2.92586E+01-4.73908E-02 1.27403E+00
 -1     10235-7.64016E+00 2.65344E+01 6.08461E+00 3.60215E+00 9.23505E-01 1.22583E+00
 -1     10236 5.51383E+00 3.43771E+01 1.07235E+01-6.66672E+00 3.87141E+00 1.57533E+00
 -1     10237 2.28796E+01-4.96325E+00 5.93407E-01 1.57044E+01-3.73512E+00-2.15437E+00
 -1     10238-2.52445E+00-9.92202E-01-1.86991E+00-3.18712E+00-3.78394E-01 5.72041E+00
 -1     10239-2.90633E+00 2.24196E+01-2.23947E+01 5.56349E+01 1.82760E+01-1.62963E+00
 -1     10240 9.81099E+00 2.05249E+00 2.57950E+00 4.39434E-01 8.15949E-01-3.13752E+00
 -1     10241 8.55011E+00-7.81770E+00-1.36898E+00 7.01186E+00-9.18724E-01-3.75119E-01
 -1     10242-1.28152E+01 1.74506E+01-8.85006E+00 1.07351E+01 1.08286E+00 2.48196E+00
 -1     10243 2.06955E+00 2.79400E+01-1.99788E+01-6.33797E+01 1.46413E+01 3.67562E+00
 -1     10244-1.64976E+01 4.82773E+01 1.68769E+01-1.11612E+01 7.75505E+00-3.35899E+00
 -1     10245-9.28563E+00 1.33652E+01 3.02310E+00 2.15766E+01-1.84382E+00-1.13283E+00
 -1     10246-4.94067E+00 1.52413E+01 4.97734E+00-1.99282E+00 6.33118E-01 1.26401E+00
 -1     10247 4.05261E+00-6.70687E+00-4.23728E+00-7.20080E-01 8.84825E-01 6.66232E-01
 -1     10248-1.93794E+05-7.08456E+03-4.85942E+04-4.75743E+04-5.94175E+02-4.78271E+03
 -1     10249-1.88638E+05-6.79411E+03-4.43082E+04-4.97883E+04 2.61030E+03-1.21255E+04
 -1     10250 1.48341E+00 2.95274E+01-1.92764E+01-6.16099E+01-1.49666E+01-3.94700E+00
 -1     10251 5.17471E+00-9.86191E+00 1.99894E+00-5.34321E+00-2.43704E-01 6.26900E-01
 -1     10252 8.48029E+00-5.68861E+00 6.73337E-01 7.66321E-01 1.22697E+00 7.52675E-01
 -1     10253-1.14268E+01 8.52521E+00-5.18951E+00 1.13489E+01-9.92335E-01-1.23307E-01
 -1     10254-1.68311E+00 2.03541E+01 7.18425E+00-2.54373E+00-5.32027E+00-3.43617E-01
 -1     10255 9.07968E+04 1.19054E+05 4.69528E+04-1.11225E+05 4.74193E+03-1.16692E+04
 -1     10256 9.75455E+04 1.18913E+05 5.24080E+04-1.12690E+05 3.04242E+03-3.45595E+03
 -1     10257-1.26051E+01 1.40806E+01 7.00585E+00-1.70743E+01 4.71039E-01 2.78084E-01
 -1     10258 2.49693E+01 1.52056E+01 1.38086E+01 6.61572E+00-4.96025E+00-2.61294E+00
 -1     10259 2.43060E+01-4.96229E+00 5.50643E+00 6.40740E+00 1.60653E+00-1.40722E+00
 -1     10260 2.49346E+01-1.22962E+01 5.29223E+00 8.88406E+00 1.80698E+00 6.03064E-02
 -1     10261-3.88655E+01 1.59200E+01-2.17208E+01 1.74240E+01 1.14335E+00-2.46269E+00
 -1     10262-5.36545E+01 4.32359E+01-2.35948E+01-2.19094E+01-8.61298E+00-5.50173E+00
 -1     10263-1.81359E+01 8.51869E+00 6.46110E+00-2.37994E+01-2.83378E+00-1.22687E+00
 -1     10264-1.08176E+01 1.15591E+02 8.35877E+00 1.22779E+01 6.11658E+00-1.86833E-01
 -1     10265-2.34875E+01 1.90392E+01 1.35046E+00-1.80940E+01-1.80304E+00-2.80255E-01
 -1     10266-1.26950E+00 3.59886E+00-3.43683E+00-2.16480E+01-7.07924E+00-3.23756E+00
 -1     10267-5.28715E+01 4.40860E+01-2.33116E+01-2.27414E+01 8.06821E+00 5.34354E+00
 -1     10268 1.29699E+01 3.92986E-01 5.17920E+00-1.98083E+01-1.40999E+00 6.13488E-01
 -1     10269 2.70872E+00 1.45017E+01 6.49609E+00-8.23082E+00-6.53010E-01-4.51240E-01
 -1     10270 5.16443E+00-1.56693E+01-1.28027E-01 8.01888E+00-3.12561E+00 6.42586E-01
 -1     10271 3.12206E+01 1.51094E+01 1.49517E+01 1.13766E+01 1.06584E+01-1.57539E+01
 -1     10272 6.01788E+01 1.74820E+01 4.66284E+01 1.01158E+01 3.08874E+01 3.89660E+01
 -1     10273 6.00944E+01 1.61548E+01 4.70903E+01 1.22648E+01-3.05525E+01-4.03335E+01
 -1     10274 3.07183E+01 2.46648E+02 4.50499E+01-1.39393E+01 4.05865E+01 2.18142E+01
 -1     10275 4.87298E+00 3.90492E+00-4.10298E-01 1.29281E+01 1.47658E+00 7.31146E-01
 -1     10276 5.11819E+00 4.53736E+00-3.12596E-01 1.26592E+01-1.31436E+00-5.77509E-01
 -1     10277 1.17124E+01-5.96589E+00 4.06447E-01-3.73976E+00-3.17543E-01-9.80931E-03
 -1     10278-5.89573E+03 3.12621E+04 2.08151E+02 3.70433E+04-2.23252E+02-6.93454E+01
 -1     10279 4.32720E+00 6.88103E-01-1.71835E+00-8.07179E-03-4.15173E-01 2.00815E+00
 -1     10280 2.75867E+00 9.01279E+00 5.35982E-01-2.11588E+01 4.10611E+00-1.05617E+00
 -1     10281 4.95023E+00-4.31612E+00-5.69648E-01-7.73371E+00 2.50855E+00 5.44182E-01
 -1     10282-2.07061E+01-2.29287E+00-9.04397E+00 8.46263E-01-2.39680E+00 3.65392E+00
 -1     10283 1.44551E+01 7.97974E+00 8.79582E-01 1.33543E+01-1.42455E+00-1.95312E+00
 -1     10284 3.40175E+01 1.61695E+01 1.53547E+01 1.10968E+01-1.05633E+01 1.52601E+01
 -1     10285 1.62556E+01-1.82568E+01 1.16389E-01 4.29705E+00-3.91181E+00-2.75326E+00
 -1     10286-4.65391E+01 6.03352E+01 8.73023E+00-1.04494E+01 6.70871E-01-1.09514E+01
 -1     10287 2.24069E+01 8.10033E+00 1.07795E+01-5.18791E+00 4.50214E+00-2.91031E+00
 -1     10288 1.03927E+01-1.75448E+00-1.15363E+00-1.55072E+01 8.95744E-01-1.99017E+00
 -1     10289 2.96408E+01-3.38888E+00-1.57069E+00-1.39401E+01 3.45180E+00-2.20537E+00
 -1     10290 1.02005E+01-8.65076E-01 1.40535E+00-1.30361E+01 2.18661E-01-9.32858E-01
 -1     10291 5.32014E+00-9.93279E+00 1.62687E-01-9.84556E+00 2.50701E+00-1.67570E-01
 -1     10292 8.66945E+00-2.28705E+01-7.71601E+00 2.33355E+01-3.54704E+00-8.82941E-01
 -1     10293 2.59406E+01-1.04971E+01 3.38339E+00-1.28611E+00-6.46913E-01 1.17290E+00
 -1     10294-2.17368E+01-4.78846E+00-1.09679E+01-1.95343E+01 3.34950E+00 1.31465E+00
 -1     10295-1.63302E+01 9.84031E+00-1.34024E+01-2.50809E+01 1.44982E+00 1.68515E+00
 -1     10296-2.28626E+01 2.57793E+01 5.88228E+00 4.55194E+00-4.03288E+00-2.80662E+00
 -1     10297-7.36054E+00 4.76661E+00-8.25151E+00-1.19194E+01 9.58299E-01 1.64312E-01
 -1     10298-6.28935E+00 1.17102E+01 3.59763E+00-1.55790E+00-4.42586E-01 5.06228E-01
 -1     10299-3.54820E+00 2.32047E+00-4.58114E+00 1.69237E+01 3.21098E+00 2.03907E+00
 -1     10300 1.49760E+01-9.38296E-02-1.24336E+00 8.36731E+00-2.00358E+00 8.88910E-02
 -1     10301 8.46338E+00-4.85467E+00 1.33544E+00 2.54416E+00 3.53854E+00-4.53788E+00
 -1     10302 2.21074E+01-3.97370E+00-1.01582E+00-1.51892E+01-3.53283E+00 1.11822E+00
 -1     10303 2.14604E+01 1.81899E+00 8.60058E+00-6.30182E+00-1.78752E+00 3.26413E+00
 -1     10304-1.37487E+00 2.81418E+01 1.00500E+01-3.82434E+00 4.89270E+00-1.25442E+00
 -1     10305 4.53866E+00 1.48904E+01-3.40248E+00-1.60509E+01 3.24536E-01 1.66084E+00
 -1     10306-2.70381E+01 1.99020E+01-1.06238E+01-1.05617E+01-8.13399E-01-8.04608E+00
 -1     10307 1.09967E+01 3.60972E+00 3.32119E+00-2.25219E-01-6.32779E-01-2.74877E+00
 -1     10308 5.60788E+00 3.88295E+00-6.75182E-01-1.23730E+01-2.27713E-01 4.12656E-01
 -1     10309-1.53736E+01 7.97466E+00 4.45997E+00 5.67015E+01 1.12955E+01-5.09168E+00
 -1     10310 7.42066E+01-1.03960E+02 1.34012E+00 1.41205E+02-3.60043E+01 3.31333E+01
 -1     10311 7.40312E+01-1.04358E+02 6.42335E-01 1.39971E+02 3.63200E+01-3.24482E+01
 -1     10312-1.56219E+01 1.57659E+00-2.53215E+00-1.07994E+01 2.07822E+00-2.54345E+00
 -1     10313 1.87889E+01-3.74978E+00-5.48669E-01-1.19125E+01-1.78197E+00 2.74424E+00
 -1     10314 1.78113E+01-3.17608E+00 1.85276E+00 1.36099E+01-1.63516E+00 1.18114E+00
 -1     10315 6.59928E+00 1.33599E+01-7.87757E-01-1.32138E+01-1.79240E+00 1.28588E+00
 -1     10316-2.21188E+01-2.26172E+00-1.08454E+01-8.35971E+00 2.58027E+00-3.10209E+00
 -1     10317 2.59273E+01-6.16475E+00 4.25124E+00-4.96586E+00-9.76097E-01-3.01973E+00
 -1     10318 1.51904E+01-1.05832E+01-1.11336E-02-6.29297E+00-2.90885E-01 3.34931E-01
 -1     10319 9.97041E+00 4.95603E-01-9.67915E-01-1.58462E+01-1.27536E-01 4.95523E-01
 -1     10320-2.28834E+01 2.28459E+01-5.98245E+00-1.04575E+01-4.70598E-01 2.93831E+00
 -1     10321-4.67187E+01 4.59409E+01 6.54518E+00 1.24247E+01-3.01924E+00 7.82394E+00
 -1     10322 9.21819E+00 5.75095E+00 1.31751E+01-5.50655E+01 1.46672E+01 2.72849E+00
 -1     10323-6.25458E+03 2.95713E+04-1.78737E+02 3.70762E+04 2.04111E+02-4.05638E+01
 -1     10324-1.19485E+01 1.13556E+01 2.16416E+00 7.06338E-01-1.01293E+00-3.47367E+00
 -1     10325-7.83606E+00-6.17681E+00-2.11239E+00-6.21861E+00 1.26586E+00-1.50598E+00
 -1     10326-8.37860E+00-3.94153E-01-6.73330E+00 6.17616E+00-6.98876E-01-2.80838E+00
 -1     10327 2.32930E+01-1.10580E+01 4.21279E+00-5.53163E+00-6.95552E-01 1.42796E+00
 -1     10328 1.67366E+00 1.71617E+01 1.15729E+01-1.84363E+01-4.59068E+00 6.41505E-01
 -1     10329 7.07053E+00 2.54828E+00 1.10644E+01-5.30312E+01-1.53430E+01-2.80583E+00
 -1     10330 1.93371E+02-4.92231E+01 3.84604E+01 6.93163E+01-1.77089E+01 9.05998E+00
 -1     10331 1.94383E+02-4.87967E+01 3.78880E+01 6.77253E+01 1.77110E+01-8.28413E+00
 -1     10332 7.16386E+01-3.35706E+01 1.41721E+01-5.72526E+01 2.12460E+00 4.83518E+00
 -1     10333 7.10178E+01-3.37091E+01 1.40570E+01-5.71740E+01-2.04193E+00-5.16068E+00
 -1     10334-7.55875E+00 1.70724E+02 1.42324E+01 3.20068E+01 3.81281E+00 1.48354E+00
 -1     10335-1.99662E+01 3.65742E+01 2.64276E+00 6.41616E+00-1.58000E+00 5.44250E+00
 -1     10336-9.92674E+00-1.32509E+01-7.39899E+00 5.19617E+00-4.35941E+00 3.98831E+00
 -1     10337-9.71516E+01-9.79102E+01-1.40039E+01 8.08985E+01 1.10726E+01-1.15063E+00
 -1     10338 2.48472E+01-5.79670E+01 8.92192E+00-1.01475E+02-1.00840E+00 1.45128E+01
 -1     10339 2.53324E+01-5.78529E+01 8.95046E+00-1.01804E+02 1.02595E+00-1.47297E+01
 -1     10340 6.62581E-01 1.74914E+01 6.04041E+00-7.14952E+00 1.43827E+00-1.53515E+00
 -1     10341 1.52756E+01-7.91430E+00 3.50300E-01 1.33566E+01 1.35109E+00 2.55902E-01
 -1     10342-1.89088E+01 2.34535E+01 2.46752E+00-3.13877E+01 2.59795E+00 5.58552E+00
 -1     10343 1.30472E+01-7.34168E+00-3.29159E-01-1.74454E+00-6.44748E-01-3.10960E-01
 -1     10344-1.83100E+00-2.25552E+01 1.45084E+00-1.74922E+01-7.53727E-01-1.91050E+00
 -1     10345-7.50444E+00-5.34842E+00-6.75390E+00-6.16596E+00-5.80557E-01-2.57631E+00
 -1     10346 2.44712E+01 2.54527E+00 1.71132E+00-1.19710E+01 2.32275E+00-2.79851E+00
 -1     10347-1.19081E+02 8.80736E+01-6.65651E+00-8.67319E+00 2.56331E+01 2.66881E+01
 -1     10348-2.97221E+01 2.99592E+01-7.86930E+00-1.03478E+02 1.45392E+01-4.48208E+00
 -1     10349-1.22503E+02 8.46947E+01-1.25968E+01-1.60308E+01-2.47008E+01-3.57029E+01
 -1     10350-3.09375E+01 2.81601E+01-1.28307E+00-1.03238E+02-1.52797E+01-3.24392E-01
 -1     10351 1.41362E+02-1.06549E+02 2.96753E+01 7.07512E+01 3.47634E+01 5.11539E+01
 -1     10352 1.40202E+02-1.05848E+02 2.75126E+01 7.00996E+01-3.34402E+01-5.31009E+01
 -1     10353-1.51366E+01 2.50242E+01-4.06288E+00 2.90492E+00-4.30849E+00-4.47288E-02
 -1     10354 4.56929E+01-6.27948E+01 1.06372E+01-1.60830E+01-1.91680E+01 1.56091E+01
 -1     10355 4.74983E+01-6.25398E+01 1.05517E+01-1.63694E+01 1.85975E+01-1.54463E+01
 -1     10356-1.28617E+03-2.42459E+04 1.27376E+02 1.27245E+04 5.36459E+01-5.06370E+01
 -1     10357-2.08969E+01 1.42973E+01-1.69097E+00-1.74397E+01-4.56481E+00 3.16514E+00
 -1     10358 5.73428E+00-9.05344E+00-8.64103E-01-3.93633E+00-3.05257E+00-4.46659E+00
 -1     10359-1.53442E+03-2.40655E+04 9.60931E+00 1.26959E+04 7.65412E+00 4.83399E+01
 -1     10360-2.57338E+03-1.59832E+04-1.03048E+02 1.56254E+04 5.91114E+01 1.92981E+01
 -1     10361-2.39834E+00-6.84259E+01-1.60141E+01-3.35879E+01-8.64695E+00 2.45330E+00
 -1     10362-1.39941E+00-6.73610E+01-1.38059E+01-3.40151E+01 8.19158E+00-1.47395E+00
 -1     10363-1.16775E+01-1.14659E+02-3.98244E+01 5.99313E+01-2.42810E+01 1.23018E+00
 -1     10364-1.09716E+01-1.12643E+02-4.07096E+01 6.13023E+01 2.63281E+01 3.64445E-01
 -1     10365 1.22841E+02 9.27652E+01 1.79921E+01-1.00409E+02 1.44900E+01 2.07928E-01
 -1     10366 1.82838E+05 2.80350E+04 1.06056E+04-6.58218E+04 2.91378E+03 7.16729E+02
 -1     10367-1.76465E+05 3.10416E+05-2.83393E+04-1.61382E+04-3.30466E+03-1.20486E+04
 -1     10368-6.95486E+04 4.01082E+05 2.17100E+04 8.09169E+04 7.94329E+03 4.43388E+02
 -1     10369 2.82369E+04-1.95250E+05 7.35782E+01-7.56680E+02-6.33958E+02-6.58230E+02
 -1     10370-2.01127E+04-1.21768E+06-1.00902E+03 8.82956E+04 5.92349E+02-2.39587E+02
 -1     10371 1.40370E+05-6.26557E+03 4.03054E+03-4.09160E+04 5.09056E+03-2.09480E+02
 -1     10372 8.58111E+04-3.42204E+05-4.51385E+02-1.15472E+04-5.68886E+03 1.23054E+03
 -1     10373-3.91388E+03-6.36536E+03 1.08218E+02 1.67473E+04 4.65474E+01-4.01479E+01
 -1     10374 3.49987E+03-7.81347E+04-1.85040E+02-5.04836E+03 4.08878E+02 4.80547E+02
 -1     10375 2.29989E+04 1.66061E+05-2.29776E+03 8.97263E+04-3.45665E+02-3.07906E+02
 -1     10376-2.06921E+05-5.90527E+05-1.67493E+04 3.09383E+05 7.96404E+04-3.32859E+04
 -1     10377-2.06715E+05-5.90655E+05-1.70280E+04 3.09820E+05-7.94986E+04 3.28018E+04
 -1     10378-2.05485E+04 4.79668E+04-6.19243E+03-1.48481E+04-1.08168E+03-1.18635E+03
 -1     10379-1.51623E+05-1.42762E+04-4.47630E+03-8.34210E+04-1.41614E+03 2.26836E+02
 -1     10380-1.66984E+05 1.57667E+02-1.61873E+04-6.65715E+04-1.90887E+03 4.41406E+03
 -1     10381 5.41284E+01 3.08195E+02 6.07146E+01 8.74015E+01 7.19342E+01 1.59937E+01
 -1     10382 4.65332E+01 3.03141E+02 4.89295E+01 9.34805E+01-7.15187E+01-1.90004E+01
 -1     10383 1.93955E+01-8.97841E+00 8.11448E+00 1.34907E+01 2.93531E+00 2.32265E+00
 -1     10384-3.53088E+03-8.04348E+03 4.94910E+01 1.57795E+04 7.06754E+00 4.97567E+01
 -1     10385-5.97191E+03 7.36996E+04-2.03057E+03-1.30557E+05 2.97507E+02 2.54592E+02
 -1     10386-1.20059E+04 1.23940E+05-3.80081E+03-1.25854E+05 2.66914E+03-2.28399E+03
 -3
    1PSTEP                         3           1           1          
  100CL  101 1.000000000       10386                     0    1           1
 -4  TOSTRAIN    6    1
 -5  EXX         1    4    1    1
 -5  EYY         1    4    2    2
 -5  EZZ         1    4    3    3
 -5  EXY         1    4    1    2
 -5  EYZ         1    4    2    3
 -5  EZX         1    4    3    1
 -1         1 3.56678E+00-1.20705E+01 3.64864E+00 3.92827E-01 3.12597E-02 1.84780E-02
 -1         2 3.57278E+00-1.20781E+01 3.65387E+00 3.92779E-01-3.30940E-02-2.36124E-02
 -1         3-7.34995E-04 2.71989E-03-8.71872E-04-2.16713E-04 7.88372E-05 9.09428E-05
 -1         4-7.65285E-04 2.75066E-03-8.99294E-04-1.94938E-04-9.77938E-05-8.82101E-05
 -1         5-9.01061E-01-1.25979E+00 8.55322E-01 1.91032E+00-6.26533E-01 5.02004E-01
 -1         6-9.04362E-01-1.25610E+00 8.52912E-01 1.90414E+00 6.32656E-01-5.05638E-01
 -1         7 4.49184E-04 5.71618E-04-3.19817E-04 8.59493E-04-1.17224E-04 2.02925E-05
 -1         8 3.85919E-04 5.95617E-04-3.02825E-04 8.35255E-04 1.22257E-04-3.63257E-05
 -1         9 8.95522E-01 1.28395E+00-8.35447E-01 1.85504E+00 7.62966E-01 6.44105E-01
 -1        10 3.88698E-04 6.29234E-04-2.95372E-04-9.16552E-04-8.76348E-05-7.74517E-05
 -1        11-2.30849E-02-6.87168E-04 1.05543E-02-1.18091E-02 4.05238E-03-9.10145E-04
 -1        12-3.70850E+00 1.22559E+01-3.66140E+00 2.92159E-01-6.82348E-02-1.45504E-02
 -1        13 8.65552E-01 1.31303E+00-8.64769E-01 1.84523E+00-6.61434E-01-5.21191E-01
 -1        14 3.93267E-04 6.27941E-04-3.01247E-04-9.24363E-04 1.03461E-04 6.82927E-05
 -1        15-2.40095E-02-6.45474E-05 1.06704E-02-1.15376E-02-4.18015E-03 9.71646E-04
 -1        16-3.71221E+00 1.22602E+01-3.65899E+00 2.89810E-01 7.03033E-02 1.73037E-02
 -1        17 3.63153E-01 4.28932E-01-5.06630E-02-7.83642E-01 1.05969E-01-2.38057E-01
 -1        18 3.78480E-01 4.28983E-01-6.71095E-02-7.79252E-01-1.11664E-01 2.35800E-01
 -1        19-1.03415E+00 2.84839E-01 6.19768E-02-2.92170E-01-3.84609E-02 2.42059E-01
 -1        20-1.02953E+00 2.94970E-01 4.77937E-02-2.97762E-01 4.08188E-02-2.39663E-01
 -1        21-4.63537E-04 1.32552E-03-3.17384E-04 9.02913E-05-3.07153E-05-3.14719E-05
 -1        22-4.51582E-04 1.30393E-03-3.31459E-04 6.44725E-05 3.76138E-05 4.50046E-05
 -1        23-1.57907E+00 2.85739E+00-1.19417E-02 1.18577E+00 6.89979E-01 3.44840E-01
 -1        24-1.56064E+00 2.94337E+00 2.40812E-03 1.18752E+00-7.05235E-01-3.09235E-01
 -1        25 2.80206E+00-3.48603E+00 1.33047E-03-1.06341E+00-1.06618E+00 2.89011E-01
 -1        26 2.53688E+00-3.54477E+00 1.21052E-01-9.20295E-01 8.98957E-01-9.08541E-02
 -1        27 7.88458E-05 6.16463E-05-7.54064E-05-1.21762E-04 3.10392E-05-1.03333E-05
 -1        28 5.23694E-04 3.43278E-05-1.82472E-04-3.15350E-04-1.22273E-05-3.13208E-05
 -1        29 1.47725E-04-7.15319E-05-2.77608E-05-1.17356E-04 3.76509E-05-2.71561E-05
 -1        30 6.96382E-05-2.20435E-04 8.54647E-05 5.35268E-05 2.44178E-05-3.62366E-05
 -1        31 7.43135E-05-6.95557E-04 1.89719E-04-1.89734E-04 6.49505E-05 4.05060E-05
 -1        32 1.08781E-04-6.21642E-04 2.88459E-04-3.02340E-04 3.55403E-05-3.86900E-05
 -1        33-2.80648E-04-1.11314E-03 4.35261E-04-8.85492E-04 1.95486E-05 7.76026E-05
 -1        34-3.42701E-04-3.64107E-04 3.76343E-04-6.08199E-04 2.46130E-05-7.71039E-05
 -1        35 2.31162E-04-6.41741E-04 7.58800E-05-6.13875E-04-1.38125E-04-1.67017E-04
 -1        36 1.21310E-03-3.78994E-04-3.57232E-04 2.09536E-04-1.05349E-04-2.03676E-04
 -1        37 3.02896E-03-3.88542E-04-7.69540E-04-5.40976E-04 1.07836E-04-1.37656E-04
 -1        38 2.75860E-03-7.00834E-04-8.47845E-04-7.73018E-04-1.39974E-04 1.83995E-04
 -1        39 1.26099E-03-9.92124E-04-1.51763E-04 6.11837E-04-2.05985E-04 1.56196E-04
 -1        40-3.95274E-04-3.80224E-04 3.95379E-04 6.84324E-04 1.22150E-06 9.55727E-05
 -1        41-3.17300E-04-1.17034E-03 4.92704E-04 9.40581E-04-9.16876E-05-5.58373E-05
 -1        42 1.12297E-04-6.83588E-04 3.16319E-04 3.42638E-04 4.56123E-05 3.90472E-05
 -1        43 1.31736E-04-1.02064E-03 2.90138E-04 1.72571E-04 6.48362E-05-2.40097E-05
 -1        44 7.98134E-05-2.86214E-04 1.07555E-04-8.22909E-05 2.71027E-05 3.39735E-05
 -1        45 1.37893E-04-1.91752E-04 2.06941E-05 6.04535E-05 5.54794E-05 2.18575E-05
 -1        46 4.68779E-05 4.81162E-05-5.07386E-05 8.39441E-05 2.43588E-05 1.19874E-05
 -1        47 4.87105E-04-6.83709E-06-1.59834E-04 2.53221E-04-4.56838E-06 4.35118E-05
 -1        48 4.91565E-04-1.41103E-04-1.73932E-04 1.55159E-04 3.41163E-05 6.90462E-06
 -1        49 7.80861E-04-1.05087E-04-2.14775E-04-9.17471E-06-4.38654E-05-1.38710E-06
 -1        50 5.06521E-04-1.40954E-04-1.80001E-04-1.80527E-04 3.35984E-05 1.40025E-06
 -1        51 1.40321E-04-9.24806E-04 2.25714E-04 1.90697E-04-5.94915E-05 2.43734E-05
 -1        52 1.10562E-04-6.83651E-04 3.16852E-04 3.38655E-04-4.45371E-05-3.80789E-05
 -1        53 8.01601E-05-2.87931E-04 1.09866E-04-7.66632E-05-3.55434E-05-3.62252E-05
 -1        54 1.46298E-04-1.84746E-04 1.81208E-05 6.45523E-05-4.48426E-05-2.36179E-05
 -1        55 5.77227E-05 4.26463E-05-5.62077E-05 8.63706E-05-3.16647E-05-1.48436E-05
 -1        56 4.67394E-04-1.81317E-05-1.35690E-04 2.14219E-04 8.04343E-06-2.46233E-05
 -1        57 5.16014E-04-1.43733E-04-1.84405E-04 1.68899E-04-3.98551E-05-4.39737E-06
 -1        58 9.07260E-04-1.60947E-04-2.34130E-04-1.79930E-05 2.99296E-05-5.38692E-06
 -1        59 5.13793E-04-1.43761E-04-1.84351E-04-1.69215E-04-3.04327E-05 3.63678E-06
 -1        60 5.11417E-04 7.34187E-06-1.79388E-04-2.85430E-04 7.46492E-06 2.64409E-05
 -1        61 6.49909E-05 6.45538E-05-6.82299E-05-1.13062E-04-2.68739E-05 1.00484E-05
 -1        62 1.39658E-04-9.95404E-05-8.95050E-06-1.20994E-04-4.66513E-05 2.62676E-05
 -1        63 6.92297E-05-2.22477E-04 8.99907E-05 6.44805E-05-2.02943E-05 3.60642E-05
 -1        64 1.30585E-04-8.00868E-04 2.03975E-04-2.00139E-04-7.21192E-05-3.11036E-05
 -1        65 1.07442E-04-6.20401E-04 2.86195E-04-3.12765E-04-4.43832E-05 3.35170E-05
 -1        66-3.36584E-04-9.88240E-04 4.12412E-04-8.07357E-04 1.87706E-05-8.05362E-05
 -1        67-3.44628E-04-3.36550E-04 3.56268E-04-5.98907E-04-3.19281E-05 6.02591E-05
 -1        68 2.37428E-04-6.44185E-04 7.35811E-05-6.14115E-04 1.38103E-04 1.67829E-04
 -1        69 1.22377E-03-3.81776E-04-3.61309E-04 2.09686E-04 1.04300E-04 2.07866E-04
 -1        70 2.99652E-03-3.73173E-04-7.54678E-04-5.54516E-04-9.87903E-05 9.97802E-05
 -1        71 2.79030E-03-7.17842E-04-8.51854E-04-7.74984E-04 1.43221E-04-1.82398E-04
 -1        72 1.26043E-03-1.00392E-03-1.50219E-04 6.32703E-04 2.08771E-04-1.64211E-04
 -1        73-3.95815E-04-4.07446E-04 4.22611E-04 6.97680E-04-4.85450E-06-1.12689E-04
 -1        74-3.24747E-04-1.17015E-03 4.93508E-04 9.49121E-04 9.73213E-05 5.50409E-05
 -1        75 3.59531E+00-1.21635E+01 3.64391E+00 3.81111E-01 6.26738E-03 2.57598E-03
 -1        76 3.58097E+00-1.20837E+01 3.64409E+00 3.93828E-01 4.75924E-02 1.06799E-02
 -1        77 3.58284E+00-1.20913E+01 3.65015E+00 3.92027E-01-4.53517E-02-1.21125E-02
 -1        78 3.35395E+00-1.11514E+01 3.34726E+00 2.09410E-02-4.94371E-03-7.48776E-03
 -1        79 3.20032E+00-1.06633E+01 3.19641E+00 6.64484E-03-1.95500E-03 3.20240E-03
 -1        80 3.06279E+00-1.02075E+01 3.06239E+00 1.11424E-02-5.57272E-03-1.70642E-03
 -1        81 2.92452E+00-9.74781E+00 2.92421E+00 1.27095E-02-5.07332E-03-1.16548E-03
 -1        82 2.78509E+00-9.28196E+00 2.78448E+00 2.61207E-02-4.62649E-03-1.11531E-04
 -1        83 2.64791E+00-8.82656E+00 2.64877E+00 1.10583E-02-4.93563E-03-2.57194E-04
 -1        84 2.51877E+00-8.39382E+00 2.51732E+00 9.08883E-03-5.77510E-03 1.40402E-03
 -1        85 2.38939E+00-7.96596E+00 2.38875E+00 1.30226E-02-6.59668E-03 2.93013E-03
 -1        86 2.26657E+00-7.55455E+00 2.26626E+00 1.41320E-02-5.09344E-03 1.75428E-03
 -1        87 2.14402E+00-7.14916E+00 2.14488E+00 9.48243E-03-5.38292E-03 2.06914E-03
 -1        88 2.02855E+00-6.75828E+00 2.02778E+00 1.05359E-02-4.40207E-03-1.42972E-03
 -1        89 1.91341E+00-6.37621E+00 1.91242E+00 1.19624E-02-4.63566E-03 6.67284E-04
 -1        90 1.80119E+00-6.00618E+00 1.80236E+00 9.04022E-03-4.65023E-03 8.81640E-04
 -1        91 1.69562E+00-5.64863E+00 1.69485E+00 9.57015E-03-3.10635E-03-7.69857E-04
 -1        92 1.58955E+00-5.29838E+00 1.58839E+00 1.10388E-02-4.29921E-03 2.11127E-03
 -1        93 1.48913E+00-4.96317E+00 1.49018E+00 8.70467E-03-5.61399E-03-2.12681E-03
 -1        94 1.39201E+00-4.63757E+00 1.39068E+00 8.89460E-03-2.67960E-03-4.45541E-04
 -1        95 1.29701E+00-4.32188E+00 1.29617E+00 1.05401E-02-3.83688E-03 9.74430E-04
 -1        96 1.20486E+00-4.01755E+00 1.20517E+00 7.25486E-03-4.17157E-03 1.83261E-03
 -1        97 1.11854E+00-3.72586E+00 1.11820E+00 8.08234E-03-3.26563E-03-1.54335E-03
 -1        98 1.03345E+00-3.44347E+00 1.03257E+00 9.37230E-03-3.36153E-03 7.99720E-04
 -1        99 9.50980E-01-3.17199E+00 9.51941E-01 6.04298E-03-3.33276E-03 7.28735E-04
 -1       100 8.74922E-01-2.91382E+00 8.74365E-01 7.35679E-03-2.46990E-03-7.69664E-04
 -1       101 7.99579E-01-2.66423E+00 7.98652E-01 8.10727E-03-2.98724E-03 1.40728E-03
 -1       102 7.27526E-01-2.42606E+00 7.27818E-01 6.15682E-03-3.60919E-03 5.33965E-04
 -1       103 6.61030E-01-2.20111E+00 6.60517E-01 5.86431E-03-1.80151E-03-8.24023E-04
 -1       104 5.95825E-01-1.98524E+00 5.94824E-01 6.96237E-03-2.84361E-03 1.58537E-03
 -1       105 5.33509E-01-1.78007E+00 5.34012E-01 4.66004E-03-2.61131E-03 7.12105E-04
 -1       106 4.76958E-01-1.58777E+00 4.76624E-01 5.27334E-03-1.72584E-03-1.05444E-03
 -1       107 4.21964E-01-1.40482E+00 4.20977E-01 5.90762E-03-2.06512E-03 8.67862E-04
 -1       108 3.70106E-01-1.23393E+00 3.70199E-01 4.17766E-03-2.45161E-03 6.46091E-04
 -1       109 3.21628E-01-1.07267E+00 3.21529E-01 4.68824E-03-2.95204E-03 7.63307E-04
 -1       110 2.78619E-01-9.26096E-01 2.77577E-01 9.44695E-03 1.04624E-05-1.66005E-04
 -1       111 2.36461E-01-7.86886E-01 2.36528E-01 3.38351E-03-2.09405E-03-1.04540E-03
 -1       112 1.97370E-01-6.58089E-01 1.97028E-01 3.71463E-03-1.74520E-03 6.73084E-04
 -1       113 1.63304E-01-5.43427E-01 1.62881E-01 4.04550E-03-1.64232E-03 3.81068E-04
 -1       114 1.31339E-01-4.38345E-01 1.31536E-01 2.55963E-03-1.37070E-03 5.57518E-04
 -1       115 1.03718E-01-3.44906E-01 1.03399E-01 2.61575E-03-1.06806E-03-1.12662E-04
 -1       116 7.91495E-02-2.62007E-01 7.85480E-02 2.28737E-03-7.59291E-04-5.80164E-04
 -1       117 5.70767E-02-1.89870E-01 5.71016E-02 1.49583E-03-8.47308E-04-3.96372E-04
 -1       118 3.88819E-02-1.29136E-01 3.85675E-02 1.59268E-03-5.49118E-04-1.17744E-04
 -1       119 2.47396E-02-8.05636E-02 2.40939E-02 1.19305E-03-2.42886E-04-3.00589E-04
 -1       120 1.26692E-02-4.20547E-02 1.25104E-02 6.15749E-04-4.28907E-04-2.17295E-06
 -1       121 5.15207E-03-1.66535E-02 4.98738E-03 6.19539E-04-6.39549E-05-1.36978E-04
 -1       122 1.09801E-03-2.56926E-03 6.75459E-04-3.91970E-04 1.16919E-05-2.21510E-05
 -1       123 3.44030E+00-1.15727E+01 3.47959E+00 1.76943E-01-2.34286E-02-8.47469E-03
 -1       124 3.26263E+00-1.08919E+01 3.27026E+00 1.39227E-02-3.40382E-03-3.26945E-03
 -1       125 3.13127E+00-1.04360E+01 3.13033E+00 9.94633E-03-5.43725E-03 2.75695E-04
 -1       126 2.99430E+00-9.97589E+00 2.99292E+00 1.57085E-02-5.79367E-03-2.01120E-03
 -1       127 2.85192E+00-9.50866E+00 2.85366E+00 1.74242E-02-7.88320E-03-2.67825E-03
 -1       128 2.71824E+00-9.05835E+00 2.71652E+00 1.71650E-02-7.76288E-03 2.14769E-03
 -1       129 2.58347E+00-8.61076E+00 2.58288E+00 1.14155E-02-5.80303E-03 1.04272E-03
 -1       130 2.45333E+00-8.17908E+00 2.45330E+00 1.32226E-02-6.90073E-03 2.60808E-03
 -1       131 2.32856E+00-7.76022E+00 2.32807E+00 1.74861E-02-6.63467E-03 3.14398E-03
 -1       132 2.20591E+00-7.35110E+00 2.20540E+00 1.52484E-02-6.09592E-03 1.65538E-03
 -1       133 2.08584E+00-6.95284E+00 2.08632E+00 9.13847E-03-6.24035E-03-4.47073E-04
 -1       134 1.97223E+00-6.56595E+00 1.96983E+00 1.37885E-02-5.27357E-03 9.68014E-04
 -1       135 1.85758E+00-6.19139E+00 1.85769E+00 1.35515E-02-5.73154E-03 7.91307E-04
 -1       136 1.74747E+00-5.82641E+00 1.74851E+00 8.49105E-03-5.21022E-03-6.36613E-04
 -1       137 1.64401E+00-5.47187E+00 1.64094E+00 1.21643E-02-4.05275E-03 1.39659E-03
 -1       138 1.53942E+00-5.13020E+00 1.53901E+00 1.47617E-02-4.84562E-03-2.32866E-04
 -1       139 1.43955E+00-4.79902E+00 1.44028E+00 8.52447E-03-5.21815E-03-2.21621E-03
 -1       140 1.34484E+00-4.47817E+00 1.34345E+00 1.15020E-02-4.33934E-03 1.40800E-03
 -1       141 1.25152E+00-4.16898E+00 1.25054E+00 1.13639E-02-4.83505E-03 1.00973E-03
 -1       142 1.16110E+00-3.87083E+00 1.16164E+00 8.24485E-03-4.26363E-03-3.93069E-04
 -1       143 1.07648E+00-3.58354E+00 1.07528E+00 1.03850E-02-3.81480E-03 7.47658E-04
 -1       144 9.92993E-01-3.30741E+00 9.92338E-01 1.02170E-02-4.19045E-03 6.93480E-04
 -1       145 9.11820E-01-3.04229E+00 9.13237E-01 6.08779E-03-3.81852E-03-5.37592E-04
 -1       146 8.38157E-01-2.78752E+00 8.35990E-01 8.99648E-03-3.03836E-03 8.52249E-04
 -1       147 7.63229E-01-2.54471E+00 7.63279E-01 9.84024E-03-3.44228E-03 8.33362E-04
 -1       148 6.93922E-01-2.31289E+00 6.94023E-01 5.54218E-03-3.64645E-03-7.73746E-04
 -1       149 6.29553E-01-2.09193E+00 6.27214E-01 7.40419E-03-2.55792E-03 1.10038E-03
 -1       150 5.64205E-01-1.88222E+00 5.64533E-01 8.43192E-03-3.01259E-03 1.02285E-03
 -1       151 5.04752E-01-1.68345E+00 5.05192E-01 4.50137E-03-2.91612E-03-7.36499E-04
 -1       152 4.50212E-01-1.49507E+00 4.48354E-01 6.35723E-03-2.19484E-03 5.66486E-04
 -1       153 3.95852E-01-1.31862E+00 3.95616E-01 6.94063E-03-2.46847E-03 6.37265E-04
 -1       154 3.45705E-01-1.15266E+00 3.45832E-01 4.62574E-03-2.80894E-03 8.17088E-04
 -1       155 2.99872E-01-9.96736E-01 2.99331E-01 7.79830E-03-2.79682E-03-1.13702E-03
 -1       156 2.57247E-01-8.56912E-01 2.56757E-01 7.45365E-03-1.76971E-03 1.28528E-04
 -1       157 2.16174E-01-7.21353E-01 2.16475E-01 3.74288E-03-2.18331E-03-2.40136E-04
 -1       158 1.80677E-01-6.00408E-01 1.80056E-01 5.01972E-03-1.85019E-03 7.23704E-04
 -1       159 1.47522E-01-4.90364E-01 1.47126E-01 4.27241E-03-1.80146E-03 2.32591E-04
 -1       160 1.16911E-01-3.90505E-01 1.17366E-01 2.61031E-03-1.36788E-03-1.97324E-04
 -1       161 9.16798E-02-3.02488E-01 9.06776E-02 2.97538E-03-9.53945E-04-4.89322E-04
 -1       162 6.79064E-02-2.24960E-01 6.74430E-02 2.60694E-03-9.73611E-04-5.59326E-04
 -1       163 4.73584E-02-1.58277E-01 4.76556E-02 1.44224E-03-1.14377E-03-6.71730E-04
 -1       164 3.18828E-02-1.03997E-01 3.11112E-02 1.47424E-03-6.05793E-04-2.96534E-04
 -1       165 1.86813E-02-6.01852E-02 1.79181E-02 1.36726E-03-4.91336E-04-2.60146E-05
 -1       166 8.34359E-03-2.84960E-02 8.67376E-03 6.37295E-04-3.61404E-04-4.19576E-04
 -1       167 3.36627E-03-8.76813E-03 2.51425E-03 1.01209E-05-2.21833E-05 1.03455E-04
 -1       168 2.15836E-05 7.64937E-04-2.26700E-04-1.74378E-04 8.02755E-05-3.16820E-05
 -1       169-4.08931E-04 2.46436E-03-7.42009E-04-2.67441E-05-1.56684E-06-1.08251E-05
 -1       170-8.61282E-04 2.74044E-03-7.28058E-04-1.46383E-04-1.26426E-04 1.80844E-05
 -1       171-8.35774E-04 2.75752E-03-7.61745E-04-1.11470E-04 1.54530E-04-2.72995E-05
 -1       172 3.34848E+00-1.11425E+01 3.34479E+00 1.87702E-02 6.03499E-03 3.01557E-03
 -1       173 3.19984E+00-1.06621E+01 3.19703E+00 6.72676E-03 2.77625E-03-1.50041E-03
 -1       174 3.06273E+00-1.02076E+01 3.06202E+00 1.11270E-02 5.65558E-03 7.31891E-04
 -1       175 2.92473E+00-9.74739E+00 2.92385E+00 1.38908E-02 5.61622E-03 5.76753E-04
 -1       176 2.78560E+00-9.28201E+00 2.78453E+00 2.59218E-02 3.99871E-03 1.20126E-04
 -1       177 2.64719E+00-8.82586E+00 2.64781E+00 1.10845E-02 4.90211E-03-1.13386E-03
 -1       178 2.51708E+00-8.39228E+00 2.51751E+00 9.18328E-03 5.89879E-03-1.12356E-03
 -1       179 2.39271E+00-7.97120E+00 2.39223E+00 1.24440E-02 3.71902E-03 1.40685E-03
 -1       180 2.26537E+00-7.55160E+00 2.26455E+00 1.39461E-02 5.38433E-03-2.73813E-03
 -1       181 2.14403E+00-7.14967E+00 2.14505E+00 1.01777E-02 5.70974E-03-1.64301E-03
 -1       182 2.02872E+00-6.75900E+00 2.02841E+00 1.01447E-02 3.67665E-03 1.82668E-03
 -1       183 1.91286E+00-6.37540E+00 1.91161E+00 1.26700E-02 4.35882E-03-2.15721E-03
 -1       184 1.80085E+00-6.00572E+00 1.80164E+00 9.29994E-03 5.12803E-03-2.12492E-03
 -1       185 1.69575E+00-5.64893E+00 1.69518E+00 9.70787E-03 3.78523E-03 1.77074E-03
 -1       186 1.59019E+00-5.29927E+00 1.58885E+00 1.16118E-02 4.74135E-03-8.97622E-04
 -1       187 1.48949E+00-4.96381E+00 1.48977E+00 8.51005E-03 5.79333E-03 1.10496E-03
 -1       188 1.39194E+00-4.63680E+00 1.39171E+00 9.32919E-03 2.81586E-03 2.15104E-03
 -1       189 1.29649E+00-4.32083E+00 1.29549E+00 1.02670E-02 3.58061E-03-1.74748E-03
 -1       190 1.20440E+00-4.01735E+00 1.20548E+00 7.69735E-03 4.13428E-03-7.97997E-04
 -1       191 1.11886E+00-3.72609E+00 1.11813E+00 8.17970E-03 2.69412E-03 9.41832E-04
 -1       192 1.03342E+00-3.44300E+00 1.03216E+00 9.22801E-03 3.26772E-03-1.54940E-03
 -1       193 9.51091E-01-3.17222E+00 9.51613E-01 6.80024E-03 3.79130E-03-1.40852E-03
 -1       194 8.74860E-01-2.91378E+00 8.74510E-01 7.09154E-03 2.80707E-03 1.34764E-03
 -1       195 7.99474E-01-2.66437E+00 7.98721E-01 7.83019E-03 3.00239E-03-8.84346E-04
 -1       196 7.29001E-01-2.42877E+00 7.29248E-01 5.76392E-03 3.93330E-03 6.97465E-04
 -1       197 6.60694E-01-2.20049E+00 6.60317E-01 5.90670E-03 2.14452E-03 1.00779E-03
 -1       198 5.95776E-01-1.98443E+00 5.94910E-01 6.92489E-03 2.66373E-03-3.03328E-04
 -1       199 5.35170E-01-1.78195E+00 5.35183E-01 4.45360E-03 3.12611E-03 1.06391E-03
 -1       200 4.76453E-01-1.58724E+00 4.76279E-01 5.45050E-03 2.19587E-03 7.53300E-04
 -1       201 4.21735E-01-1.40508E+00 4.21240E-01 5.98127E-03 2.19168E-03-5.95295E-04
 -1       202 3.69761E-01-1.23356E+00 3.70155E-01 3.86114E-03 2.18805E-03-8.78940E-04
 -1       203 3.22642E-01-1.07436E+00 3.22172E-01 4.08169E-03 1.70333E-03 1.09745E-04
 -1       204 2.78589E-01-9.25709E-01 2.77357E-01 9.38954E-03-1.34328E-04 1.42989E-04
 -1       205 2.36129E-01-7.86199E-01 2.36047E-01 3.39463E-03 2.06614E-03 6.84775E-04
 -1       206 1.98309E-01-6.59578E-01 1.98061E-01 3.66883E-03 1.13483E-03 7.13810E-04
 -1       207 1.63392E-01-5.43258E-01 1.62666E-01 3.89114E-03 1.42906E-03-5.82262E-04
 -1       208 1.31534E-01-4.38371E-01 1.31475E-01 2.68679E-03 1.48776E-03-4.43466E-04
 -1       209 1.03233E-01-3.43958E-01 1.02982E-01 3.00395E-03 1.80718E-03-3.40274E-04
 -1       210 7.90719E-02-2.62019E-01 7.86136E-02 2.51904E-03 1.01228E-03 4.21431E-04
 -1       211 5.72293E-02-1.90146E-01 5.70886E-02 1.48031E-03 9.23830E-04 2.52175E-04
 -1       212 3.88703E-02-1.29117E-01 3.87076E-02 1.46956E-03 5.25740E-04 3.17784E-04
 -1       213 2.45414E-02-8.03044E-02 2.40183E-02 1.29437E-03 4.62885E-04 2.02955E-04
 -1       214 1.30387E-02-4.27182E-02 1.28327E-02 3.47552E-04 1.89524E-04 7.40402E-05
 -1       215 5.16394E-03-1.66384E-02 4.98657E-03 5.98221E-04 1.12673E-04 1.61564E-04
 -1       216 9.71409E-04-2.37850E-03 6.71914E-04-4.03072E-04-1.05173E-05 8.87814E-05
 -1       217 3.43589E+00-1.15602E+01 3.47741E+00 1.70321E-01 2.91438E-02 3.82189E-03
 -1       218 3.26316E+00-1.08903E+01 3.26884E+00 1.40076E-02 4.16831E-03 1.63010E-03
 -1       219 3.13077E+00-1.04356E+01 3.13046E+00 9.03489E-03 6.15100E-03 4.44049E-05
 -1       220 2.99356E+00-9.97554E+00 2.99235E+00 1.50474E-02 6.41386E-03 1.27607E-03
 -1       221 2.85394E+00-9.50818E+00 2.85320E+00 1.80570E-02 7.55288E-03 2.86472E-03
 -1       222 2.71708E+00-9.05723E+00 2.71595E+00 1.72843E-02 6.75961E-03-2.57045E-03
 -1       223 2.58220E+00-8.61028E+00 2.58325E+00 1.26838E-02 6.07988E-03-1.85307E-03
 -1       224 2.45301E+00-8.18037E+00 2.45510E+00 1.10827E-02 6.25321E-03 7.95046E-04
 -1       225 2.33154E+00-7.75966E+00 2.32809E+00 1.56735E-02 4.74033E-03-2.18870E-03
 -1       226 2.20388E+00-7.35051E+00 2.20546E+00 1.62248E-02 6.21504E-03-1.88350E-03
 -1       227 2.08506E+00-6.95372E+00 2.08684E+00 9.05544E-03 6.24679E-03 1.95623E-04
 -1       228 1.97216E+00-6.56614E+00 1.96965E+00 1.36214E-02 4.35977E-03-1.16053E-03
 -1       229 1.85691E+00-6.19012E+00 1.85701E+00 1.48832E-02 5.58181E-03-1.83582E-03
 -1       230 1.74775E+00-5.82652E+00 1.74850E+00 9.54340E-03 5.21907E-03 2.64046E-04
 -1       231 1.64366E+00-5.47284E+00 1.64209E+00 1.30563E-02 4.62524E-03-9.36220E-04
 -1       232 1.54008E+00-5.13063E+00 1.53904E+00 1.37199E-02 6.41771E-03 2.30342E-04
 -1       233 1.43989E+00-4.79916E+00 1.43987E+00 9.68485E-03 5.18448E-03 3.06877E-03
 -1       234 1.34573E+00-4.47746E+00 1.34323E+00 1.12496E-02 3.76808E-03-7.76673E-04
 -1       235 1.25044E+00-4.16901E+00 1.25104E+00 1.23474E-02 4.41562E-03-1.36872E-03
 -1       236 1.16072E+00-3.87102E+00 1.16187E+00 6.94607E-03 4.58875E-03 4.30623E-04
 -1       237 1.07711E+00-3.58284E+00 1.07458E+00 1.01402E-02 3.33841E-03-9.24110E-04
 -1       238 9.92077E-01-3.30711E+00 9.92187E-01 1.11183E-02 4.00088E-03-1.25201E-03
 -1       239 9.12482E-01-3.04228E+00 9.13075E-01 7.07002E-03 3.84688E-03 2.93360E-04
 -1       240 8.37704E-01-2.78791E+00 8.36498E-01 8.93759E-03 3.25892E-03-6.21859E-04
 -1       241 7.64242E-01-2.54554E+00 7.63826E-01 9.55501E-03 4.05576E-03 2.62621E-04
 -1       242 6.94350E-01-2.31311E+00 6.94472E-01 6.17074E-03 3.65802E-03 1.46911E-03
 -1       243 6.28777E-01-2.09146E+00 6.27548E-01 7.83771E-03 2.82312E-03-5.73016E-04
 -1       244 5.65724E-01-1.88212E+00 5.64792E-01 8.05208E-03 3.37175E-03 9.90954E-04
 -1       245 5.05074E-01-1.68332E+00 5.05321E-01 5.48261E-03 3.26754E-03 1.32281E-03
 -1       246 4.49577E-01-1.49522E+00 4.48665E-01 6.75631E-03 2.48023E-03-5.78803E-04
 -1       247 3.96070E-01-1.31885E+00 3.95780E-01 6.44634E-03 2.74047E-03-5.66005E-04
 -1       248 3.45689E-01-1.15299E+00 3.46173E-01 3.83719E-03 2.27701E-03 5.58407E-05
 -1       249 3.00558E-01-9.96552E-01 2.99174E-01 7.01703E-03 2.09737E-03 8.10728E-04
 -1       250 2.57084E-01-8.56398E-01 2.56452E-01 7.48465E-03 1.93689E-03-5.68848E-05
 -1       251 2.16567E-01-7.21791E-01 2.16705E-01 3.52504E-03 2.14585E-03 1.23239E-03
 -1       252 1.81522E-01-6.00289E-01 1.80071E-01 4.33037E-03 1.41665E-03-6.68304E-04
 -1       253 1.47532E-01-4.90138E-01 1.47048E-01 4.38939E-03 1.56823E-03-3.76298E-04
 -1       254 1.16997E-01-3.90165E-01 1.17151E-01 3.21166E-03 1.45920E-03-4.86480E-04
 -1       255 9.12102E-02-3.02538E-01 9.07635E-02 3.41705E-03 1.65292E-03 5.13798E-04
 -1       256 6.79401E-02-2.24999E-01 6.74069E-02 2.64061E-03 1.26247E-03 5.00439E-04
 -1       257 4.76888E-02-1.58548E-01 4.76468E-02 1.53533E-03 1.10744E-03 6.72018E-04
 -1       258 3.18353E-02-1.03858E-01 3.11188E-02 1.41295E-03 7.19199E-04 3.51524E-04
 -1       259 1.87291E-02-6.04475E-02 1.80975E-02 1.12073E-03 5.49280E-04 2.64946E-04
 -1       260 8.67841E-03-2.84694E-02 8.71162E-03 5.30146E-04 4.29866E-04 2.39972E-04
 -1       261 3.32678E-03-8.72263E-03 2.53969E-03 1.24428E-04 3.28507E-05-1.01803E-04
 -1       262-1.52136E-04 8.14662E-04-2.51007E-04-2.34817E-04-7.55460E-05 7.68074E-05
 -1       263 5.70136E-02-4.60024E+00 1.90567E+00 3.58852E+00-3.19128E-01 1.40205E-01
 -1       264 1.04536E+00-6.96926E+00 2.57356E+00 3.71170E+00-3.66176E-02 3.37544E-02
 -1       265 2.37430E+00-9.93263E+00 3.24812E+00 3.22575E+00-3.74353E-02 2.58921E-02
 -1       266 3.44362E+00-1.22071E+01 3.75199E+00 1.96762E+00-1.16635E-02-7.02863E-03
 -1       267-1.15378E-01-3.52657E+00 1.48586E+00 2.97728E+00-4.07856E-01 1.98640E-01
 -1       268 5.64177E-01-5.69957E+00 2.21619E+00 3.73565E+00-1.69864E-01 1.18214E-01
 -1       269 1.68944E+00-8.50399E+00 2.90017E+00 3.59165E+00-9.53923E-02 1.14385E-02
 -1       270 3.01588E+00-1.12707E+01 3.53174E+00 2.70830E+00-6.28417E-02-2.16377E-02
 -1       271 3.64179E+00-1.24955E+01 3.77665E+00 1.12470E+00 3.97013E-02 2.45323E-03
 -1       272-8.39296E-01-2.11558E+00 1.23546E+00 2.50543E+00 9.54229E-05 6.10528E-04
 -1       273-8.72646E-01-1.90368E+00 1.13633E+00 2.35891E+00 3.42509E-01-2.77475E-01
 -1       274-8.74493E-01-1.90259E+00 1.13752E+00 2.35995E+00-3.40164E-01 2.77450E-01
 -1       275 3.45811E-02-4.59752E+00 1.92012E+00 3.61640E+00 3.23590E-01-1.42532E-01
 -1       276 1.06610E+00-6.94390E+00 2.56642E+00 3.71400E+00 4.52146E-02-5.39339E-02
 -1       277 2.39078E+00-9.94339E+00 3.26541E+00 3.24054E+00-1.10489E-03-3.68791E-02
 -1       278 3.43595E+00-1.22204E+01 3.75539E+00 1.91337E+00 5.85914E-02 3.23130E-03
 -1       279-1.35047E-01-3.53775E+00 1.49680E+00 2.98270E+00 4.20447E-01-2.06689E-01
 -1       280 5.65146E-01-5.67010E+00 2.22567E+00 3.71636E+00 1.93979E-01-1.18444E-01
 -1       281 1.71148E+00-8.46070E+00 2.89797E+00 3.62760E+00 6.60827E-02-5.08679E-02
 -1       282 3.02613E+00-1.13285E+01 3.55195E+00 2.68148E+00 2.57327E-02-3.65580E-02
 -1       283 3.64424E+00-1.24676E+01 3.76538E+00 1.09115E+00-8.96399E-04 1.22303E-02
 -1       284-6.72632E-04 2.23935E-03-6.80898E-04 1.38585E-04-2.21955E-04-3.92414E-05
 -1       285-1.93817E-04 1.12082E-03-4.15969E-04 5.59167E-04-4.03768E-05-2.42203E-05
 -1       286-7.31651E-04 2.70540E-03-8.01763E-04-7.16388E-05-1.76273E-04-3.53389E-05
 -1       287-3.69528E-04 1.49144E-03-4.97395E-04 4.42096E-04-1.72566E-04-4.73052E-05
 -1       288-2.68725E-04 1.28187E-03-4.15859E-04 6.47327E-04-3.43262E-05 2.77623E-05
 -1       289-6.80196E-04 2.25401E-03-6.81942E-04 1.41708E-04 2.14897E-04 3.78307E-05
 -1       290-1.91240E-04 1.11409E-03-4.16223E-04 5.56184E-04 3.87231E-05 2.34994E-05
 -1       291-7.29180E-04 2.69333E-03-7.99972E-04-4.03249E-05 1.64575E-04 4.86263E-05
 -1       292-3.71013E-04 1.49390E-03-4.98089E-04 4.41526E-04 1.70216E-04 4.72869E-05
 -1       293-2.61234E-04 1.27077E-03-4.18167E-04 6.46840E-04 2.64927E-05-3.22523E-05
 -1       294 2.46572E-04 7.86703E-04-2.58958E-04 9.08372E-04 1.27133E-06 1.40741E-07
 -1       295 4.16061E-04 7.61512E-04-3.03606E-04 9.94556E-04 8.83260E-05 4.23225E-06
 -1       296 4.11427E-04 7.52075E-04-3.02024E-04 1.01061E-03-9.56270E-05-7.82488E-07
 -1       297 2.89297E-01-3.52497E+00 1.12148E+00 1.92943E+00-1.13941E+00 5.41411E-01
 -1       298 6.10214E-01-3.83335E+00 8.68803E-01 7.86761E-01-1.46724E+00 5.05678E-01
 -1       299 4.96281E-01-2.76525E+00 4.01504E-01-3.00706E-01-1.07081E+00 6.18882E-02
 -1       300 1.07231E-01-9.73668E-01 1.57828E-01-9.67825E-01-4.07255E-01-2.33045E-01
 -1       301-2.12641E-01 9.27561E-01-1.18993E-01-8.56093E-01 3.58905E-01-2.77239E-01
 -1       302-5.74163E-01 2.71203E+00-3.28636E-01-3.39609E-01 9.96763E-01 5.06191E-02
 -1       303-6.72132E-01 3.62448E+00-6.05517E-01 8.32809E-01 1.46754E+00 4.11060E-01
 -1       304-2.09023E-01 3.57931E+00-1.00055E+00 2.06728E+00 1.41244E+00 8.32693E-01
 -1       305-5.61503E-01-2.21211E+00 8.96119E-01 2.05694E+00-1.09388E+00 7.72700E-01
 -1       306 4.65066E-01-3.98471E+00 1.01545E+00 1.42281E+00-1.32101E+00 5.09178E-01
 -1       307 5.03634E-01-3.21565E+00 5.24403E-01 2.97357E-01-1.34026E+00 3.23878E-01
 -1       308 1.92342E-01-1.82591E+00 2.47092E-01-6.55326E-01-8.50586E-01-6.19407E-03
 -1       309-7.50511E-02-2.88133E-02 3.60095E-02-9.56394E-01-1.80031E-02-2.29002E-01
 -1       310-3.29643E-01 1.87230E+00-2.11475E-01-5.98767E-01 6.27371E-01-7.11892E-02
 -1       311-6.18077E-01 3.35707E+00-4.06230E-01 3.83672E-01 1.25803E+00 2.09674E-01
 -1       312-3.53295E-01 3.73989E+00-4.25989E-01 1.52096E+00 1.98630E+00 9.60296E-01
 -1       313 4.47273E-01 2.58433E+00-9.67919E-01 2.13508E+00 1.15872E+00 8.01036E-01
 -1       314 1.88949E-04 2.27765E-04-3.01826E-05 1.25874E-04-1.30078E-04 1.70180E-04
 -1       315-1.54654E-05-5.49152E-04 2.51256E-04-8.26815E-04 1.17584E-04 1.76210E-04
 -1       316-2.24082E-03 5.59791E-04 6.00450E-04-6.00981E-04 6.92335E-05 1.59864E-05
 -1       317-3.68370E-03 1.17418E-03 8.40155E-04 3.55395E-04 1.66032E-04 1.42826E-04
 -1       318-4.29849E-04-1.31537E-03 4.76418E-04 7.54247E-04 5.41059E-04-1.58643E-04
 -1       319 3.49009E-04 2.64881E-04 1.90557E-04 6.62920E-04-4.22282E-04-6.04066E-04
 -1       320 1.11697E-04 5.87851E-04-1.74443E-04 4.86214E-04-1.56049E-04 4.24681E-05
 -1       321 2.49601E-04-1.87530E-04 1.58905E-04-5.02288E-04 3.35219E-06 4.43968E-04
 -1       322-8.90589E-04-2.40186E-04 4.77677E-04-5.86159E-04 1.97302E-04 9.29567E-06
 -1       323-3.36523E-03 1.22434E-03 7.66903E-04-6.47525E-05-2.04390E-05 2.62577E-04
 -1       324-2.02374E-03-5.56649E-04 7.89564E-04 1.42951E-04 4.16192E-04 1.14408E-04
 -1       325 3.40023E-04-7.36150E-04 3.66764E-04 1.27614E-03 2.52843E-04-8.85076E-04
 -1       326 1.19625E-04 7.24406E-04-7.31129E-05-3.07594E-04-2.72926E-04-1.86637E-04
 -1       327-4.72365E-05 8.72266E-04-4.82611E-04-4.99718E-04-2.78108E-04 9.45033E-05
 -1       328-2.91269E-04 6.50858E-03-2.64357E-03 2.70609E-03-1.46732E-03 1.53657E-04
 -1       329-3.31017E-04 1.29857E-03-4.72184E-04-7.02325E-04-1.00045E-05-2.42993E-05
 -1       330-9.27720E-04 3.72307E-03-1.30398E-03-6.14910E-04-1.00618E-03 2.59477E-04
 -1       331-5.87227E-03 7.79182E-03 6.24008E-04-3.20544E-03 8.84440E-04-1.70931E-03
 -1       332-4.51421E-02 1.44785E-03 1.87427E-02 2.35207E-03-1.35261E-03-9.29427E-05
 -1       333-5.05076E-02 2.26233E-02 1.19448E-02 1.64521E-03-7.54761E-04-1.71247E-04
 -1       334-5.99784E-02 5.42919E-02 2.44744E-03 1.63175E-03-3.06226E-04-4.16311E-05
 -1       335-7.21076E-02 9.53440E-02-1.00347E-02 8.25219E-04-4.43605E-04-1.15478E-05
 -1       336-8.71787E-02 1.45837E-01-2.50048E-02 1.70751E-03-1.05204E-03-3.88892E-04
 -1       337-1.05773E-01 2.08154E-01-4.39654E-02 1.72785E-03-9.52584E-04-2.18525E-04
 -1       338-1.28189E-01 2.81669E-01-6.57051E-02 2.90147E-03-1.22054E-03-5.10719E-04
 -1       339-1.52880E-01 3.64924E-01-9.06806E-02 3.28918E-03-1.35152E-03-3.24008E-04
 -1       340-1.82412E-01 4.62677E-01-1.20597E-01 2.41590E-03-1.40816E-03 6.45907E-04
 -1       341-2.14289E-01 5.69001E-01-1.51786E-01 3.81691E-03-1.54829E-03-2.81856E-04
 -1       342-2.50159E-01 6.87882E-01-1.87968E-01 3.62309E-03-1.29216E-03 6.94543E-04
 -1       343-2.88251E-01 8.16880E-01-2.26428E-01 3.54957E-03-2.04038E-03-7.28882E-04
 -1       344-3.31062E-01 9.57548E-01-2.68319E-01 5.13535E-03-1.78898E-03-6.58800E-04
 -1       345-3.77038E-01 1.11063E+00-3.14647E-01 4.68378E-03-9.90508E-04 8.27585E-04
 -1       346-4.25992E-01 1.27467E+00-3.64353E-01 4.33451E-03-2.80990E-03 9.88007E-04
 -1       347-4.77667E-01 1.44812E+00-4.15575E-01 6.25696E-03-2.65269E-03-1.16145E-03
 -1       348-5.33890E-01 1.63404E+00-4.71504E-01 6.32206E-03-3.00382E-03-8.29982E-04
 -1       349-5.92683E-01 1.83186E+00-5.31159E-01 5.48915E-03-2.77235E-03-9.74793E-04
 -1       350-6.55647E-01 2.04052E+00-5.93318E-01 7.06823E-03-2.60878E-03-9.00978E-04
 -1       351-7.22321E-01 2.26152E+00-6.59783E-01 6.40334E-03-2.09338E-03 6.93774E-04
 -1       352-7.91463E-01 2.49260E+00-7.30011E-01 6.03322E-03-4.09352E-03 1.33597E-03
 -1       353-8.63031E-01 2.73248E+00-8.00483E-01 7.87874E-03-3.17489E-03-1.37909E-03
 -1       354-9.40855E-01 2.98919E+00-8.78611E-01 7.05780E-03-2.28070E-03 8.56382E-04
 -1       355-1.01874E+00 3.25246E+00-9.57204E-01 5.12510E-03-3.73991E-03-1.02224E-03
 -1       356-1.10180E+00 3.52848E+00-1.03983E+00 7.77290E-03-3.21258E-03-5.61977E-04
 -1       357-1.18928E+00 3.81712E+00-1.12671E+00 7.82949E-03-3.31114E-03 1.03635E-03
 -1       358-1.27712E+00 4.11429E+00-1.21555E+00 5.93667E-03-4.21618E-03-9.91957E-04
 -1       359-1.37039E+00 4.42466E+00-1.30817E+00 8.83896E-03-2.85332E-03-1.67811E-03
 -1       360-1.46870E+00 4.74816E+00-1.40618E+00 8.80080E-03-3.59535E-03 1.61161E-03
 -1       361-1.56710E+00 5.07962E+00-1.50469E+00 6.40159E-03-4.70539E-03-1.98496E-03
 -1       362-1.66954E+00 5.42154E+00-1.60791E+00 9.88063E-03-3.45399E-03-2.04979E-04
 -1       363-1.77802E+00 5.77917E+00-1.71584E+00 9.34544E-03-3.68370E-03 2.18916E-03
 -1       364-1.88588E+00 6.14363E+00-1.82457E+00 7.94469E-03-5.91281E-03-7.21510E-04
 -1       365-1.99855E+00 6.52027E+00-1.93703E+00 1.09490E-02-3.73532E-03-1.81749E-03
 -1       366-2.11840E+00 6.91290E+00-2.05600E+00 9.78635E-03-3.73217E-03 2.34683E-03
 -1       367-2.23712E+00 7.31146E+00-2.17383E+00 7.88193E-03-5.54765E-03-1.67084E-03
 -1       368-2.35832E+00 7.71754E+00-2.29724E+00 1.00991E-02-3.80548E-03-3.98797E-04
 -1       369-2.48794E+00 8.14497E+00-2.42489E+00 2.30999E-02-3.84593E-03 3.72512E-04
 -1       370-2.61904E+00 8.58268E+00-2.55597E+00 1.50648E-02-5.38995E-03 1.55645E-03
 -1       371-2.75157E+00 9.02440E+00-2.68921E+00 1.55317E-02-6.90676E-03 1.63059E-03
 -1       372-2.88524E+00 9.47263E+00-2.82242E+00 1.58370E-02-6.64922E-03-1.20731E-03
 -1       373-3.02411E+00 9.93498E+00-2.96172E+00 1.40315E-02-5.29263E-03-1.78323E-03
 -1       374-3.17687E+00 1.04304E+01-3.10753E+00 1.97701E-02-2.14737E-03-4.31734E-04
 -1       375-3.37438E+00 1.10218E+01-3.28071E+00-5.79556E-03 1.62064E-03 5.69869E-03
 -1       376-3.82080E-02-4.30951E-03 1.76022E-02-2.17711E-03 2.07377E-04 1.14722E-03
 -1       377-4.73311E-02 1.14182E-02 1.52050E-02 1.94204E-03-9.46991E-04 4.34031E-06
 -1       378-5.51174E-02 3.76613E-02 7.36109E-03 1.87907E-03-4.82819E-04-2.83894E-04
 -1       379-6.55615E-02 7.33376E-02-3.46307E-03 8.16197E-04-7.90916E-04 1.76877E-04
 -1       380-7.95435E-02 1.19965E-01-1.75235E-02 1.75361E-03-8.44437E-04 2.81660E-04
 -1       381-9.62697E-02 1.75995E-01-3.43125E-02 1.77097E-03-9.05388E-04-2.84143E-04
 -1       382-1.16953E-01 2.44290E-01-5.47469E-02 3.23879E-03-1.19447E-03-2.90393E-04
 -1       383-1.41024E-01 3.22679E-01-7.81573E-02 3.70475E-03-1.31275E-03-4.52732E-04
 -1       384-1.67016E-01 4.12692E-01-1.05219E-01 3.16903E-03-1.38839E-03 1.79336E-04
 -1       385-1.98289E-01 5.15238E-01-1.35986E-01 4.44665E-03-1.64723E-03 5.90099E-04
 -1       386-2.32628E-01 6.27430E-01-1.69642E-01 4.40592E-03-1.50064E-03-3.26832E-04
 -1       387-2.68650E-01 7.51497E-01-2.07195E-01 3.70681E-03-1.96619E-03 3.42562E-04
 -1       388-3.09650E-01 8.86552E-01-2.47373E-01 5.90022E-03-2.09017E-03-4.44132E-04
 -1       389-3.54793E-01 1.03284E+00-2.91202E-01 5.55870E-03-1.72625E-03-4.97989E-04
 -1       390-4.00480E-01 1.19162E+00-3.39345E-01 4.60179E-03-2.53518E-03 1.40272E-03
 -1       391-4.51941E-01 1.36079E+00-3.89688E-01 7.59707E-03-2.58271E-03 3.47510E-04
 -1       392-5.06696E-01 1.54054E+00-4.43694E-01 8.19323E-03-2.88519E-03-1.05369E-03
 -1       393-5.62719E-01 1.73187E+00-5.01281E-01 6.03322E-03-3.00180E-03-1.40968E-03
 -1       394-6.24595E-01 1.93602E+00-5.62424E-01 7.90674E-03-3.30258E-03-7.99974E-04
 -1       395-6.89597E-01 2.14974E+00-6.26724E-01 8.15598E-03-2.78516E-03-1.10265E-03
 -1       396-7.55932E-01 2.37567E+00-6.94721E-01 6.22539E-03-3.97588E-03 1.68968E-03
 -1       397-8.27205E-01 2.61187E+00-7.65007E-01 1.01721E-02-3.65483E-03 3.02991E-04
 -1       398-9.03514E-01 2.85970E+00-8.39263E-01 9.31045E-03-2.79295E-03-1.22652E-03
 -1       399-9.78314E-01 3.11984E+00-9.18064E-01 6.01191E-03-3.78718E-03 5.28560E-04
 -1       400-1.06062E+00 3.39055E+00-9.98687E-01 8.11655E-03-4.32778E-03-7.13671E-04
 -1       401-1.14609E+00 3.67194E+00-1.08298E+00 1.00092E-02-4.07513E-03-4.06663E-04
 -1       402-1.23254E+00 3.96488E+00-1.17111E+00 6.55436E-03-4.66887E-03 6.48711E-04
 -1       403-1.32425E+00 4.26950E+00-1.26217E+00 9.99883E-03-4.17510E-03-1.33789E-03
 -1       404-1.42028E+00 4.58599E+00-1.35686E+00 1.12247E-02-3.84952E-03-6.12506E-04
 -1       405-1.51637E+00 4.91304E+00-1.45557E+00 8.49596E-03-4.82140E-03 2.24332E-04
 -1       406-1.61873E+00 5.25047E+00-1.55625E+00 9.43233E-03-5.00184E-03-7.88794E-04
 -1       407-1.72470E+00 5.60056E+00-1.66177E+00 1.22838E-02-4.53985E-03 6.23918E-04
 -1       408-1.82970E+00 5.96091E+00-1.77040E+00 8.78402E-03-5.92782E-03 1.03086E-03
 -1       409-1.94268E+00 6.33282E+00-1.88125E+00 1.18627E-02-5.43333E-03-1.21041E-03
 -1       410-2.05969E+00 6.71713E+00-1.99644E+00 1.34472E-02-4.72945E-03-2.56609E-04
 -1       411-2.17600E+00 7.11138E+00-2.11492E+00 1.05292E-02-5.83809E-03 9.68895E-04
 -1       412-2.29785E+00 7.51531E+00-2.23528E+00 9.41071E-03-5.16825E-03-1.09082E-03
 -1       413-2.42343E+00 7.93620E+00-2.36111E+00 1.31964E-02-6.56118E-03-1.83194E-03
 -1       414-2.55353E+00 8.36111E+00-2.48998E+00 1.97702E-02-6.19706E-03 3.05859E-03
 -1       415-2.68494E+00 8.80091E+00-2.62066E+00 1.75622E-02-6.28089E-03 3.47744E-03
 -1       416-2.81837E+00 9.24803E+00-2.75552E+00 1.90865E-02-7.83216E-03 6.74861E-04
 -1       417-2.95518E+00 9.70555E+00-2.89390E+00 1.76258E-02-5.75640E-03-3.04158E-03
 -1       418-3.09847E+00 1.01814E+01-3.03506E+00 1.97476E-02-4.74632E-03-3.31988E-03
 -1       419-3.26037E+00 1.06878E+01-3.18865E+00-5.50562E-03-6.29336E-03 8.01143E-04
 -1       420-3.48683E+00 1.14520E+01-3.42572E+00 1.04000E-01-2.58624E-02 9.33571E-03
 -1       421-3.54863E+00 1.26521E+01-3.87517E+00 1.81291E+00 8.59612E-03-3.03006E-02
 -1       422-2.93488E+00 1.14723E+01-3.65978E+00 3.23032E+00 8.48890E-02 2.13178E-02
 -1       423-1.76091E+00 8.95440E+00-3.09929E+00 3.87699E+00 4.00810E-02 3.00664E-02
 -1       424-5.45627E-01 6.16429E+00-2.41732E+00 4.01919E+00 1.30041E-01 6.01184E-02
 -1       425 3.35402E-01 4.15892E+00-1.91412E+00 3.69825E+00 3.27900E-01 1.66468E-01
 -1       426-3.77228E+00 1.28112E+01-3.84498E+00 1.02783E+00-5.06443E-02-5.62836E-02
 -1       427-3.29354E+00 1.22502E+01-3.79018E+00 2.53319E+00 7.63438E-02-5.26289E-02
 -1       428-2.36980E+00 1.03059E+01-3.39316E+00 3.59876E+00 4.89861E-02 7.31431E-02
 -1       429-1.11018E+00 7.53120E+00-2.74635E+00 4.02699E+00 1.06218E-01 2.86184E-02
 -1       430-1.15311E-01 5.10786E+00-2.15155E+00 3.89394E+00 2.47562E-01 1.48848E-01
 -1       431 5.82422E-03 3.52887E+00-1.52603E+00 3.05745E+00 3.73516E-01 1.65765E-01
 -1       432 2.59457E-01-3.48496E+00 1.11730E+00 1.89262E+00 1.15242E+00-5.69134E-01
 -1       433 6.69074E-01-3.98687E+00 9.32818E-01 8.42162E-01 1.44895E+00-5.29949E-01
 -1       434 4.13186E-01-2.80158E+00 3.95299E-01-3.44814E-01 1.24492E+00-6.57753E-02
 -1       435 3.85256E-02-9.55013E-01 1.73052E-01-8.39439E-01 4.91678E-01 3.37159E-01
 -1       436-2.33188E-01 9.58437E-01-1.55918E-01-9.56473E-01-3.64082E-01 2.95272E-01
 -1       437-4.95989E-01 2.73085E+00-3.73029E-01-3.03339E-01-1.20983E+00-8.67568E-02
 -1       438-6.34659E-01 3.73309E+00-6.51861E-01 8.37251E-01-1.60317E+00-5.47688E-01
 -1       439-1.82606E-01 3.56130E+00-1.02162E+00 2.11613E+00-1.35975E+00-7.96124E-01
 -1       440-5.47460E-01-2.21490E+00 8.91816E-01 2.05220E+00 1.09489E+00-7.71620E-01
 -1       441 4.50823E-01-4.02124E+00 1.08115E+00 1.48104E+00 1.34379E+00-5.63975E-01
 -1       442 4.83053E-01-3.23476E+00 5.37384E-01 2.09090E-01 1.41680E+00-3.66708E-01
 -1       443 1.57165E-01-1.86027E+00 2.95271E-01-7.06535E-01 8.99966E-01 1.23116E-01
 -1       444-6.02990E-02-2.57398E-02 2.00246E-02-9.78399E-01 1.33225E-01 3.45698E-01
 -1       445-3.29401E-01 1.94082E+00-2.33383E-01-5.81220E-01-7.80140E-01 9.89490E-02
 -1       446-5.57035E-01 3.37843E+00-4.88627E-01 3.31067E-01-1.43453E+00-3.29860E-01
 -1       447-4.46871E-01 3.72473E+00-4.37758E-01 1.51129E+00-1.93735E+00-9.77005E-01
 -1       448 5.56564E-01 2.36612E+00-8.55790E-01 2.06932E+00-1.23167E+00-8.58412E-01
 -1       449 2.04329E-04 2.20971E-04-2.40345E-05 1.12185E-04 1.46312E-04-1.79084E-04
 -1       450-2.76969E-05-5.35441E-04 2.53903E-04-8.25367E-04-1.15546E-04-1.86152E-04
 -1       451-2.23521E-03 5.44062E-04 5.52065E-04-5.72655E-04-6.25037E-05 4.91654E-06
 -1       452-3.87298E-03 1.23822E-03 9.38376E-04 1.71375E-04-1.72383E-04-1.54251E-04
 -1       453-4.33326E-04-1.33360E-03 5.13070E-04 7.36615E-04-5.65137E-04 1.58124E-04
 -1       454 3.44892E-04 2.46508E-04 1.56497E-04 6.17542E-04 3.85940E-04 5.49768E-04
 -1       455 1.20306E-04 5.81275E-04-1.70792E-04 4.82366E-04 1.58182E-04-4.92703E-05
 -1       456 2.51317E-04-1.92064E-04 1.62390E-04-5.04465E-04-5.79605E-06-4.43302E-04
 -1       457-9.02032E-04-2.49085E-04 4.79520E-04-6.24313E-04-1.81044E-04-1.33523E-05
 -1       458-3.33437E-03 1.27042E-03 7.32991E-04-4.56140E-05 1.08722E-04-2.52507E-04
 -1       459-2.08310E-03-5.60942E-04 8.02576E-04 4.65074E-05-4.70329E-04-7.30879E-05
 -1       460 3.27920E-04-7.35163E-04 3.94228E-04 1.27499E-03-2.49527E-04 8.75361E-04
 -1       461 1.16946E-04 7.24586E-04-8.30740E-05-3.22861E-04 2.60211E-04 1.70578E-04
 -1       462-5.92954E-05 9.29365E-04-4.92460E-04-5.12016E-04 2.64818E-04-8.73611E-05
 -1       463-2.40142E-04 6.40326E-03-2.63860E-03 2.69068E-03 1.50107E-03-1.51585E-04
 -1       464-3.39850E-04 1.30408E-03-4.75906E-04-7.01740E-04 1.15494E-05 3.15066E-05
 -1       465-9.13697E-04 3.73239E-03-1.30949E-03-6.28900E-04 9.93986E-04-2.63624E-04
 -1       466-6.25497E-03 7.96194E-03 6.77868E-04-2.91252E-03-8.86415E-04 1.64918E-03
 -1       467-4.50416E-02 1.08195E-03 1.88535E-02 2.56431E-03 1.42572E-03 1.50069E-04
 -1       468-5.05253E-02 2.25727E-02 1.19194E-02 1.56033E-03 6.31386E-04 6.93790E-05
 -1       469-5.99931E-02 5.43521E-02 2.44135E-03 1.67318E-03 3.00852E-04 7.17332E-05
 -1       470-7.21914E-02 9.53198E-02-1.00581E-02 8.64804E-04 3.44791E-04-1.98338E-04
 -1       471-8.72300E-02 1.45960E-01-2.51661E-02 1.85947E-03 1.09686E-03 2.66937E-04
 -1       472-1.05821E-01 2.08073E-01-4.37875E-02 1.72827E-03 1.07400E-03 4.90297E-04
 -1       473-1.28207E-01 2.81563E-01-6.57501E-02 2.70990E-03 9.70748E-04 2.07675E-04
 -1       474-1.53664E-01 3.66580E-01-9.14446E-02 2.83519E-03 8.48226E-04-4.07499E-04
 -1       475-1.82254E-01 4.62121E-01-1.20222E-01 2.55884E-03 1.65070E-03-3.95203E-04
 -1       476-2.14409E-01 5.68804E-01-1.51617E-01 3.80943E-03 1.46238E-03 4.97959E-04
 -1       477-2.50147E-01 6.87635E-01-1.87761E-01 3.80234E-03 1.20887E-03-3.77174E-04
 -1       478-2.88092E-01 8.16955E-01-2.26624E-01 3.28170E-03 1.81573E-03 5.78602E-04
 -1       479-3.31235E-01 9.58401E-01-2.68692E-01 5.07357E-03 1.90404E-03 5.10858E-04
 -1       480-3.76878E-01 1.11041E+00-3.14485E-01 4.54300E-03 1.55595E-03-4.62342E-04
 -1       481-4.25909E-01 1.27440E+00-3.64113E-01 4.42014E-03 2.87713E-03-5.51118E-04
 -1       482-4.78200E-01 1.44870E+00-4.15673E-01 6.23752E-03 2.77977E-03 6.87769E-04
 -1       483-5.33696E-01 1.63413E+00-4.71247E-01 5.91444E-03 3.19649E-03 1.32573E-03
 -1       484-5.93070E-01 1.83207E+00-5.31253E-01 5.95965E-03 2.86239E-03 8.05259E-04
 -1       485-6.55773E-01 2.04033E+00-5.93245E-01 7.69728E-03 2.86522E-03 1.21923E-03
 -1       486-7.20415E-01 2.25778E+00-6.58515E-01 6.81926E-03 3.49560E-03 7.35854E-04
 -1       487-7.91888E-01 2.49350E+00-7.30142E-01 5.57329E-03 3.78098E-03-1.06756E-03
 -1       488-8.63880E-01 2.73427E+00-8.01237E-01 8.44919E-03 3.64530E-03 7.28634E-04
 -1       489-9.39230E-01 2.98626E+00-8.76709E-01 7.36172E-03 4.10934E-03 1.41514E-03
 -1       490-1.01932E+00 3.25298E+00-9.57099E-01 6.19200E-03 4.41579E-03 1.00231E-03
 -1       491-1.10137E+00 3.52772E+00-1.03931E+00 7.63048E-03 2.59316E-03 1.41678E-03
 -1       492-1.18939E+00 3.81756E+00-1.12708E+00 8.07890E-03 2.84053E-03-1.44791E-03
 -1       493-1.27761E+00 4.11546E+00-1.21618E+00 5.49974E-03 4.14990E-03 7.65199E-04
 -1       494-1.37059E+00 4.42370E+00-1.30852E+00 9.04349E-03 3.77726E-03-2.52285E-04
 -1       495-1.46850E+00 4.74759E+00-1.40605E+00 8.30578E-03 3.24117E-03-1.28077E-03
 -1       496-1.56610E+00 5.07828E+00-1.50515E+00 6.91002E-03 4.99072E-03 3.82644E-04
 -1       497-1.66944E+00 5.42176E+00-1.60747E+00 9.70231E-03 3.48094E-03 1.61744E-03
 -1       498-1.77811E+00 5.77952E+00-1.71542E+00 9.36852E-03 3.77204E-03-1.07197E-03
 -1       499-1.88682E+00 6.14538E+00-1.82448E+00 6.83738E-03 4.94629E-03 1.60654E-03
 -1       500-1.99945E+00 6.52086E+00-1.93781E+00 1.09007E-02 4.03701E-03 2.38630E-04
 -1       501-2.11837E+00 6.91262E+00-2.05526E+00 9.26401E-03 3.51545E-03-9.64077E-04
 -1       502-2.23603E+00 7.30996E+00-2.17447E+00 8.60010E-03 5.86845E-03-1.43226E-04
 -1       503-2.35887E+00 7.71842E+00-2.29703E+00 9.81489E-03 4.14794E-03 1.00031E-03
 -1       504-2.48826E+00 8.14428E+00-2.42473E+00 2.25854E-02 3.33615E-03-3.12802E-04
 -1       505-2.61889E+00 8.58325E+00-2.55551E+00 1.44925E-02 4.59910E-03-5.34034E-04
 -1       506-2.75150E+00 9.02528E+00-2.68971E+00 1.44782E-02 5.62997E-03-2.29115E-03
 -1       507-2.88506E+00 9.47363E+00-2.82262E+00 1.51350E-02 6.02775E-03 3.17273E-03
 -1       508-3.02459E+00 9.93416E+00-2.96178E+00 1.44087E-02 5.28406E-03 6.89427E-04
 -1       509-3.18004E+00 1.04345E+01-3.10862E+00 1.99054E-02 2.18176E-03 7.78904E-04
 -1       510-3.37212E+00 1.10172E+01-3.28069E+00-3.07297E-03 4.57312E-04-4.94597E-03
 -1       511-3.86617E-02-4.47635E-03 1.75242E-02-2.17387E-03-4.62137E-04-1.06289E-03
 -1       512-4.73693E-02 1.13371E-02 1.52761E-02 1.95224E-03 9.84637E-04-2.49895E-05
 -1       513-5.49175E-02 3.76067E-02 7.37015E-03 1.87836E-03 4.10735E-04 2.95697E-04
 -1       514-6.57613E-02 7.34678E-02-3.51160E-03 8.07709E-04 6.75798E-04-1.57894E-04
 -1       515-7.97940E-02 1.20088E-01-1.75916E-02 1.92510E-03 7.44894E-04-4.58643E-04
 -1       516-9.62710E-02 1.75910E-01-3.43416E-02 2.03740E-03 9.63807E-04 3.60412E-04
 -1       517-1.17173E-01 2.44042E-01-5.46116E-02 2.90410E-03 1.17234E-03 2.07134E-04
 -1       518-1.41092E-01 3.22870E-01-7.84222E-02 3.19614E-03 1.00819E-03 4.86812E-04
 -1       519-1.67650E-01 4.13242E-01-1.05459E-01 2.92402E-03 1.62327E-03-8.55181E-04
 -1       520-1.98308E-01 5.14767E-01-1.35762E-01 4.59928E-03 1.70778E-03-2.79061E-04
 -1       521-2.32746E-01 6.26977E-01-1.69340E-01 4.38259E-03 1.35795E-03 4.53741E-04
 -1       522-2.68410E-01 7.51413E-01-2.07165E-01 3.17655E-03 1.95949E-03-3.20928E-04
 -1       523-3.10040E-01 8.87269E-01-2.47718E-01 5.62630E-03 2.25879E-03 4.69746E-04
 -1       524-3.54278E-01 1.03312E+00-2.91371E-01 5.59964E-03 2.06147E-03 7.45222E-04
 -1       525-4.01123E-01 1.19105E+00-3.38717E-01 4.70777E-03 2.68980E-03-1.46442E-03
 -1       526-4.52076E-01 1.36089E+00-3.89694E-01 7.19799E-03 3.25424E-03-1.98607E-04
 -1       527-5.06376E-01 1.54094E+00-4.43818E-01 7.90046E-03 2.94132E-03 1.34637E-03
 -1       528-5.63910E-01 1.73223E+00-5.01315E-01 6.37378E-03 3.31601E-03 1.54927E-03
 -1       529-6.24326E-01 1.93570E+00-5.62147E-01 8.70272E-03 3.15606E-03 9.18791E-04
 -1       530-6.89110E-01 2.14919E+00-6.26186E-01 9.05252E-03 3.39564E-03 1.21447E-03
 -1       531-7.55708E-01 2.37492E+00-6.93679E-01 6.87440E-03 4.02102E-03-5.56410E-04
 -1       532-8.27604E-01 2.61282E+00-7.65274E-01 9.70040E-03 4.34924E-03-3.27319E-04
 -1       533-9.02325E-01 2.86053E+00-8.39458E-01 1.04749E-02 4.10180E-03 1.36447E-03
 -1       534-9.78977E-01 3.11879E+00-9.16860E-01 7.31047E-03 4.75856E-03 1.46556E-03
 -1       535-1.06028E+00 3.39025E+00-9.98251E-01 8.60226E-03 3.98355E-03 1.30790E-03
 -1       536-1.14651E+00 3.67191E+00-1.08279E+00 9.83467E-03 3.27289E-03 3.00988E-04
 -1       537-1.23145E+00 3.96610E+00-1.17189E+00 6.83827E-03 4.36918E-03-7.29188E-04
 -1       538-1.32428E+00 4.26962E+00-1.26232E+00 9.05875E-03 4.84939E-03-5.77070E-05
 -1       539-1.42030E+00 4.58507E+00-1.35689E+00 1.10827E-02 4.33408E-03-1.89771E-04
 -1       540-1.51586E+00 4.91230E+00-1.45565E+00 6.89146E-03 5.31733E-03-1.16317E-03
 -1       541-1.61800E+00 5.25057E+00-1.55686E+00 1.11419E-02 4.81647E-03 1.31361E-03
 -1       542-1.72482E+00 5.60035E+00-1.66118E+00 1.21355E-02 4.50614E-03 6.26266E-04
 -1       543-1.83086E+00 5.96175E+00-1.77006E+00 8.59127E-03 5.54757E-03-3.98159E-04
 -1       544-1.94384E+00 6.33355E+00-1.88118E+00 1.02775E-02 5.32249E-03 8.83765E-04
 -1       545-2.05976E+00 6.71698E+00-1.99627E+00 1.33071E-02 5.06568E-03-6.07963E-05
 -1       546-2.17569E+00 7.11037E+00-2.11480E+00 8.31830E-03 6.39720E-03-1.25921E-03
 -1       547-2.29724E+00 7.51636E+00-2.23630E+00 1.18460E-02 5.28781E-03 1.47348E-03
 -1       548-2.42455E+00 7.93525E+00-2.36068E+00 1.20658E-02 6.50802E-03 1.47630E-03
 -1       549-2.55317E+00 8.36028E+00-2.48982E+00 1.85349E-02 6.52290E-03-2.67156E-03
 -1       550-2.68465E+00 8.80210E+00-2.62198E+00 1.55312E-02 5.74337E-03-2.25993E-03
 -1       551-2.81818E+00 9.24935E+00-2.75627E+00 2.03004E-02 5.31409E-03 7.01815E-04
 -1       552-2.95599E+00 9.70473E+00-2.89282E+00 1.63932E-02 5.93629E-03 1.89994E-03
 -1       553-3.09841E+00 1.01825E+01-3.03504E+00 1.99995E-02 4.90784E-03 3.43836E-03
 -1       554-3.26562E+00 1.06883E+01-3.18859E+00-4.92808E-03 7.26100E-03-1.44035E-03
 -1       555-3.48249E+00 1.14513E+01-3.42941E+00 1.00478E-01 3.31517E-02-6.30067E-03
 -1       556-3.53857E+00 1.26429E+01-3.87732E+00 1.81581E+00-2.40918E-03 2.71980E-02
 -1       557-2.94104E+00 1.14958E+01-3.67696E+00 3.23604E+00-8.04543E-02-3.50796E-02
 -1       558-1.77009E+00 8.96170E+00-3.11497E+00 3.89597E+00-1.69678E-03-5.01726E-02
 -1       559-5.52136E-01 6.15319E+00-2.42052E+00 4.01727E+00-1.35562E-01-8.25690E-02
 -1       560 3.26231E-01 4.20120E+00-1.93448E+00 3.72021E+00-3.38729E-01-1.98347E-01
 -1       561-3.77139E+00 1.28103E+01-3.84471E+00 1.02784E+00 5.25800E-02 5.56977E-02
 -1       562-3.28945E+00 1.22650E+01-3.80227E+00 2.54572E+00-7.21313E-02 4.18776E-02
 -1       563-2.36760E+00 1.03136E+01-3.41201E+00 3.61610E+00-4.57314E-02-7.98925E-02
 -1       564-1.12216E+00 7.50841E+00-2.75308E+00 4.05479E+00-8.27373E-02-6.90062E-02
 -1       565-1.26719E-01 5.12926E+00-2.16273E+00 3.88963E+00-2.53408E-01-1.62156E-01
 -1       566 9.02871E-02 3.46186E+00-1.51494E+00 3.00653E+00-3.33749E-01-1.24184E-01
 -1       567 2.60841E-01 4.64996E-01 9.07766E-06-8.00432E-01 1.07436E-02-3.50581E-02
 -1       568 2.66864E-01 4.41662E-01 3.97029E-03-7.80956E-01-1.87401E-02 4.63166E-02
 -1       569 2.66058E-01 4.55762E-01 3.70988E-07-7.86105E-01 3.06069E-02-9.98439E-02
 -1       570 2.73694E-01 4.69447E-01 2.55851E-07-8.09802E-01-2.96263E-03 9.54993E-03
 -1       571 2.86685E-01 4.36182E-01 7.00761E-07-7.57507E-01-3.68011E-02 1.19677E-01
 -1       572 2.96965E-01 4.37081E-01-3.96413E-01-6.73778E-01-2.36449E-03-4.10377E-02
 -1       573 6.41741E-02 6.30442E-01-3.05517E-01-5.71679E-01 8.00065E-03-1.30828E-02
 -1       574-9.78027E-02 7.71068E-01-2.89743E-01-4.53200E-01 6.11688E-03-4.62197E-03
 -1       575-2.08435E-01 8.41192E-01-2.72207E-01-2.73170E-01 5.62279E-03-2.98986E-03
 -1       576-2.42763E-01 8.20872E-01-2.48902E-01-7.43956E-02 6.29696E-03-1.54675E-03
 -1       577-2.13405E-01 7.36524E-01-2.25478E-01 1.09483E-01 7.68347E-03-3.30733E-04
 -1       578-1.38846E-01 6.22708E-01-2.08759E-01 2.42986E-01 9.37000E-03 1.49188E-03
 -1       579-3.23354E-02 5.25976E-01-2.11468E-01 3.67382E-01 7.77376E-03 4.28476E-03
 -1       580 1.36150E-01 4.25795E-01-2.40984E-01 5.20483E-01 9.95522E-03 8.70524E-03
 -1       581 4.18086E-01 3.35448E-01-3.35515E-01 7.01965E-01 1.60331E-02-1.43324E-02
 -1       582 6.99679E-01 2.07556E-01-4.05608E-01 9.93592E-01-1.45846E-04-1.25612E-01
 -1       583 1.00214E+00-2.35580E-01-3.89207E-01 8.89650E-01 1.96678E-01-1.68435E-01
 -1       584 5.48151E-01-4.44931E-01-2.32580E-01 5.13584E-01 4.37375E-01-2.32378E-01
 -1       585 1.02993E-01-5.33742E-01-5.31967E-02 2.14520E-01 5.86180E-01-1.84983E-01
 -1       586 4.70871E-02-1.93062E-01-2.04299E-01 1.58446E-01 4.35453E-01-1.20086E-01
 -1       587-2.54063E-03 1.08947E-01-8.02764E-02 2.12144E-01 8.64935E-03-9.57425E-02
 -1       588-4.45728E-02 3.47814E-01 6.42897E-02 3.91462E-01-4.57656E-01-2.71514E-01
 -1       589-6.77697E-01 4.42129E-01 4.66232E-01 7.05155E-01-5.95142E-01-3.58884E-01
 -1       590-1.04167E+00 2.94271E-01 5.43156E-01 8.84646E-01-3.87390E-01-2.71864E-01
 -1       591-8.46800E-01-3.03838E-01 4.97851E-01 1.25932E+00-2.58952E-02-8.13943E-02
 -1       592-4.66246E-01-3.09282E-01 3.70913E-01 7.64326E-01-5.54653E-03-4.96917E-02
 -1       593-1.66706E-01-3.85080E-01 2.37186E-01 5.07165E-01-6.23465E-03 4.80526E-03
 -1       594-1.02128E-02-3.63232E-01 1.60060E-01 3.03635E-01-6.80743E-03 3.22605E-03
 -1       595 4.76011E-02-3.00364E-01 1.08648E-01 1.63277E-01-1.73256E-03 1.96970E-03
 -1       596 6.54184E-02-2.47258E-01 7.85083E-02 6.72167E-02 1.43551E-04-2.27081E-04
 -1       597 6.87491E-02-2.32323E-01 7.11480E-02 1.34839E-02-2.88997E-03-3.37601E-04
 -1       598 8.10881E-02-2.77469E-01 8.48056E-02-4.28880E-02-6.27549E-03-1.02810E-03
 -1       599 7.62743E-02-3.57912E-01 1.21142E-01-1.48851E-01-9.85278E-03-2.98667E-03
 -1       600 1.31399E-02-4.11725E-01 1.71457E-01-3.03734E-01-9.44859E-03-5.71183E-03
 -1       601-1.38025E-01-3.84821E-01 2.24341E-01-4.71964E-01-7.44541E-03-6.12054E-03
 -1       602-3.63550E-01-2.50365E-01 2.63855E-01-5.72620E-01-1.46645E-03-4.18885E-03
 -1       603-5.83771E-01-8.19923E-02 2.87194E-01-5.67500E-01-2.35915E-03-7.93239E-03
 -1       604-7.51919E-01 8.01499E-02 2.92466E-01-4.66927E-01-1.86076E-03-1.20126E-02
 -1       605-9.15207E-01 2.17383E-01 3.82664E-01-2.86954E-01 2.48622E-02-4.37312E-02
 -1       606 3.66975E-01 4.13619E-01-2.86834E-01-7.41538E-01-4.99216E-02 1.00093E-01
 -1       607 1.45780E-01 5.38031E-01-3.02535E-01-5.97507E-01 1.25600E-02-2.44107E-02
 -1       608-1.96534E-02 7.05565E-01-2.97031E-01-5.14698E-01 8.68153E-03-9.88130E-03
 -1       609-1.54953E-01 8.11509E-01-2.81087E-01-3.61675E-01 5.55682E-03-2.88733E-03
 -1       610-2.34848E-01 8.41180E-01-2.61506E-01-1.76245E-01 7.15251E-03-2.44055E-03
 -1       611-2.30626E-01 7.80560E-01-2.37324E-01 2.18454E-02 8.27067E-03-6.96740E-05
 -1       612-1.78229E-01 6.80646E-01-2.16472E-01 1.77024E-01 9.23594E-03 1.08043E-03
 -1       613-8.62508E-02 5.74437E-01-2.10757E-01 3.08534E-01 9.65410E-03 3.11184E-03
 -1       614 4.54260E-02 4.81125E-01-2.27128E-01 4.40240E-01 1.49843E-02 7.36446E-03
 -1       615 2.64172E-01 3.69797E-01-2.81675E-01 5.96865E-01-3.94419E-03-9.35892E-03
 -1       616 5.92739E-01 2.63295E-01-3.60043E-01 8.53831E-01-2.41080E-02-8.70579E-02
 -1       617 8.62440E-01-6.15356E-02-3.79682E-01 9.62222E-01 5.59263E-02-1.57966E-01
 -1       618 9.22553E-01-4.28606E-01-3.39121E-01 7.42452E-01 4.64780E-01-1.68848E-01
 -1       619 3.11497E-01-5.29622E-01-1.24952E-01 4.37034E-01 4.79520E-01-1.47856E-01
 -1       620 5.26570E-02-2.33863E-01-2.51183E-01 1.95245E-01 6.54911E-01-1.72376E-01
 -1       621-4.76499E-02 7.55253E-03-8.51630E-02 1.81272E-01 1.90167E-01-1.09782E-01
 -1       622-7.31723E-02 3.76083E-01-4.76474E-02 2.75148E-01-2.36361E-01-2.30687E-01
 -1       623-4.23311E-01 4.87320E-01 3.46966E-01 4.58046E-01-6.47419E-01-3.52992E-01
 -1       624-8.39327E-01 4.43263E-01 5.06389E-01 8.47412E-01-5.35311E-01-3.14665E-01
 -1       625-9.71095E-01 1.48783E-02 4.86127E-01 1.00209E+00-2.39986E-02-1.67306E-01
 -1       626-6.47521E-01-3.22190E-01 4.48542E-01 1.02373E+00-6.58043E-02-2.57276E-03
 -1       627-2.99370E-01-3.71227E-01 3.02064E-01 6.35517E-01 1.93456E-02-2.05157E-02
 -1       628-8.72484E-02-3.80982E-01 2.00784E-01 4.04949E-01-7.97734E-03 3.69370E-03
 -1       629 2.18507E-02-3.34703E-01 1.33525E-01 2.30579E-01-2.63876E-03 1.73269E-03
 -1       630 5.85556E-02-2.70884E-01 9.19653E-02 1.11050E-01-8.01517E-04-1.14090E-04
 -1       631 6.76188E-02-2.38287E-01 7.40702E-02 3.93934E-02-1.24084E-03-4.21470E-04
 -1       632 7.62857E-02-2.52721E-01 7.71587E-02-1.12379E-02-5.15071E-03-3.01111E-04
 -1       633 8.14520E-02-3.16822E-01 1.02336E-01-9.20956E-02-9.03771E-03-1.80027E-03
 -1       634 5.03554E-02-3.89018E-01 1.45899E-01-2.24484E-01-1.16496E-02-5.48281E-03
 -1       635-5.36160E-02-4.06757E-01 1.97997E-01-3.92789E-01-9.09620E-03-5.95070E-03
 -1       636-2.46239E-01-3.29215E-01 2.45442E-01-5.23012E-01-5.01188E-03-7.16910E-03
 -1       637-4.79475E-01-1.72055E-01 2.77851E-01-5.73423E-01-9.82149E-04-6.37581E-03
 -1       638-6.73720E-01-2.30526E-03 2.90227E-01-5.17903E-01-1.28105E-03-7.87392E-03
 -1       639-7.91585E-01 1.40305E-01 2.87507E-01-3.89136E-01 8.49576E-03-2.29207E-02
 -1       640-1.00288E+00 2.73593E-01 2.61131E-01-2.73509E-01-8.74147E-03 1.02192E-01
 -1       641-9.87522E-01 3.16095E-01-7.96342E-06-3.65884E-01 1.02740E-02-3.36849E-02
 -1       642-9.64148E-01 3.11642E-01-3.36924E-03-3.45532E-01-9.54079E-03 4.55152E-02
 -1       643-9.74412E-01 3.07922E-01-3.43052E-07-3.54539E-01 2.85420E-02-9.36172E-02
 -1       644-1.00412E+00 3.17108E-01-2.38265E-07-3.64881E-01-2.37303E-03 7.88999E-03
 -1       645-9.56446E-01 2.89060E-01-6.61934E-07-3.26166E-01-3.43076E-02 1.12821E-01
 -1       646 2.94980E-01 4.35862E-01-4.00051E-01-6.68388E-01-2.63769E-03 4.15341E-02
 -1       647 5.92500E-02 6.33324E-01-3.04889E-01-5.73420E-01-1.20088E-02 1.51710E-02
 -1       648-9.78628E-02 7.72034E-01-2.89997E-01-4.52936E-01-7.20161E-03 4.85948E-03
 -1       649-2.08332E-01 8.41137E-01-2.72430E-01-2.70462E-01-6.67680E-03 3.82726E-03
 -1       650-2.43259E-01 8.21408E-01-2.48199E-01-7.38006E-02-5.98650E-03 7.76154E-04
 -1       651-2.05779E-01 7.35638E-01-2.29212E-01 1.16927E-01-6.48893E-03 7.87691E-06
 -1       652-1.38733E-01 6.23543E-01-2.09151E-01 2.43862E-01-1.03751E-02-1.95202E-03
 -1       653-3.22211E-02 5.26937E-01-2.12366E-01 3.69026E-01-8.93581E-03-3.98574E-03
 -1       654 1.46261E-01 4.13408E-01-2.39138E-01 5.30085E-01-9.16548E-03-7.67209E-03
 -1       655 4.18334E-01 3.34145E-01-3.39939E-01 7.03525E-01-1.37500E-02 1.72367E-02
 -1       656 7.12061E-01 2.17939E-01-4.16071E-01 9.97834E-01-1.59262E-02 1.01632E-01
 -1       657 9.79725E-01-2.60937E-01-3.66352E-01 8.77439E-01-2.19367E-01 1.80783E-01
 -1       658 5.60302E-01-4.77717E-01-2.14139E-01 5.19128E-01-4.56081E-01 2.32934E-01
 -1       659 1.19274E-01-5.51503E-01-6.59101E-02 2.20593E-01-6.00396E-01 1.90078E-01
 -1       660 3.07659E-02-1.98383E-01-2.03437E-01 1.78761E-01-4.63758E-01 1.34301E-01
 -1       661 1.54306E-02 1.09546E-01-8.96781E-02 2.13673E-01-1.13531E-04 1.02118E-01
 -1       662-7.47565E-02 3.54050E-01 8.18741E-02 3.97059E-01 4.59113E-01 2.72554E-01
 -1       663-6.70721E-01 4.30093E-01 4.56770E-01 7.05721E-01 5.85011E-01 3.50295E-01
 -1       664-1.02944E+00 2.97102E-01 5.36490E-01 8.80907E-01 3.78986E-01 2.69084E-01
 -1       665-8.49983E-01-3.07801E-01 5.00530E-01 1.26428E+00 2.57503E-02 8.08905E-02
 -1       666-4.66225E-01-3.11219E-01 3.71407E-01 7.64582E-01 4.94321E-03 4.96358E-02
 -1       667-1.67235E-01-3.85401E-01 2.37463E-01 5.07592E-01 6.50730E-03-4.95800E-03
 -1       668-1.82101E-02-3.59956E-01 1.62089E-01 3.12729E-01 5.66742E-03-3.67936E-03
 -1       669 4.84968E-02-3.01434E-01 1.08766E-01 1.58712E-01 1.51724E-03-8.96443E-04
 -1       670 6.47976E-02-2.46526E-01 7.84747E-02 6.69607E-02-4.55937E-05 2.17642E-04
 -1       671 6.96068E-02-2.32883E-01 7.08305E-02 1.73483E-02 3.04802E-03 3.90267E-05
 -1       672 7.95254E-02-2.72615E-01 8.35926E-02-4.16784E-02 6.82261E-03 8.35257E-04
 -1       673 7.57890E-02-3.54207E-01 1.20016E-01-1.46787E-01 1.07570E-02 3.62035E-03
 -1       674 1.37595E-02-4.07058E-01 1.69414E-01-2.98628E-01 1.04996E-02 6.58365E-03
 -1       675-1.35841E-01-3.81650E-01 2.21770E-01-4.66969E-01 8.62506E-03 6.59760E-03
 -1       676-3.59954E-01-2.48218E-01 2.61238E-01-5.67397E-01 2.01313E-03 4.46011E-03
 -1       677-5.78838E-01-8.17989E-02 2.84661E-01-5.63306E-01 2.68307E-03 7.58354E-03
 -1       678-7.50012E-01 7.87178E-02 2.94191E-01-4.63427E-01 4.41075E-04 1.41289E-02
 -1       679-9.15396E-01 2.20015E-01 3.88474E-01-2.88230E-01-2.68168E-02 3.34141E-02
 -1       680 3.62642E-01 4.09226E-01-2.70284E-01-7.38046E-01 5.10033E-02-1.10330E-01
 -1       681 1.43078E-01 5.42537E-01-3.08570E-01-6.00017E-01-4.38289E-03 2.93252E-02
 -1       682-2.03078E-02 7.05037E-01-2.95762E-01-5.15038E-01-1.18639E-02 8.93495E-03
 -1       683-1.55010E-01 8.12395E-01-2.81258E-01-3.60835E-01-6.69137E-03 3.12483E-03
 -1       684-2.32456E-01 8.40818E-01-2.61672E-01-1.74253E-01-7.49701E-03 2.77685E-03
 -1       685-2.28405E-01 7.75566E-01-2.36366E-01 2.26937E-02-8.03519E-03 1.85660E-03
 -1       686-1.77955E-01 6.85675E-01-2.18018E-01 1.82336E-01-9.14314E-03-1.18731E-03
 -1       687-8.60873E-02 5.75175E-01-2.11298E-01 3.09212E-01-1.04498E-02-3.11621E-03
 -1       688 4.95723E-02 4.69930E-01-2.24731E-01 4.41260E-01-1.22550E-02-7.91863E-03
 -1       689 2.71993E-01 3.70274E-01-2.80261E-01 6.07072E-01 1.30449E-03 6.48476E-03
 -1       690 5.88240E-01 2.55557E-01-3.77683E-01 8.50130E-01 1.97871E-02 5.82889E-02
 -1       691 8.40536E-01-4.56606E-02-3.43075E-01 9.70829E-01-8.74066E-02 1.76281E-01
 -1       692 9.18933E-01-4.67626E-01-3.08927E-01 7.50461E-01-4.65045E-01 1.83638E-01
 -1       693 3.46691E-01-5.56868E-01-1.29375E-01 4.32462E-01-4.91556E-01 1.32186E-01
 -1       694 4.43078E-02-2.37318E-01-2.59476E-01 2.14470E-01-6.90118E-01 1.96530E-01
 -1       695-3.66458E-02 8.83691E-03-9.31471E-02 1.90683E-01-1.89818E-01 1.14342E-01
 -1       696-8.78197E-02 3.80925E-01-3.27080E-02 2.87298E-01 2.39007E-01 2.37765E-01
 -1       697-4.32659E-01 4.70500E-01 3.50452E-01 4.58414E-01 6.37222E-01 3.36549E-01
 -1       698-8.37169E-01 4.54904E-01 4.95868E-01 8.36677E-01 5.11144E-01 3.07929E-01
 -1       699-9.65721E-01 2.39443E-02 4.82637E-01 9.93445E-01 2.19444E-02 1.74536E-01
 -1       700-6.48547E-01-3.25951E-01 4.49845E-01 1.02493E+00 6.44438E-02 2.32739E-03
 -1       701-2.98832E-01-3.71868E-01 3.02233E-01 6.35945E-01-1.91016E-02 2.05425E-02
 -1       702-9.21590E-02-3.80247E-01 2.01255E-01 4.10181E-01 6.85806E-03-5.29857E-03
 -1       703 2.27323E-02-3.28441E-01 1.33033E-01 2.29053E-01 2.63194E-03 4.47043E-04
 -1       704 5.90719E-02-2.73373E-01 9.23268E-02 1.10821E-01 6.85064E-04-2.79484E-04
 -1       705 6.70731E-02-2.38284E-01 7.39015E-02 4.17199E-02 1.62172E-03-1.95903E-04
 -1       706 7.49973E-02-2.49936E-01 7.63859E-02-9.02622E-03 6.28372E-03 2.01459E-03
 -1       707 8.04636E-02-3.13736E-01 1.01636E-01-9.04060E-02 9.66877E-03 1.70188E-03
 -1       708 4.99665E-02-3.84166E-01 1.44316E-01-2.21181E-01 1.27175E-02 5.77765E-03
 -1       709-5.18467E-02-4.03392E-01 1.95695E-01-3.87831E-01 1.01606E-02 6.71088E-03
 -1       710-2.43129E-01-3.26406E-01 2.42810E-01-5.17666E-01 5.87778E-03 7.53181E-03
 -1       711-4.74767E-01-1.70479E-01 2.75213E-01-5.68169E-01 1.26938E-03 6.27957E-03
 -1       712-6.68897E-01-1.92288E-03 2.88067E-01-5.14497E-01 1.44794E-03 8.37157E-03
 -1       713-7.94667E-01 1.38018E-01 2.95437E-01-3.85832E-01-1.40259E-02 2.36294E-02
 -1       714-9.96098E-01 2.72630E-01 2.60872E-01-2.71216E-01 1.35291E-02-1.12039E-01
 -1       715 1.18696E+00 1.73397E+00-1.19797E+00 2.48891E+00-9.79009E-03-1.34826E-02
 -1       716 1.15834E+00 1.72510E+00-1.08582E+00 2.48337E+00 2.87152E-01 2.90313E-01
 -1       717 1.00308E+00 1.61613E+00-1.12030E+00 2.25967E+00-2.63412E-01-2.11119E-01
 -1       718-2.29475E-05 3.59752E-04-1.42828E-04 2.48041E-04-3.21735E-05 1.52245E-06
 -1       719 3.69567E-05 1.11076E-04-6.58030E-05 1.57637E-04-2.17356E-05-1.90421E-05
 -1       720 1.14723E-06-6.20831E-05 2.87630E-05-5.78643E-05-1.68450E-05-1.77931E-05
 -1       721-1.88902E-04-1.36861E-04 1.38592E-04-3.28696E-04-1.72010E-05-1.10012E-05
 -1       722-5.36055E-04 1.22827E-04 1.71582E-04-1.71971E-04 6.00011E-07-2.99679E-05
 -1       723-6.29165E-04 1.51274E-04 1.97702E-04-3.03986E-04 7.94459E-06-1.23405E-06
 -1       724-7.19238E-04 1.69701E-04 2.21058E-04 3.00439E-04-6.02028E-07-1.09923E-05
 -1       725-5.75374E-04 1.38506E-04 1.78236E-04 1.85377E-04-2.31110E-06 3.02109E-05
 -1       726-1.68400E-04-2.12857E-04 1.55640E-04 3.90222E-04-8.77355E-06-4.24304E-06
 -1       727-3.90780E-05-8.51801E-05 5.42254E-05 1.15725E-04-9.12548E-06 1.25259E-05
 -1       728 4.89213E-05-1.27883E-05-1.47052E-05-9.30741E-05-2.99887E-05 1.15395E-05
 -1       729 4.13796E-06 2.57162E-04-1.13999E-04-2.08513E-04-2.21965E-05-3.49381E-07
 -1       730-3.56955E-04 1.07433E-03-2.83431E-04-7.50910E-05-2.60237E-05 3.57813E-05
 -1       731-1.82152E-04 8.65026E-04-3.01355E-04 2.58683E-04-3.38601E-05-2.07716E-05
 -1       732-1.59942E-04 1.50693E-03-5.45195E-04 1.02301E-03-2.15365E-05 3.56441E-05
 -1       733 4.96493E-04 3.79470E-04-3.77533E-04 8.37194E-04 5.49030E-05 1.62915E-05
 -1       734 4.93656E-04-2.47828E-05-1.63706E-04 4.53766E-04 5.15788E-05 1.00814E-04
 -1       735-2.95342E-04-2.02019E-04 2.08384E-04-7.15158E-04 8.79149E-05 1.60932E-04
 -1       736-1.95274E-03 3.77120E-04 6.43046E-04-1.28613E-03 3.40682E-05 1.67406E-04
 -1       737-3.28046E-03 1.00190E-03 8.69447E-04 1.18385E-03-1.11517E-05 2.98510E-05
 -1       738-1.29582E-03 2.84433E-05 4.63588E-04 1.09521E-03 2.14748E-04-1.36238E-04
 -1       739 6.03448E-04-4.04024E-04-2.34908E-05-1.33216E-04 7.28261E-05-2.07525E-04
 -1       740 5.81579E-04 4.37818E-04-4.46902E-04-9.25187E-04 7.21924E-05 2.68853E-07
 -1       741-4.29527E-04 1.71845E-03-4.35140E-04-1.02005E-03-8.60223E-06-6.18848E-05
 -1       742-1.89860E-04 9.48920E-04-3.27542E-04-3.10170E-04-3.60140E-05 1.70398E-05
 -1       743-2.73446E-04 7.50944E-04-2.32180E-04 2.08813E-04-6.26485E-05-1.01685E-05
 -1       744-2.99908E-05 2.73882E-04-1.00292E-04 1.79240E-04-1.98843E-05-1.31923E-05
 -1       745 2.87336E-05 7.56553E-06-1.71645E-05 3.52231E-05-3.09710E-05-2.17748E-05
 -1       746-5.05324E-05-9.54130E-05 6.56929E-05-1.68452E-04-2.23676E-05-1.18015E-05
 -1       747-4.27632E-04-2.37525E-05 1.66570E-04-2.92537E-04 2.52015E-05-2.77273E-05
 -1       748-4.89217E-04 8.74562E-05 1.77931E-04-2.02586E-04-2.70546E-05-7.49418E-06
 -1       749-8.26920E-04 2.37897E-04 2.28020E-04-1.06997E-05 1.91930E-05-1.72640E-05
 -1       750-5.08706E-04 1.01713E-04 1.81301E-04 2.05853E-04-2.49157E-05 2.32341E-06
 -1       751-4.57881E-04-4.30503E-05 1.91705E-04 3.42457E-04 1.70745E-05 2.83140E-05
 -1       752-8.63795E-05-1.30991E-04 9.03868E-05 2.22715E-04-2.91212E-05 1.95700E-05
 -1       753 2.16624E-06-7.12013E-05 3.04376E-05 3.70624E-05-2.07053E-05 1.99003E-05
 -1       754-2.51231E-06 1.64077E-04-6.98715E-05-1.38160E-04-1.57257E-05 1.16400E-05
 -1       755-1.54725E-04 5.92974E-04-2.06508E-04-1.79545E-04-3.83520E-05 1.95226E-05
 -1       756-2.82292E-04 9.79095E-04-3.16732E-04 1.55352E-04 9.47071E-06 9.25925E-06
 -1       757-2.55345E-04 1.14717E-03-3.83145E-04 4.75349E-04-6.12222E-05-2.53768E-05
 -1       758 1.68301E-04 9.55553E-04-4.93891E-04 1.09194E-03 6.21719E-05 6.81025E-05
 -1       759 4.71864E-04 1.83068E-04-3.02700E-04 6.13127E-04 6.15839E-05 2.85337E-05
 -1       760 1.86085E-04-1.99392E-04-7.71952E-06-2.16177E-04 1.55734E-04 1.24750E-04
 -1       761-1.12569E-03 1.41511E-05 4.20020E-04-9.23898E-04 1.65053E-04 1.80366E-04
 -1       762-3.18672E-03 1.02302E-03 7.96385E-04-1.89936E-04-5.09701E-05 1.64531E-04
 -1       763-2.22053E-03 3.78444E-04 7.41994E-04 1.08437E-03 1.56310E-04-8.73998E-05
 -1       764-3.35483E-04-3.03883E-04 1.88302E-04 7.57277E-04 3.01595E-04-1.72074E-04
 -1       765 5.48539E-04 5.14650E-05-2.80437E-04-5.56758E-04 1.09409E-04-8.22226E-05
 -1       766 2.32810E-04 1.05135E-03-5.74076E-04-1.14236E-03 4.75952E-05-4.34613E-05
 -1       767-2.65057E-04 1.23972E-03-3.86108E-04-5.61543E-04-1.02321E-04-8.26223E-06
 -1       768-3.69277E-04 1.11252E-03-3.22794E-04-1.86984E-04 9.18101E-06-5.28436E-06
 -1       769-4.42236E-04 1.12704E-03-1.79610E-04 2.45336E-05-3.22713E-05 4.68586E-06
 -1       770-4.66213E-04 1.16143E-03-1.93733E-04-2.36281E-05 2.80900E-05-7.79859E-06
 -1       771-4.34570E-04 1.22718E-03-2.48678E-04 4.60574E-05-3.59608E-05-1.09801E-06
 -1       772-4.30168E-04 1.16019E-03-1.92745E-04 3.60071E-05 3.92998E-06 7.33059E-06
 -1       773-4.05976E-04 1.20394E-03-2.52204E-04 2.76419E-05 3.98800E-05-6.57650E-06
 -1       774-3.56027E-05 3.73577E-04-1.49932E-04 2.50099E-04 3.40299E-05-6.46081E-06
 -1       775 3.02392E-05 1.20831E-04-6.16057E-05 1.60443E-04 2.84455E-05 1.65111E-05
 -1       776 1.29948E-05-6.81397E-05 1.93316E-05-6.04311E-05 2.07026E-05 1.95414E-05
 -1       777-1.01486E-04-2.02805E-04 1.28312E-04-3.45335E-04-5.66514E-06 5.77400E-07
 -1       778-5.28126E-04 1.27711E-04 1.61486E-04-1.71483E-04 1.02237E-05 2.92507E-05
 -1       779-6.79527E-04 1.52840E-04 2.16991E-04-2.91726E-04 1.08683E-05-1.52916E-05
 -1       780-6.72692E-04 1.60349E-04 2.11015E-04 2.78037E-04-4.76669E-06 4.55773E-06
 -1       781-5.79593E-04 1.35017E-04 1.87302E-04 1.89986E-04-2.67308E-06-2.32322E-05
 -1       782-1.91260E-04-1.99558E-04 1.37370E-04 4.32087E-04 7.96630E-06 4.88425E-06
 -1       783-3.70349E-05-8.36081E-05 5.45043E-05 1.11361E-04 1.50960E-05-1.74160E-05
 -1       784 4.62598E-05-1.17373E-05-1.86036E-05-7.36431E-05 1.71817E-05-1.42326E-05
 -1       785-1.67133E-05 2.78067E-04-1.16879E-04-2.18935E-04 3.09697E-05 1.00605E-06
 -1       786-3.43964E-04 1.05782E-03-2.84027E-04-6.04143E-05 3.49891E-05-2.14161E-05
 -1       787-1.87382E-04 8.67477E-04-2.94183E-04 2.58041E-04 3.98601E-05 1.89066E-05
 -1       788-1.95471E-04 1.54615E-03-5.24100E-04 1.01612E-03 3.15287E-05-4.15391E-05
 -1       789 5.27444E-04 4.01644E-04-4.02704E-04 8.46089E-04-4.93141E-05 1.37708E-05
 -1       790 4.86565E-04-2.38346E-05-1.64249E-04 4.52615E-04-5.30713E-05-9.81346E-05
 -1       791-2.92637E-04-2.03306E-04 2.07996E-04-7.16011E-04-8.82984E-05-1.64331E-04
 -1       792-1.94045E-03 3.73302E-04 6.40070E-04-1.28101E-03-3.38841E-05-1.69071E-04
 -1       793-3.27318E-03 1.01214E-03 8.54088E-04 1.16443E-03 7.03019E-06-4.26243E-05
 -1       794-1.29885E-03 1.98454E-05 4.68807E-04 1.11455E-03-2.19435E-04 1.43981E-04
 -1       795 5.98906E-04-4.04189E-04-1.63928E-05-1.38053E-04-7.15610E-05 2.01675E-04
 -1       796 5.66899E-04 4.25552E-04-4.27413E-04-9.10985E-04-7.36026E-05 1.80248E-05
 -1       797-4.31934E-04 1.72490E-03-4.39251E-04-1.02353E-03 3.99870E-06 6.05681E-05
 -1       798-1.92872E-04 9.48458E-04-3.26408E-04-3.07512E-04 3.70729E-05-1.93747E-05
 -1       799-2.59194E-04 7.52417E-04-2.47043E-04 1.87614E-04 7.44158E-05 1.69950E-05
 -1       800-3.52361E-05 2.70672E-04-1.00490E-04 1.83052E-04 2.37164E-05 1.01666E-05
 -1       801 2.40666E-05 1.25570E-05-1.84167E-05 2.85265E-05 4.07137E-05 2.26839E-05
 -1       802-4.88398E-05-1.18004E-04 7.09442E-05-1.84573E-04 1.75328E-05 2.50385E-05
 -1       803-3.77102E-04-4.04421E-05 1.63368E-04-3.03405E-04 2.68164E-06 2.25245E-05
 -1       804-4.89001E-04 8.57357E-05 1.97043E-04-2.07740E-04 2.44082E-05 3.14249E-06
 -1       805-8.39383E-04 2.06969E-04 2.37435E-04-1.04936E-06-3.97022E-05-1.15085E-05
 -1       806-5.12875E-04 1.03885E-04 1.78534E-04 2.03017E-04 2.79696E-05-2.97981E-06
 -1       807-4.65333E-04-5.62762E-06 1.93232E-04 3.51168E-04-1.59999E-05-1.20175E-05
 -1       808-8.49020E-05-1.32777E-04 9.13670E-05 2.21945E-04 3.86608E-05-1.90269E-05
 -1       809 3.16255E-06-6.75775E-05 2.78091E-05 4.53746E-05 2.14581E-05-1.77730E-05
 -1       810-5.63253E-06 1.71898E-04-7.35909E-05-1.36394E-04 1.91247E-05-5.36962E-06
 -1       811-1.90206E-04 6.04425E-04-1.97877E-04-1.49036E-04 7.35347E-05-1.37061E-05
 -1       812-2.95462E-04 9.83124E-04-2.91912E-04 1.45521E-04-1.84399E-06-2.09800E-06
 -1       813-2.59477E-04 1.14329E-03-3.93069E-04 4.76928E-04 8.51717E-05-4.34760E-07
 -1       814 2.48787E-04 1.00386E-03-5.57865E-04 1.08495E-03-3.84240E-05-2.60053E-05
 -1       815 4.41902E-04 1.79117E-04-2.93008E-04 6.12730E-04-6.15427E-05-3.94047E-05
 -1       816 1.88107E-04-2.01669E-04-6.47933E-06-2.18338E-04-1.56794E-04-1.25959E-04
 -1       817-1.11240E-03 1.09159E-05 4.16262E-04-9.20948E-04-1.65252E-04-1.82795E-04
 -1       818-3.19508E-03 1.04433E-03 7.90719E-04-2.09272E-04 6.58664E-05-1.77955E-04
 -1       819-2.21675E-03 3.74179E-04 7.39121E-04 1.09038E-03-1.64300E-04 9.53359E-05
 -1       820-3.38795E-04-3.07201E-04 1.91419E-04 7.66433E-04-3.07215E-04 1.75367E-04
 -1       821 5.69122E-04 5.83630E-05-2.89906E-04-5.55458E-04-1.17365E-04 6.55322E-05
 -1       822 2.33544E-04 1.05740E-03-5.59229E-04-1.12628E-03-3.89403E-05 6.51085E-05
 -1       823-2.64026E-04 1.24044E-03-3.87141E-04-5.59695E-04 1.02333E-04 6.58685E-06
 -1       824-3.63658E-04 1.12382E-03-3.25516E-04-1.80597E-04-5.60215E-06 9.76291E-06
 -1       825 2.25699E-04 7.87879E-04-2.08446E-04-9.51881E-04-1.15785E-06 2.15863E-06
 -1       826 4.11377E-04 7.77465E-04-2.70670E-04-1.05991E-03 7.00145E-05 2.79906E-05
 -1       827 4.19122E-04 7.73008E-04-2.69214E-04-1.05580E-03-7.28489E-05-2.61396E-05
 -1       828-3.68353E+00 1.23206E+01-3.67405E+00 4.33061E-01 3.34030E-03-1.52604E-03
 -1       829-3.70402E+00 1.22951E+01-3.65661E+00 3.11462E-01-8.99316E-02-1.21576E-02
 -1       830-3.70596E+00 1.23010E+01-3.65590E+00 3.10039E-01 9.25615E-02 1.26658E-02
 -1       831-1.86369E-02-5.08509E-04 8.39566E-03-1.12505E-02 6.80972E-05-2.74667E-05
 -1       832-2.30484E-02-1.01556E-03 9.83310E-03-1.07148E-02 4.16949E-03-8.46746E-04
 -1       833-2.33429E-02-1.66576E-04 9.42918E-03-1.04390E-02-4.09110E-03 7.65817E-04
 -1       834-1.36762E+00 2.56977E+00-1.05981E-01 1.11080E+00 8.53906E-02-1.06209E-01
 -1       835-1.57283E+00 2.49489E+00-6.93846E-02 5.91804E-01-5.35264E-02 6.10598E-02
 -1       836-1.86437E+00 3.17422E+00 1.91152E-06 1.21880E+00 4.14018E-01 5.01481E-02
 -1       837-1.44483E+00 2.33514E+00 1.51110E-06 7.49757E-01 1.20002E-02-4.67457E-02
 -1       838-2.00707E+00 2.96433E+00 1.53233E-06 6.68976E-01-3.51741E-01-5.03402E-02
 -1       839-6.93739E-01 6.90738E-01 6.62574E-03-1.01792E+00 8.47029E-03 2.41328E-03
 -1       840-2.33731E-01 5.08181E-01 5.86844E-03-8.02594E-01-2.82266E-02 1.37304E-01
 -1       841 3.00778E-02 4.27690E-01-4.07320E-03-7.09337E-01-5.73790E-02 2.06734E-01
 -1       842 2.41395E-01 3.90533E-01-5.78436E-02-6.92721E-01-5.03648E-02 2.31735E-01
 -1       843-1.31768E+00 9.05268E-01 1.26017E-07-1.27920E+00 9.76693E-03-3.19493E-02
 -1       844-4.81252E-01 5.92273E-01 4.40293E-07-8.95127E-01-1.93162E-02 6.31845E-02
 -1       845-1.07081E-01 4.72430E-01 5.84716E-07-7.56311E-01-5.47654E-02 1.79142E-01
 -1       846 1.50432E-01 4.19962E-01 1.04504E-06-7.09860E-01-7.29241E-02 2.38541E-01
 -1       847 3.78115E-01 4.23623E-01 5.34611E-04-7.51110E-01-9.47884E-02 3.07982E-01
 -1       848-7.28699E-01 7.26045E-01 4.49535E-03-1.04682E+00-1.25676E-03-2.69107E-02
 -1       849-2.62458E-01 5.14286E-01 2.99895E-03-7.97970E-01 3.39777E-02-1.31518E-01
 -1       850 5.07863E-02 4.26636E-01 2.54410E-04-7.20368E-01 6.80387E-02-2.22482E-01
 -1       851 2.49080E-01 3.97520E-01-6.48346E-03-6.98134E-01 7.35589E-02-2.74969E-01
 -1       852-1.36524E+00 9.59539E-01 1.50187E-07-1.36069E+00 1.34986E-02-4.41555E-02
 -1       853-4.99932E-01 6.03131E-01 4.58672E-07-9.10030E-01 2.31070E-02-7.55844E-02
 -1       854-1.04056E-01 4.68858E-01 6.82285E-07-7.50932E-01 5.59943E-02-1.83162E-01
 -1       855 1.36944E-01 4.18290E-01 1.03503E-06-7.05064E-01 7.27387E-02-2.37934E-01
 -1       856 3.55494E-01 4.21496E-01 5.34749E-04-7.44295E-01 9.61671E-02-3.12223E-01
 -1       857-8.77807E-01 2.66194E-01 6.20317E-03-2.93509E-01 9.01501E-02-2.65788E-01
 -1       858-7.14539E-01 3.15201E-01 7.32247E-03-3.83381E-01 6.92195E-02-1.63698E-01
 -1       859-5.05531E-01 4.08305E-01-7.05293E-03-5.72207E-01 2.06042E-02-4.51153E-02
 -1       860-3.48811E-01 6.53532E-01-2.56756E-02-9.51032E-01-2.66850E-02 1.71062E-01
 -1       861-9.94851E-01 2.62526E-01-5.84890E-04-2.76465E-01 8.98381E-02-2.95984E-01
 -1       862-8.04660E-01 2.85731E-01-9.02340E-07-3.44227E-01 7.40080E-02-2.42044E-01
 -1       863-6.01882E-01 3.47600E-01-5.55794E-07-4.76399E-01 3.36033E-02-1.09901E-01
 -1       864-3.92660E-01 5.01777E-01 5.04905E-08-7.60503E-01-1.38630E-02 4.53386E-02
 -1       865 1.25800E-01 1.03055E+00 6.00373E-07-1.70444E+00-7.78851E-02 2.54723E-01
 -1       866 2.20929E-01-2.08834E+00 1.10159E+00 1.50295E+00 4.85145E-01-2.49590E-01
 -1       867 5.43342E-02-4.41093E-01 1.70793E-01 4.12566E-01 3.15802E-02-8.69956E-02
 -1       868 6.63571E-01 3.06666E-02-2.90938E-01-5.46824E-01 3.26394E-02-5.12365E-02
 -1       869 1.03579E+00-1.86813E-01-3.48534E-01-5.19890E-01-1.80217E-02 8.11393E-02
 -1       870 1.96472E-01-6.83892E-02-6.39397E-02-3.23118E-01 4.22669E-03 1.14339E-01
 -1       871-4.32158E-01 4.66786E-02 1.32285E-01-1.81163E-01 2.98578E-02 4.22296E-02
 -1       872 1.41391E-01-4.93159E-02-2.12340E-01 1.26121E-01-2.40902E-01-3.09660E-01
 -1       873 1.35841E+00-5.27356E+00 1.31397E+00 1.74119E+00-3.01972E-01 1.92500E-01
 -1       874 1.50313E-02-1.03715E+00 4.79159E-01 8.32178E-01 1.21895E-01-1.96849E-01
 -1       875 3.43049E-01-1.76764E-01-6.79990E-02-1.27143E-01 4.33434E-02-5.45990E-02
 -1       876 9.60434E-01-1.14181E-01-3.46228E-01-6.01109E-01-1.99393E-03 1.00728E-02
 -1       877 6.18684E-01-9.61790E-02-2.22867E-01-3.87756E-01 1.92397E-02 1.42883E-01
 -1       878-2.01849E-01 8.01233E-04 6.53068E-02-2.54341E-01-2.45722E-02 1.04467E-01
 -1       879-2.59529E-01 7.03708E-02 5.03140E-02-1.06743E-02 1.99259E-02-6.11475E-02
 -1       880 7.24346E-01 1.33816E+00-6.06821E-01 2.19095E+00-5.53984E-03 9.20455E-02
 -1       881-8.76746E-01 2.67341E-01 5.77433E-03-2.97061E-01-8.97333E-02 2.64908E-01
 -1       882-7.00749E-01 3.12395E-01 8.20248E-03-3.90089E-01-6.52170E-02 1.56238E-01
 -1       883-5.40866E-01 4.15106E-01-5.52815E-03-5.78710E-01-2.85446E-02 4.13032E-02
 -1       884-3.88578E-01 6.80673E-01-1.87814E-02-1.01482E+00 1.64226E-02-1.30055E-01
 -1       885-9.94827E-01 2.63617E-01-5.41379E-04-2.78242E-01-8.91371E-02 2.93724E-01
 -1       886-8.00994E-01 2.87739E-01-8.80186E-07-3.48071E-01-7.34889E-02 2.40347E-01
 -1       887-6.07050E-01 3.55022E-01-3.91735E-07-4.87745E-01-3.31674E-02 1.08475E-01
 -1       888-4.19660E-01 5.27234E-01-7.05740E-08-7.98003E-01 8.70839E-03-2.84803E-02
 -1       889-3.03896E-02 1.11289E+00 6.04665E-07-1.81521E+00 6.95416E-02-2.27436E-01
 -1       890 2.29915E-01-2.14964E+00 1.02087E+00 1.33917E+00-3.87512E-01 2.94046E-01
 -1       891 1.52942E-01-5.34790E-01 1.72625E-01 3.75302E-01-6.98924E-02 1.07308E-01
 -1       892 7.63200E-01-5.40173E-02-2.80991E-01-4.57395E-01 6.84527E-03 5.21299E-02
 -1       893 8.95407E-01-7.23269E-02-3.15722E-01-5.31376E-01 1.78126E-02-3.13742E-02
 -1       894 2.17573E-01-6.47293E-02-8.12328E-02-2.57870E-01-5.37912E-03-1.19046E-01
 -1       895-4.60223E-01 4.13905E-02 1.48774E-01-2.01306E-01-2.34407E-02-3.50272E-02
 -1       896 2.09740E-01-1.44149E-01-2.71606E-01 1.67734E-01 2.60344E-01 3.04988E-01
 -1       897 1.67411E+00-5.47871E+00 1.27229E+00 1.59622E+00 5.37807E-01 8.65382E-03
 -1       898 2.15148E-01-1.11898E+00 4.12019E-01 8.34315E-01-1.13646E-01 2.05809E-01
 -1       899 4.15860E-01-2.17008E-01-6.99369E-02-9.41304E-02-4.96684E-02 1.03526E-01
 -1       900 9.18162E-01-1.00491E-01-3.38197E-01-5.82242E-01 1.52096E-02 7.52785E-03
 -1       901 6.72104E-01-6.27622E-02-2.35611E-01-3.98876E-01 2.19930E-02-1.12927E-01
 -1       902-2.38574E-01 1.16006E-02 6.96457E-02-2.40529E-01 2.12732E-02-8.07261E-02
 -1       903-2.44944E-01 3.15093E-02 4.91878E-02-4.26663E-02-5.28328E-02 8.32901E-02
 -1       904 7.74066E-01 1.20402E+00-4.94023E-01 2.17023E+00-3.90946E-02-4.49670E-02
 -1       905 2.33122E+00-2.44998E+00 5.49875E-02-1.31491E+00-1.47123E-01-1.66092E-01
 -1       906 2.28764E+00-2.86786E+00 1.16470E-01-1.04347E+00 9.43430E-02 7.71285E-02
 -1       907 2.97445E+00-2.84751E+00-6.61073E-07-1.61266E+00-5.52148E-01-8.76096E-02
 -1       908 2.15369E+00-2.45353E+00-1.36327E-06-1.22885E+00-8.53005E-02-5.40360E-03
 -1       909 2.68795E+00-3.24191E+00-2.17347E-06-1.21246E+00 6.15996E-01 4.29227E-02
 -1       910 9.92681E-05 1.66698E-04-1.04103E-04-2.68958E-04 6.35509E-05-7.32918E-05
 -1       911 1.45800E-04 1.06161E-05-7.20524E-05-1.37628E-04 1.75108E-05-2.44879E-05
 -1       912 6.85617E-05-1.75951E-04 5.15974E-05-2.32794E-05 5.04852E-05-8.61925E-06
 -1       913 8.79479E-05-3.84410E-04 1.24550E-04 1.37111E-04 1.22683E-04-5.93396E-05
 -1       914 3.94333E-05-6.79496E-04 2.79896E-04-4.54971E-04-5.32829E-05-3.82346E-05
 -1       915 3.56469E-04-1.10781E-03 3.22352E-04-2.52910E-04 1.65429E-04 7.35111E-05
 -1       916-7.76667E-04-3.15332E-04 4.63852E-04-9.42838E-04-1.82748E-05-1.14032E-04
 -1       917-5.05496E-05-7.58989E-04 3.48476E-04-7.34319E-04-1.15262E-04-3.34554E-05
 -1       918 7.31254E-04-2.87017E-04-2.18343E-04-3.36881E-04-1.02878E-05-1.83746E-04
 -1       919 2.27434E-03-6.91941E-04-6.16405E-04 2.80110E-04-1.50709E-04-2.10263E-04
 -1       920 3.30962E-03-6.10248E-04-1.01268E-03-1.18045E-03-1.67519E-04 6.33901E-05
 -1       921 2.32276E-03-7.19209E-04-7.24138E-04 1.44792E-04-3.42731E-05 1.51186E-04
 -1       922 7.08419E-05-9.61952E-04 3.39140E-04 7.05053E-04-2.28661E-04 1.25922E-04
 -1       923-8.18679E-04-2.18571E-04 4.49846E-04 9.93076E-04-1.67396E-04 2.12619E-04
 -1       924 3.38061E-04-1.21087E-03 3.57869E-04 3.22524E-04 1.68773E-04-9.98231E-05
 -1       925 9.04610E-05-8.60796E-04 3.30550E-04 4.71137E-04 1.84985E-05 4.03831E-05
 -1       926 1.25537E-04-5.64986E-04 1.87907E-04-1.43513E-04 4.73333E-05 7.78120E-05
 -1       927 9.39492E-05-2.74766E-04 7.83888E-05 4.49159E-06 3.64107E-05-3.45554E-06
 -1       928 1.05936E-04-1.32328E-05-4.35738E-05 7.47324E-05 3.29816E-05 3.21293E-05
 -1       929 6.90908E-05 1.33028E-04-8.97451E-05 2.24635E-04 4.84322E-05 5.72145E-05
 -1       930 5.57588E-04-1.45060E-04-1.80230E-04 1.43804E-04-2.63576E-05-1.01060E-05
 -1       931 6.79207E-04-1.67741E-04-2.12369E-04 1.80642E-04 2.41124E-05 3.54174E-05
 -1       932 6.89379E-04-1.59984E-04-2.28358E-04-1.98294E-04-2.26948E-06-5.46478E-05
 -1       933 5.95298E-04-1.48546E-04-1.92098E-04-1.80828E-04-3.38610E-05 2.22860E-05
 -1       934 9.07621E-05-8.44726E-04 3.21492E-04 4.88549E-04-2.44634E-05-3.89934E-05
 -1       935 1.43644E-04-5.68292E-04 1.85823E-04-1.57375E-04-3.12941E-05-8.12243E-05
 -1       936 9.72446E-05-2.76677E-04 8.12439E-05 5.01350E-06-4.57125E-05-6.56485E-06
 -1       937 9.86316E-05-1.15034E-05-3.53074E-05 7.84398E-05-1.93607E-05-3.41736E-05
 -1       938 8.76634E-05 1.33886E-04-8.93485E-05 2.29497E-04-6.19691E-05-6.25533E-05
 -1       939 5.43740E-04-1.42130E-04-1.64411E-04 1.37285E-04 3.54717E-05 1.82262E-05
 -1       940 6.76654E-04-1.54913E-04-2.24405E-04 1.85549E-04 1.02174E-05-6.81462E-05
 -1       941 6.86467E-04-1.59751E-04-2.23414E-04-1.87731E-04-1.92924E-06 6.06056E-05
 -1       942 5.96312E-04-1.47740E-04-1.97039E-04-1.76993E-04 3.48536E-05-2.64994E-05
 -1       943 1.15289E-04 1.59631E-04-1.12544E-04-2.79453E-04-4.70811E-05 5.71318E-05
 -1       944 1.49624E-04 6.87022E-06-6.67680E-05-1.35608E-04-2.11526E-05 2.21663E-05
 -1       945 6.86440E-05-1.76506E-04 5.74253E-05-2.09988E-05-4.50548E-05-7.99038E-06
 -1       946 1.03870E-04-3.79899E-04 1.28356E-04 1.49616E-04-1.49408E-04 3.65742E-05
 -1       947 5.66489E-05-6.71534E-04 2.80645E-04-4.67872E-04 6.97479E-05 1.40392E-05
 -1       948 3.14346E-04-1.10320E-03 3.09371E-04-2.49220E-04-1.53232E-04-3.59359E-05
 -1       949-7.96710E-04-1.97373E-04 4.33261E-04-9.43418E-04 1.28807E-04 1.78276E-04
 -1       950-6.42293E-05-7.68458E-04 3.28631E-04-7.22922E-04 1.12815E-04 3.78803E-05
 -1       951 7.40612E-04-2.90131E-04-2.21952E-04-3.34836E-04 9.89621E-06 1.84966E-04
 -1       952 2.25796E-03-6.90471E-04-5.93812E-04 2.67560E-04 1.55304E-04 2.11483E-04
 -1       953 3.32951E-03-6.05779E-04-1.02053E-03-1.20367E-03 1.88813E-04-7.20957E-05
 -1       954 2.33337E-03-7.29173E-04-7.27105E-04 1.57616E-04 3.73349E-05-1.56761E-04
 -1       955 7.60300E-05-9.43922E-04 3.72646E-04 7.35590E-04 2.42045E-04-1.18883E-04
 -1       956-8.04590E-04-2.60806E-04 4.39692E-04 9.88668E-04 1.54397E-04-2.10077E-04
 -1       957 3.38289E-04-1.21380E-03 3.58599E-04 3.25439E-04-1.68658E-04 1.00293E-04
 -1       958 8.55386E-05 9.55032E-05-1.03667E-04-1.96245E-04 2.18353E-05-2.37236E-05
 -1       959 1.07981E-04 8.13738E-05-1.07989E-04-1.71472E-04-2.50777E-05 2.60445E-05
 -1       960 8.97070E-05 6.00635E-05-8.63622E-05-1.35844E-04 2.78088E-05-2.81567E-05
 -1       961 7.76919E-05 8.95671E-05-1.05965E-04-1.51983E-04 2.34049E-06-5.48038E-06
 -1       962 5.04436E-05 9.40773E-05-8.43814E-05-1.22895E-04-3.10694E-05 3.04004E-05
 -1       963 5.74976E-04 4.01048E-05-8.93350E-05-3.73385E-04-1.41863E-07-1.46712E-05
 -1       964 4.74532E-04 4.75647E-05-9.33567E-05-2.79290E-04 2.28463E-05 1.46213E-05
 -1       965 8.22273E-04 5.85697E-05-1.58245E-04-5.86556E-04 9.24995E-06-2.97270E-05
 -1       966 5.41289E-04 4.06930E-05-7.43211E-05-3.16443E-04-3.43865E-06-1.33188E-05
 -1       967 6.02190E-04 9.13710E-05-1.50407E-04-3.96324E-04 1.68245E-05 4.25121E-05
 -1       968 5.08750E-04-1.27768E-04-2.31036E-04-1.89086E-04-1.98907E-06-1.07438E-05
 -1       969 4.82301E-04-1.00202E-04-2.29676E-04-1.82523E-04-2.91502E-06 1.06237E-05
 -1       970 4.41668E-04-9.62535E-05-1.89748E-04-1.52915E-04 1.36602E-05-1.09845E-05
 -1       971 4.74412E-04-9.17848E-05-2.28532E-04-1.63307E-04-3.39405E-07 2.91479E-06
 -1       972 4.52134E-04-8.61294E-05-2.00610E-04-1.63875E-04-1.12244E-05 5.92258E-06
 -1       973 8.13239E-04-1.20252E-04-1.09796E-04-1.79962E-05-1.27880E-05-1.30005E-05
 -1       974 9.74371E-04-1.92022E-04-1.08855E-04-1.11507E-05 2.24662E-06-1.84345E-05
 -1       975 1.01949E-03-1.34495E-04-1.93477E-04 1.92050E-05-3.77736E-05 3.45205E-06
 -1       976 1.50126E-03-3.49859E-04-9.49489E-05 1.77605E-05 8.62946E-06-1.28712E-05
 -1       977 1.44695E-03-3.09928E-04-1.93302E-04-6.98039E-05 1.91380E-05-1.45758E-05
 -1       978 4.57079E-04-9.81327E-05-2.14686E-04 1.59780E-04 3.53202E-06 1.68261E-05
 -1       979 5.06894E-04-1.27460E-04-2.19507E-04 1.84696E-04-1.38868E-06-1.61371E-05
 -1       980 4.10736E-04-8.47315E-05-1.83938E-04 1.54694E-04 1.30745E-05 1.53022E-05
 -1       981 4.55145E-04-8.45184E-05-2.16087E-04 1.51352E-04 3.93381E-07-1.58750E-06
 -1       982 4.17910E-04-9.15648E-05-1.82062E-04 1.49867E-04-1.47751E-05-1.58791E-05
 -1       983 5.19050E-04 2.62489E-05-7.59298E-05 3.42932E-04 4.39785E-06 1.93705E-05
 -1       984 5.31153E-04 3.00373E-05-8.27117E-05 3.34149E-04-1.67961E-06-2.65506E-05
 -1       985 7.41949E-04 4.36031E-05-1.35805E-04 5.24001E-04 1.05759E-05 3.33263E-05
 -1       986 5.38557E-04 4.59569E-05-6.46165E-05 3.51317E-04 8.13175E-06 3.71867E-06
 -1       987 7.15394E-04 4.16204E-05-1.27476E-04 5.26692E-04-2.24931E-05-3.18611E-05
 -1       988 7.24225E-05 5.73033E-05-7.30202E-05 1.30920E-04 2.68501E-05 3.17962E-05
 -1       989 6.53508E-05 6.15907E-05-7.00638E-05 1.40713E-04-2.42101E-05-2.73707E-05
 -1       990 2.78063E-05 7.67720E-05-6.11462E-05 8.79484E-05 3.14855E-05 3.14591E-05
 -1       991 4.94501E-05 6.49813E-05-7.41703E-05 1.13669E-04-1.10801E-06-6.37933E-07
 -1       992 7.01506E-05 3.60084E-05-6.03841E-05 9.46011E-05-3.20644E-05-3.19039E-05
 -1       993 6.72225E-05-1.53685E-04 1.76358E-05 5.14377E-07 3.18799E-05 1.71452E-05
 -1       994 7.18512E-05-1.48945E-04 1.63867E-05-2.01601E-06-3.20666E-05-1.67575E-05
 -1       995 9.84924E-05-2.04449E-04 2.13997E-05-5.77821E-06 6.14909E-05 3.33476E-05
 -1       996 5.14977E-05-1.27620E-04 1.34411E-05 1.43313E-06-1.24668E-06 5.75090E-07
 -1       997 1.02456E-04-1.66030E-04 1.94081E-05 1.54261E-05-5.52987E-05-3.66110E-05
 -1       998 9.78804E-05-3.73331E-04 1.65040E-04-1.33617E-04 5.15983E-05 1.55289E-05
 -1       999 9.49910E-05-3.60664E-04 1.67962E-04-1.18132E-04-5.20483E-05-1.69534E-05
 -1      1000 7.60586E-05-2.79039E-04 1.33867E-04-1.04023E-04 5.44642E-05 2.29299E-05
 -1      1001 6.05255E-05-3.28380E-04 1.53773E-04-1.06081E-04-1.76370E-06 4.09051E-06
 -1      1002 7.90674E-05-2.87211E-04 1.32989E-04-1.10147E-04-5.74381E-05-2.66693E-05
 -1      1003 1.27032E-04-9.55714E-04 1.43679E-04 1.14152E-04 4.16150E-05-2.64430E-06
 -1      1004 1.83041E-04-1.04820E-03 1.45051E-04 9.05043E-05-6.11758E-05 4.91186E-06
 -1      1005 1.52626E-04-1.07447E-03 2.16274E-04 1.28041E-04 6.44870E-05-2.54701E-05
 -1      1006 1.71665E-04-1.13995E-03 1.15876E-04 2.07952E-05 2.96779E-06 9.98203E-06
 -1      1007 1.72076E-04-1.08095E-03 1.98431E-04 1.58103E-04-5.97091E-05 2.06515E-05
 -1      1008 2.50317E-04-9.43560E-04 3.90890E-04 3.47110E-04 3.76862E-05-1.95387E-05
 -1      1009 2.53936E-04-9.43871E-04 3.87412E-04 3.41646E-04-3.50464E-05 1.96674E-05
 -1      1010 1.77562E-04-7.23680E-04 3.47414E-04 2.86389E-04 2.45278E-05 8.33245E-06
 -1      1011 1.90026E-04-8.75123E-04 3.89664E-04 3.11563E-04 9.44379E-07 1.75452E-07
 -1      1012 1.79122E-04-7.23267E-04 3.45273E-04 2.83474E-04-2.43668E-05-8.98545E-06
 -1      1013-3.27518E-04-1.09178E-03 1.53218E-04 9.40647E-04-9.01339E-05 2.13274E-05
 -1      1014-3.28214E-04-1.09103E-03 1.50281E-04 9.38944E-04 8.61647E-05-2.18211E-05
 -1      1015-3.94613E-04-1.49440E-03 3.89523E-04 1.12570E-03-8.59036E-05-4.49710E-05
 -1      1016-5.38023E-04-1.80322E-03 1.05442E-04 1.81337E-03-1.84394E-06 9.70586E-08
 -1      1017-4.04044E-04-1.48622E-03 3.91764E-04 1.12688E-03 8.86301E-05 4.43817E-05
 -1      1018-2.97894E-04-3.88221E-04 1.39804E-04 8.44896E-04-1.45957E-04 9.76867E-05
 -1      1019-2.93830E-04-4.14590E-04 1.32955E-04 8.82718E-04 1.28183E-04-9.91104E-05
 -1      1020-2.80876E-04-2.98772E-04 2.43858E-04 6.82746E-04-1.78312E-04 1.08393E-04
 -1      1021-3.83981E-04-2.97554E-04 5.81143E-05 7.83867E-04 7.67208E-06-3.78284E-06
 -1      1022-3.00799E-04-3.72418E-04 2.60181E-04 6.83088E-04 1.11226E-04-2.01120E-04
 -1      1023 1.38395E-03-1.17536E-03-1.63829E-04 1.05174E-03-8.75018E-05-8.23678E-05
 -1      1024 1.47144E-03-1.15171E-03-1.79575E-04 1.05031E-03 7.57966E-05 8.90169E-05
 -1      1025 1.37562E-03-7.89569E-04-2.74062E-04 5.50518E-04-1.84986E-04 2.08046E-04
 -1      1026 1.27492E-03-1.27817E-03-1.40115E-04 1.20596E-03-2.38133E-06 6.05445E-06
 -1      1027 1.35650E-03-7.99044E-04-2.77557E-04 5.51470E-04 1.74711E-04-1.97069E-04
 -1      1028 2.85076E-03-9.00590E-04-8.35587E-04-1.11602E-03-8.38358E-05 2.28676E-04
 -1      1029 2.86056E-03-9.02195E-04-8.31319E-04-1.10618E-03 8.72521E-05-2.40988E-04
 -1      1030 2.37479E-03-6.19625E-04-8.31278E-04-9.94916E-04-1.64989E-04 1.32573E-04
 -1      1031 2.61468E-03-9.18846E-04-7.69277E-04-9.37012E-04-1.23128E-05-1.98069E-06
 -1      1032 2.39154E-03-6.15173E-04-8.41606E-04-1.00139E-03 1.68134E-04-1.36523E-04
 -1      1033 3.00762E-03-4.18319E-04-2.76251E-04-6.84710E-04-5.12751E-05-8.95250E-05
 -1      1034 2.97927E-03-3.21563E-04-4.26622E-04-8.73394E-04 3.03406E-05 7.12695E-05
 -1      1035 3.57182E-03-4.18363E-04-6.44257E-04-4.49412E-04 7.98582E-06-1.38112E-04
 -1      1036 3.04048E-03-3.16347E-04-3.70826E-04-7.60569E-04-7.42290E-05-1.08213E-04
 -1      1037 3.59892E-03-3.96682E-04-6.59810E-04-4.84057E-04 2.74877E-05 2.14743E-04
 -1      1038 1.37058E-03-4.10384E-04-5.78084E-04 5.83288E-04-1.22213E-04-2.97429E-04
 -1      1039 1.36986E-03-4.02783E-04-5.88853E-04 5.96378E-04 1.19917E-04 2.92836E-04
 -1      1040 1.05139E-03-2.76799E-04-4.61325E-04 4.74132E-04-1.17561E-04-2.23210E-04
 -1      1041 1.25719E-03-5.14218E-04-5.24785E-04 3.80122E-04 2.55654E-06 1.14008E-06
 -1      1042 1.05688E-03-2.82590E-04-4.64848E-04 4.70251E-04 1.16700E-04 2.23111E-04
 -1      1043 2.05450E-04-6.15285E-04 3.32120E-05-6.38089E-04-2.37008E-05-5.52639E-05
 -1      1044 1.88674E-04-6.31033E-04 4.51939E-05-6.46210E-04 2.00082E-05 3.96902E-05
 -1      1045 7.20583E-05-4.81769E-04 2.98644E-05-5.80276E-04-1.11187E-04-1.95628E-04
 -1      1046 1.89424E-04-6.72301E-04 2.01612E-05-7.06017E-04 7.76403E-07 1.92549E-07
 -1      1047 7.25941E-05-4.86126E-04 2.82772E-05-5.77356E-04 1.12900E-04 1.95100E-04
 -1      1048-3.00604E-04-4.68513E-04 2.74976E-04-8.47975E-04-7.18421E-05-3.59028E-05
 -1      1049-3.06916E-04-4.51478E-04 2.86022E-04-8.20714E-04 8.19318E-05 3.88704E-05
 -1      1050-3.06194E-04-3.36690E-04 3.02353E-04-6.30852E-04-5.53653E-05-1.19124E-04
 -1      1051-4.34962E-04-3.33317E-04 2.38254E-04-7.55702E-04-1.59680E-06-3.77882E-06
 -1      1052-2.57504E-04-3.28385E-04 2.91405E-04-6.14293E-04 9.94257E-05 5.67462E-05
 -1      1053-3.84647E-04-1.14587E-03 1.63003E-04-1.05582E-03-2.69955E-05-9.66910E-06
 -1      1054-3.31278E-04-1.06022E-03 1.45193E-04-9.54535E-04 6.95569E-05 2.11112E-05
 -1      1055-4.00751E-04-1.45880E-03 3.61681E-04-1.16940E-03-4.08285E-05 2.34290E-05
 -1      1056-4.42162E-04-1.72569E-03 1.23718E-04-1.67377E-03 3.15338E-06 3.81205E-06
 -1      1057-3.68709E-04-1.41057E-03 3.51923E-04-9.76670E-04 4.04304E-05-4.82587E-05
 -1      1058 1.98835E-04-8.31476E-04 3.53495E-04-3.20536E-04 3.00719E-05 1.66680E-05
 -1      1059 2.46240E-04-8.79723E-04 3.55088E-04-3.10378E-04-3.84959E-05-1.69669E-05
 -1      1060 1.30619E-04-6.37212E-04 3.07871E-04-2.50809E-04 4.15509E-05-1.04139E-05
 -1      1061 1.60970E-04-8.19958E-04 3.49859E-04-2.67711E-04-1.24383E-05-4.90373E-07
 -1      1062 1.50667E-04-6.51504E-04 3.18013E-04-2.50866E-04-2.48607E-05 1.41394E-05
 -1      1063 2.13054E-04-1.00895E-03 1.14354E-04-1.04306E-04 5.35891E-05 2.34964E-06
 -1      1064 1.23922E-04-8.12676E-04 9.69231E-05-8.47868E-05-2.31922E-05-4.71314E-06
 -1      1065 1.23870E-04-9.68849E-04 1.78946E-04-1.49948E-04 4.90623E-05 1.91366E-05
 -1      1066 3.42642E-04-1.41015E-03 1.01579E-04-1.33646E-04 1.99593E-05 1.56025E-05
 -1      1067 2.67545E-04-1.38095E-03 1.79326E-04-1.50208E-04-6.49584E-05-3.11935E-05
 -1      1068 4.74786E-05-2.48968E-04 1.21640E-04 7.17477E-05 4.99131E-05-1.24474E-05
 -1      1069 5.81826E-05-2.72310E-04 1.27104E-04 8.02091E-05-3.29947E-05 9.82706E-06
 -1      1070 5.18699E-05-2.09829E-04 9.15998E-05 6.82806E-05 5.48765E-05-2.01430E-05
 -1      1071 3.62897E-05-2.41935E-04 1.22587E-04 8.62878E-05 5.36262E-06-7.49825E-07
 -1      1072 5.42993E-05-2.12811E-04 9.51064E-05 6.94560E-05-5.34063E-05 2.17078E-05
 -1      1073 7.36382E-05-2.23242E-05-6.58806E-06-7.99337E-05 2.92293E-05-1.74369E-05
 -1      1074 7.96153E-05-4.41468E-05-1.70706E-07-7.37648E-05-3.07151E-05 1.57407E-05
 -1      1075 1.05974E-04-3.72032E-05-1.38082E-05-9.24548E-05 4.51149E-05-2.99565E-05
 -1      1076 8.73489E-05-2.78361E-05-2.04458E-06-9.36236E-05-6.06906E-07-2.84497E-06
 -1      1077 9.66756E-05-5.31040E-05-1.08284E-05-8.98970E-05-4.57888E-05 2.17034E-05
 -1      1078 3.01548E-01-1.00122E+00 3.00659E-01 4.75221E-03-1.07623E-04-1.86655E-06
 -1      1079 3.45985E-01-1.15353E+00 3.46727E-01-3.05691E-05 6.76257E-04-2.11062E-04
 -1      1080 2.54582E-01-8.49293E-01 2.54228E-01 3.73149E-03-1.56305E-04 2.61455E-05
 -1      1081 1.74778E+00-5.82504E+00 1.74723E+00 1.22702E-03-1.25051E-03 9.55052E-05
 -1      1082 1.86346E+00-6.20420E+00 1.86183E+00 5.70334E-03 6.15270E-04 6.15787E-04
 -1      1083 1.63838E+00-5.46863E+00 1.64232E+00 9.53838E-03 3.13513E-04 4.31657E-05
 -1      1084 1.54025E+00-5.13195E+00 1.54065E+00 3.23007E-03-3.73203E-04-1.71455E-04
 -1      1085 1.34086E+00-4.47414E+00 1.34314E+00 8.63130E-03 8.79773E-05-2.86289E-04
 -1      1086 3.13091E+00-1.04357E+01 3.13095E+00 7.06099E-04 1.95222E-03-6.26191E-05
 -1      1087 1.43788E+00-4.79099E+00 1.43642E+00 3.83787E-03 3.51042E-04-4.31658E-04
 -1      1088 3.26211E+00-1.08693E+01 3.26441E+00 5.34946E-03-1.04141E-03 2.89399E-04
 -1      1089 2.98863E+00-9.96481E+00 2.98946E+00 9.90415E-03-1.99630E-04 6.87731E-04
 -1      1090 2.71719E+00-9.05627E+00 2.71731E+00 2.02028E-02-2.78256E-04 7.00717E-04
 -1      1091 2.58678E+00-8.61867E+00 2.58506E+00 4.45083E-03 1.77291E-04 8.67133E-04
 -1      1092 2.45571E+00-8.18342E+00 2.45452E+00 1.45322E-03 9.44427E-04-8.44423E-04
 -1      1093 2.21127E+00-7.36614E+00 2.21198E+00 6.28132E-03 2.87827E-04 5.15265E-04
 -1      1094 1.96773E+00-6.56154E+00 1.96831E+00 1.06975E-02 2.69398E-04 2.30759E-04
 -1      1095 1.25532E+00-4.18009E+00 1.25525E+00 4.26673E-03 7.43914E-05 6.67278E-04
 -1      1096 1.16138E+00-3.87006E+00 1.16078E+00 7.74623E-04 4.82302E-04-1.89527E-05
 -1      1097 9.96832E-01-3.31710E+00 9.95659E-01 3.69168E-03 1.04719E-04 5.84339E-04
 -1      1098 9.12507E-01-3.04127E+00 9.12327E-01 8.53017E-04-1.15201E-03-1.96401E-04
 -1      1099 8.34425E-01-2.78451E+00 8.35992E-01 6.77636E-03-4.75487E-04 1.29315E-04
 -1      1100 7.65076E-01-2.54917E+00 7.65959E-01 2.54361E-03 4.83910E-04-6.72384E-05
 -1      1101 6.94087E-01-2.31006E+00 6.92022E-01 1.46820E-03-4.89707E-04-5.24030E-04
 -1      1102 5.66334E-01-1.88539E+00 5.66380E-01 2.40089E-03 3.90385E-04-3.65624E-04
 -1      1103 5.04293E-01-1.68069E+00 5.04165E-01 1.31858E-03-3.45708E-04-5.55998E-04
 -1      1104 3.98096E-01-1.32453E+00 3.98241E-01 1.79967E-03-4.48714E-05-3.04125E-04
 -1      1105 1.80265E-01-6.00403E-01 1.80364E-01 2.33600E-03-2.67020E-04-1.10444E-04
 -1      1106 1.17558E-01-3.91092E-01 1.17691E-01-1.99930E-04-2.33940E-04 2.32032E-05
 -1      1107 9.04224E-02-3.00214E-01 8.98870E-02 1.83539E-03 1.89974E-04 1.04943E-04
 -1      1108 4.73005E-02-1.56563E-01 4.70662E-02 1.82439E-03-6.15219E-05-8.41501E-05
 -1      1109 3.07116E-02-1.01489E-01 3.04832E-02 2.03437E-03-2.56140E-06 1.12184E-04
 -1      1110 1.74985E-02-5.84860E-02 1.79182E-02 1.45609E-03 1.65416E-04 1.24806E-05
 -1      1111 8.78573E-03-2.80416E-02 8.53080E-03 6.80796E-04-1.26377E-04-1.53496E-04
 -1      1112 2.25268E-03-7.67310E-03 2.59136E-03 1.93014E-05 8.20140E-05 2.92563E-07
 -1      1113 2.85324E+00-9.50837E+00 2.85206E+00 2.23275E-02-9.65961E-04-8.91943E-04
 -1      1114 2.32873E+00-7.76357E+00 2.32975E+00 1.04735E-02-1.20247E-03-3.44697E-04
 -1      1115 2.08570E+00-6.95152E+00 2.08510E+00 9.79683E-04-4.91839E-04-1.56376E-03
 -1      1116 1.07318E+00-3.57952E+00 1.07398E+00 7.71595E-03 5.56126E-05-1.64151E-04
 -1      1117 6.25570E-01-2.08860E+00 6.27212E-01 5.85422E-03 3.55462E-04 7.19620E-05
 -1      1118 4.47094E-01-1.49241E+00 4.48258E-01 4.71688E-03 3.95200E-04 1.18349E-04
 -1      1119 2.15829E-01-7.19348E-01 2.15949E-01 1.87452E-03 5.12467E-04 2.17058E-05
 -1      1120 1.48815E-01-4.93356E-01 1.48440E-01 8.00454E-04 3.35871E-05 1.08617E-04
 -1      1121 6.66476E-02-2.21856E-01 6.66386E-02 2.01900E-03-2.55433E-04 1.31461E-05
 -1      1122 3.42086E+00-1.13265E+01 3.40663E+00 2.81269E-02 1.51967E-04 3.70631E-05
 -1      1123 3.88589E-04-3.73234E-04 2.72446E-04-7.92031E-04-7.07716E-06-2.72456E-05
 -1      1124 3.48233E+00-1.16791E+01 3.50970E+00 1.49990E-01 4.03827E-02-3.24270E-03
 -1      1125 3.53278E+00-1.16878E+01 3.50949E+00 1.56390E-01 4.09988E-03-8.00087E-04
 -1      1126 3.37174E+00-1.12093E+01 3.37243E+00 1.10940E-02 1.21482E-02 6.63727E-03
 -1      1127 3.48295E+00-1.16871E+01 3.51688E+00 1.49664E-01-4.32090E-02-1.66281E-03
 -1      1128 3.37505E+00-1.12251E+01 3.37963E+00 1.59781E-02-1.17442E-02-9.20452E-03
 -1      1129 6.54720E-04-1.57361E-03 5.19462E-04-5.22910E-04 2.99871E-05-1.48304E-04
 -1      1130-4.64761E-04 2.01823E-03-4.33042E-04-3.39725E-04 1.88921E-04-5.59574E-05
 -1      1131-4.67733E-04 2.22064E-03-3.17167E-04-4.84426E-04 1.38394E-05 3.96500E-05
 -1      1132-4.66657E-04 1.98764E-03-4.32744E-04-1.76481E-04-2.15047E-04 6.95232E-05
 -1      1133 5.58459E-04-1.48083E-03 5.50908E-04-5.50997E-04-5.02545E-05 1.40211E-04
 -1      1134 3.29748E+00-1.09942E+01 3.30488E+00 1.17485E-02-1.05945E-02-1.55371E-03
 -1      1135 3.22934E+00-1.07637E+01 3.22930E+00 5.29085E-03-5.30049E-03-1.49605E-03
 -1      1136 3.30562E+00-1.10602E+01 3.32847E+00 1.60106E-02-2.87598E-03 1.83640E-03
 -1      1137 3.16922E+00-1.05528E+01 3.16330E+00 2.71067E-03-3.45880E-03 1.73931E-03
 -1      1138 3.09137E+00-1.03177E+01 3.09764E+00 3.99441E-03-4.40544E-03-2.33135E-03
 -1      1139 3.19838E+00-1.06593E+01 3.20009E+00 6.37340E-03-3.06647E-04-1.39206E-03
 -1      1140 3.03053E+00-1.00925E+01 3.02744E+00 8.28778E-03-6.51288E-03 2.44967E-03
 -1      1141 2.95337E+00-9.85686E+00 2.95952E+00 9.50097E-03-7.35223E-03-2.72185E-03
 -1      1142 3.06106E+00-1.02023E+01 3.05922E+00 6.68524E-03 3.51361E-04 4.84189E-04
 -1      1143 2.89201E+00-9.62556E+00 2.88638E+00 1.12720E-02-9.56929E-03 1.01765E-03
 -1      1144 2.81659E+00-9.39690E+00 2.81902E+00 2.27336E-02-8.62820E-03-5.19360E-03
 -1      1145 2.92183E+00-9.73759E+00 2.92007E+00 1.45799E-02-3.02340E-04 4.45870E-04
 -1      1146 2.75380E+00-9.16653E+00 2.74985E+00 2.15262E-02-8.44096E-03 4.76831E-03
 -1      1147 2.67965E+00-8.94254E+00 2.68386E+00 1.04561E-02-8.93971E-03-1.53988E-03
 -1      1148 2.78535E+00-9.28176E+00 2.78433E+00 2.71807E-02-3.49794E-04 1.04271E-04
 -1      1149 2.61910E+00-8.72388E+00 2.61684E+00 5.46605E-03-6.83367E-03 1.91569E-03
 -1      1150 2.54737E+00-8.50025E+00 2.55192E+00 4.81810E-03-5.07150E-03-2.25138E-03
 -1      1151 2.65027E+00-8.83559E+00 2.65163E+00 1.09965E-02 1.64445E-04 5.84274E-04
 -1      1152 2.49218E+00-8.29096E+00 2.48320E+00 3.75091E-03-6.46349E-03 1.78462E-03
 -1      1153 2.41843E+00-8.06571E+00 2.42024E+00 5.45158E-03-4.33646E-03-1.22462E-03
 -1      1154 2.51827E+00-8.39501E+00 2.52068E+00 1.52559E-03 4.59173E-05-1.15770E-03
 -1      1155 2.36372E+00-7.87042E+00 2.35952E+00 8.71598E-03-9.08910E-03 2.79096E-03
 -1      1156 2.29499E+00-7.65449E+00 2.29895E+00 9.06005E-03-5.68501E-03-2.38337E-03
 -1      1157 2.39014E+00-7.96361E+00 2.39096E+00 7.13187E-03 2.32713E-03-2.85118E-03
 -1      1158 2.23989E+00-7.46332E+00 2.23930E+00 8.19713E-03-6.55008E-03 1.40526E-03
 -1      1159 2.17020E+00-7.24812E+00 2.17863E+00 7.65463E-03-4.33899E-03-4.03910E-03
 -1      1160 2.26880E+00-7.55748E+00 2.27309E+00 5.52369E-03 1.13054E-03 3.82696E-04
 -1      1161 2.12030E+00-7.05415E+00 2.11259E+00 3.03386E-03-4.96035E-03 1.66512E-03
 -1      1162 2.05440E+00-6.84961E+00 2.05522E+00 3.76409E-03-5.07327E-03-2.57444E-03
 -1      1163 2.14585E+00-7.15104E+00 2.14913E+00 3.06009E-03 1.23465E-04-1.36888E-03
 -1      1164 2.00032E+00-6.65939E+00 1.99739E+00 1.02235E-02-5.99141E-03 2.17149E-03
 -1      1165 1.93956E+00-6.46740E+00 1.94062E+00 9.00396E-03-5.40022E-03-1.49334E-03
 -1      1166 2.02575E+00-6.75170E+00 2.02356E+00 9.06813E-03-3.74173E-04-7.74534E-04
 -1      1167 1.88956E+00-6.29290E+00 1.88743E+00 7.19643E-03-6.11381E-03 1.28855E-03
 -1      1168 1.82686E+00-6.09732E+00 1.83241E+00 7.19872E-03-3.88207E-03-3.46429E-03
 -1      1169 1.91456E+00-6.38012E+00 1.91780E+00 6.19090E-03 7.79073E-04 8.74946E-04
 -1      1170 1.77787E+00-5.92057E+00 1.77415E+00 2.51155E-03-4.90261E-03 1.66948E-03
 -1      1171 1.71768E+00-5.73111E+00 1.72140E+00 3.64907E-03-4.44767E-03-2.15098E-03
 -1      1172 1.80366E+00-6.00788E+00 1.80474E+00 2.47419E-03 3.55780E-04 2.92953E-04
 -1      1173 1.66863E+00-5.55821E+00 1.66819E+00 9.09534E-03-4.93047E-03 1.75057E-03
 -1      1174 1.61259E+00-5.38276E+00 1.61584E+00 7.39802E-03-5.29406E-03-1.35861E-03
 -1      1175 1.69189E+00-5.64189E+00 1.69210E+00 8.33676E-03 3.96331E-04-4.86132E-04
 -1      1176 1.56938E+00-5.22066E+00 1.56358E+00 5.79986E-03-5.15707E-03 2.05324E-03
 -1      1177 1.50956E+00-5.04020E+00 1.51462E+00 4.64347E-03-5.43123E-03-3.01057E-03
 -1      1178 1.59083E+00-5.30446E+00 1.59558E+00 4.37538E-03-3.35059E-04-1.14327E-03
 -1      1179 1.46792E+00-4.88208E+00 1.46277E+00 3.36876E-03-3.85541E-03 1.43248E-03
 -1      1180 1.41323E+00-4.71355E+00 1.41388E+00 4.47121E-03-3.88847E-03-1.14967E-03
 -1      1181 1.48913E+00-4.96103E+00 1.48537E+00-4.09529E-04-7.13154E-04 1.47222E-03
 -1      1182 1.36817E+00-4.55517E+00 1.36649E+00 8.10898E-03-4.98257E-03 1.63980E-03
 -1      1183 1.31797E+00-4.39689E+00 1.31967E+00 7.62273E-03-4.87592E-03-1.36029E-03
 -1      1184 1.38925E+00-4.63268E+00 1.38856E+00 8.57491E-03 3.63343E-04-7.63307E-04
 -1      1185 1.27700E+00-4.25331E+00 1.27606E+00 5.86995E-03-5.36694E-03 1.22686E-03
 -1      1186 1.22488E+00-4.09152E+00 1.23029E+00 5.31679E-03-3.49588E-03-2.84665E-03
 -1      1187 1.29750E+00-4.32491E+00 1.30126E+00 4.82308E-03 1.49251E-04 7.72872E-04
 -1      1188 1.18620E+00-3.94631E+00 1.18224E+00 2.03035E-03-3.66864E-03 1.37326E-03
 -1      1189 1.13625E+00-3.79466E+00 1.14009E+00 3.44731E-03-3.20374E-03-1.96183E-03
 -1      1190 1.20650E+00-4.01909E+00 1.20842E+00 1.48104E-03-3.15966E-04-1.26133E-03
 -1      1191 1.09804E+00-3.65236E+00 1.09551E+00 7.21188E-03-4.56667E-03 1.34463E-03
 -1      1192 1.05250E+00-3.51032E+00 1.05325E+00 6.73159E-03-4.12499E-03-1.15586E-03
 -1      1193 1.11615E+00-3.72042E+00 1.11506E+00 6.77936E-03-9.40980E-05 5.54672E-04
 -1      1194 1.01593E+00-3.38228E+00 1.01443E+00 5.20777E-03-4.79991E-03 1.12728E-03
 -1      1195 9.69846E-01-3.23829E+00 9.73996E-01 4.93839E-03-2.93291E-03-2.58437E-03
 -1      1196 1.03425E+00-3.44620E+00 1.03669E+00 4.14730E-03 1.20273E-04 5.53401E-04
 -1      1197 9.34397E-01-3.11029E+00 9.31603E-01 1.43013E-03-3.61923E-03 1.05752E-03
 -1      1198 8.90944E-01-2.97342E+00 8.93472E-01 3.18397E-03-3.38609E-03-1.86886E-03
 -1      1199 9.53136E-01-3.17369E+00 9.54201E-01 1.34206E-03 6.06161E-05 9.81763E-05
 -1      1200 8.55775E-01-2.84867E+00 8.54955E-01 6.76058E-03-4.04535E-03 1.29156E-03
 -1      1201 8.15790E-01-2.72357E+00 8.17696E-01 5.48605E-03-3.90325E-03-8.59709E-04
 -1      1202 8.72365E-01-2.90890E+00 8.72161E-01 6.10700E-03-3.60065E-04-4.22166E-04
 -1      1203 7.84843E-01-2.60914E+00 7.81249E-01 4.71831E-03-3.95836E-03 1.56028E-03
 -1      1204 7.43376E-01-2.48326E+00 7.46030E-01 3.90848E-03-2.91412E-03-1.77342E-03
 -1      1205 8.00158E-01-2.66732E+00 8.02994E-01 3.14634E-03-6.06391E-04-3.92300E-04
 -1      1206 7.14070E-01-2.37135E+00 7.09416E-01 1.43125E-03-3.51411E-03 9.02268E-04
 -1      1207 6.75865E-01-2.25362E+00 6.76526E-01 2.42069E-03-2.51150E-03-1.31383E-03
 -1      1208 7.28597E-01-2.42696E+00 7.27843E-01 7.17160E-04-2.15271E-04-1.23512E-03
 -1      1209 6.44358E-01-2.14451E+00 6.43647E-01 5.61781E-03-2.91389E-03 1.13204E-03
 -1      1210 6.09835E-01-2.03622E+00 6.11262E-01 4.55226E-03-3.09350E-03-6.73786E-04
 -1      1211 6.59144E-01-2.19738E+00 6.58437E-01 5.68774E-03 4.08573E-04-2.13484E-04
 -1      1212 5.83622E-01-1.93768E+00 5.79563E-01 4.09222E-03-3.59536E-03 1.52140E-03
 -1      1213 5.47778E-01-1.82900E+00 5.49413E-01 3.40262E-03-2.32066E-03-1.35645E-03
 -1      1214 5.96350E-01-1.98738E+00 5.98598E-01 2.62285E-03-6.57439E-05-5.41626E-04
 -1      1215 5.21556E-01-1.73315E+00 5.18664E-01 8.29343E-04-2.75053E-03 7.62877E-04
 -1      1216 4.89148E-01-1.63256E+00 4.90542E-01 2.28935E-03-2.30395E-03-1.42185E-03
 -1      1217 5.34493E-01-1.78054E+00 5.34171E-01 8.30213E-04-2.18433E-04-1.29565E-03
 -1      1218 4.62812E-01-1.53971E+00 4.62363E-01 4.60509E-03-2.71184E-03 8.74410E-04
 -1      1219 4.33552E-01-1.44789E+00 4.34876E-01 3.71809E-03-2.48446E-03-6.49825E-04
 -1      1220 4.74989E-01-1.58468E+00 4.75185E-01 4.76342E-03 3.46477E-04-1.90879E-04
 -1      1221 4.11237E-01-1.36506E+00 4.08561E-01 3.20425E-03-2.89230E-03 6.71509E-04
 -1      1222 3.81531E-01-1.27469E+00 3.83262E-01 2.29291E-03-2.16473E-03-1.57080E-03
 -1      1223 4.21977E-01-1.40683E+00 4.24340E-01 2.08960E-03 1.68818E-04-3.50383E-04
 -1      1224 3.59837E-01-1.19428E+00 3.57251E-01 1.22841E-03-2.14636E-03 5.68911E-04
 -1      1225 3.32029E-01-1.10891E+00 3.33560E-01 1.43164E-03-1.43153E-03-6.80138E-04
 -1      1226 3.70863E-01-1.23413E+00 3.72175E-01 4.78787E-04 3.39844E-05-1.05149E-05
 -1      1227 3.12702E-01-1.03850E+00 3.11484E-01 2.75634E-03-2.83638E-03 5.59269E-04
 -1      1228 2.89992E-01-9.62082E-01 2.89093E-01 7.41194E-03-3.61920E-04-1.85436E-03
 -1      1229 3.21927E-01-1.07257E+00 3.23388E-01 1.85488E-03 1.02865E-03-4.09701E-04
 -1      1230 2.67165E-01-8.89173E-01 2.65988E-01 6.70963E-03-5.90061E-04 1.56797E-03
 -1      1231 2.44216E-01-8.17457E-01 2.45829E-01 2.79716E-03-2.10561E-03-8.63564E-04
 -1      1232 2.78485E-01-9.24760E-01 2.77171E-01 6.43982E-03 1.55314E-04-2.39668E-04
 -1      1233 2.27443E-01-7.53797E-01 2.25829E-01 1.65608E-03-1.78502E-03 3.10360E-04
 -1      1234 2.05449E-01-6.87336E-01 2.06312E-01 1.88857E-03-1.32173E-03-1.48262E-04
 -1      1235 2.36149E-01-7.85480E-01 2.34299E-01 1.08308E-03-3.34270E-04 3.15525E-04
 -1      1236 1.90333E-01-6.31015E-01 1.88938E-01 2.07930E-03-2.42323E-03 7.27875E-04
 -1      1237 1.71038E-01-5.70313E-01 1.71898E-01 2.46125E-03-1.42458E-03-6.33768E-04
 -1      1238 1.97519E-01-6.58398E-01 1.98237E-01 2.33751E-03 6.94126E-04-6.51955E-04
 -1      1239 1.56390E-01-5.19188E-01 1.55650E-01 1.84942E-03-1.95398E-03 2.50476E-04
 -1      1240 1.38621E-01-4.62950E-01 1.39905E-01 1.82373E-03-1.04463E-03-1.12580E-03
 -1      1241 1.63800E-01-5.44196E-01 1.64983E-01 4.89861E-04 2.49821E-04 4.74727E-05
 -1      1242 1.24820E-01-4.15236E-01 1.24529E-01 2.48490E-04-1.41330E-03 2.17706E-04
 -1      1243 1.09203E-01-3.66292E-01 1.10816E-01 1.50868E-03-8.53811E-04-8.52661E-04
 -1      1244 1.32274E-01-4.38370E-01 1.32884E-01-1.29112E-04 1.77157E-05-3.19962E-05
 -1      1245 9.78681E-02-3.22479E-01 9.66177E-02 1.84406E-03-1.09356E-03 4.22856E-04
 -1      1246 8.39946E-02-2.80416E-01 8.45428E-02 2.20162E-03-9.79229E-04-7.09384E-04
 -1      1247 1.03390E-01-3.43658E-01 1.03925E-01 4.53499E-04-6.39197E-04 2.36508E-04
 -1      1248 7.32467E-02-2.42425E-01 7.27344E-02 1.55305E-03-1.33216E-03 3.79487E-04
 -1      1249 6.12924E-02-2.05647E-01 6.21462E-02 1.59854E-03-1.35842E-03-5.00144E-04
 -1      1250 7.80086E-02-2.60947E-01 7.78069E-02 1.97498E-03-2.16554E-04 5.31148E-05
 -1      1251 5.27056E-02-1.73131E-01 5.19349E-02 7.62674E-04-1.08064E-03 1.28217E-04
 -1      1252 4.26926E-02-1.42679E-01 4.28848E-02 1.43474E-03-8.40161E-04-3.72445E-04
 -1      1253 5.70388E-02-1.89709E-01 5.65640E-02 1.03771E-03-1.53165E-04 1.81239E-04
 -1      1254 3.52073E-02-1.15483E-01 3.48060E-02 1.10527E-03-9.19525E-04 2.35672E-04
 -1      1255 2.73773E-02-9.12412E-02 2.77137E-02 1.50793E-03-5.14623E-04-3.80935E-04
 -1      1256 3.91157E-02-1.28984E-01 3.88259E-02 2.00856E-03-6.81321E-05-9.44219E-05
 -1      1257 2.11942E-02-6.90912E-02 2.08536E-02 1.18712E-03-7.63918E-04 2.12483E-04
 -1      1258 1.50274E-02-4.97833E-02 1.50825E-02 8.99857E-04-5.28359E-04-2.56783E-04
 -1      1259 2.39191E-02-7.97071E-02 2.38666E-02 1.96037E-03-1.37437E-04 1.33341E-04
 -1      1260 1.09608E-02-3.51889E-02 1.05376E-02-3.81145E-04-7.77144E-04-1.75489E-04
 -1      1261 6.65773E-03-2.19064E-02 6.85157E-03 8.39877E-04-1.29770E-04-3.85198E-04
 -1      1262 1.27767E-02-4.24309E-02 1.31559E-02 6.28508E-04 1.75471E-04-2.26291E-04
 -1      1263 3.78444E-03-1.17944E-02 3.73154E-03 3.55889E-04-1.54667E-04 1.90491E-05
 -1      1264 1.66420E-03-4.78648E-03 1.57353E-03-3.75204E-04 6.37630E-05-2.93720E-05
 -1      1265 5.07907E-03-1.67697E-02 5.37166E-03 1.09369E-03 9.60148E-05-2.23040E-05
 -1      1266 1.30683E-03-3.81939E-03 1.46028E-03-6.67678E-04 3.26521E-05-6.01680E-05
 -1      1267 3.22946E+00-1.07648E+01 3.23089E+00 4.82533E-03 5.65660E-03 1.85732E-03
 -1      1268 3.29450E+00-1.09919E+01 3.30382E+00 1.19133E-02 8.61212E-03 5.30713E-04
 -1      1269 3.09253E+00-1.03163E+01 3.09718E+00 3.47811E-03 6.29650E-03 2.32131E-03
 -1      1270 3.16818E+00-1.05546E+01 3.16401E+00 1.81573E-03 5.34729E-03-1.51709E-03
 -1      1271 2.95490E+00-9.85429E+00 2.95663E+00 9.08572E-03 8.02446E-03 2.72910E-03
 -1      1272 3.03080E+00-1.00912E+01 3.02466E+00 9.34084E-03 6.45429E-03-3.10964E-03
 -1      1273 2.81640E+00-9.40001E+00 2.82187E+00 2.26894E-02 6.73488E-03 4.69461E-03
 -1      1274 2.88988E+00-9.62538E+00 2.88868E+00 1.14130E-02 9.37316E-03-1.39589E-03
 -1      1275 2.68048E+00-8.94227E+00 2.68211E+00 9.47768E-03 8.72926E-03 1.16097E-03
 -1      1276 2.75409E+00-9.16431E+00 2.74768E+00 2.18478E-02 7.08396E-03-4.37586E-03
 -1      1277 2.54898E+00-8.49929E+00 2.54981E+00 4.56913E-03 6.03344E-03 2.39222E-03
 -1      1278 2.62051E+00-8.72170E+00 2.61366E+00 5.46812E-03 6.84968E-03-2.11144E-03
 -1      1279 2.41867E+00-8.07171E+00 2.42453E+00 5.28945E-03 5.40916E-03 2.89958E-03
 -1      1280 2.48934E+00-8.29153E+00 2.48603E+00 1.46692E-03 6.26924E-03-1.83770E-03
 -1      1281 2.29376E+00-7.65195E+00 2.29630E+00 9.64899E-03 6.37148E-03 2.49184E-03
 -1      1282 2.36120E+00-7.86269E+00 2.35929E+00 1.25738E-02 5.28092E-03-1.53610E-03
 -1      1283 2.17249E+00-7.24803E+00 2.17617E+00 6.56507E-03 5.01418E-03 3.44956E-03
 -1      1284 2.24112E+00-7.45917E+00 2.23539E+00 8.88427E-03 6.48756E-03-1.95727E-03
 -1      1285 2.05155E+00-6.85132E+00 2.05893E+00 4.39064E-03 4.02333E-03 2.12272E-03
 -1      1286 2.11729E+00-7.05545E+00 2.11626E+00 2.85568E-03 4.97704E-03-2.15911E-03
 -1      1287 1.93871E+00-6.46750E+00 1.94031E+00 8.72179E-03 5.62782E-03 1.34598E-03
 -1      1288 2.00110E+00-6.66031E+00 1.99789E+00 9.81003E-03 5.56821E-03-1.78772E-03
 -1      1289 1.82750E+00-6.09592E+00 1.82936E+00 5.55069E-03 4.96067E-03 2.76970E-03
 -1      1290 1.89113E+00-6.29021E+00 1.88413E+00 7.71063E-03 6.27615E-03-1.88896E-03
 -1      1291 1.71759E+00-5.73358E+00 1.72204E+00 4.21659E-03 3.60539E-03 2.38531E-03
 -1      1292 1.77845E+00-5.91886E+00 1.77360E+00 2.82482E-03 4.06424E-03-1.95181E-03
 -1      1293 1.61306E+00-5.38260E+00 1.61599E+00 8.53824E-03 5.43407E-03 1.66375E-03
 -1      1294 1.66947E+00-5.55838E+00 1.66797E+00 8.99951E-03 5.70918E-03-1.50297E-03
 -1      1295 1.50910E+00-5.03831E+00 1.51483E+00 4.93729E-03 5.07108E-03 3.28102E-03
 -1      1296 1.56818E+00-5.22336E+00 1.56573E+00 5.81443E-03 5.78772E-03-2.18007E-03
 -1      1297 1.41202E+00-4.71478E+00 1.41636E+00 5.36295E-03 4.14761E-03 1.77509E-03
 -1      1298 1.46714E+00-4.88337E+00 1.46393E+00 3.46319E-03 4.09377E-03-1.21156E-03
 -1      1299 1.31734E+00-4.39656E+00 1.31968E+00 7.10498E-03 4.65235E-03 1.22584E-03
 -1      1300 1.36831E+00-4.55486E+00 1.36718E+00 8.21768E-03 4.84727E-03-1.33099E-03
 -1      1301 1.22644E+00-4.09148E+00 1.22862E+00 4.63159E-03 3.87066E-03 2.61164E-03
 -1      1302 1.27823E+00-4.25066E+00 1.27319E+00 6.17133E-03 4.91327E-03-1.29019E-03
 -1      1303 1.13719E+00-3.79361E+00 1.13955E+00 3.39932E-03 3.51526E-03 2.09191E-03
 -1      1304 1.18574E+00-3.94798E+00 1.18281E+00 1.92651E-03 4.02280E-03-1.50338E-03
 -1      1305 1.05195E+00-3.51041E+00 1.05349E+00 6.21252E-03 4.11783E-03 8.99435E-04
 -1      1306 1.09719E+00-3.65218E+00 1.09575E+00 7.66318E-03 4.29220E-03-1.47344E-03
 -1      1307 9.70519E-01-3.23783E+00 9.71967E-01 3.85119E-03 3.44446E-03 2.21943E-03
 -1      1308 1.01723E+00-3.38035E+00 1.01199E+00 5.47384E-03 4.48525E-03-1.24123E-03
 -1      1309 8.90346E-01-2.97476E+00 8.94097E-01 3.16627E-03 2.44607E-03 1.73435E-03
 -1      1310 9.34500E-01-3.10912E+00 9.31475E-01 1.89224E-03 2.90218E-03-1.35839E-03
 -1      1311 8.16300E-01-2.72341E+00 8.17450E-01 5.71618E-03 3.35218E-03 1.06581E-03
 -1      1312 8.56542E-01-2.84880E+00 8.54706E-01 6.31556E-03 3.78546E-03-1.13461E-03
 -1      1313 7.42031E-01-2.48178E+00 7.47346E-01 3.36724E-03 4.05094E-03 2.44050E-03
 -1      1314 7.83971E-01-2.61048E+00 7.82533E-01 3.67841E-03 4.05957E-03-1.10857E-03
 -1      1315 6.74530E-01-2.25386E+00 6.77402E-01 3.39690E-03 2.71681E-03 1.42977E-03
 -1      1316 7.13608E-01-2.37207E+00 7.10895E-01 2.50135E-03 2.69125E-03-6.27524E-04
 -1      1317 6.09981E-01-2.03551E+00 6.11165E-01 5.11073E-03 3.30325E-03 1.04079E-03
 -1      1318 6.44805E-01-2.14416E+00 6.43297E-01 5.53748E-03 3.50271E-03-9.51211E-04
 -1      1319 5.46172E-01-1.82734E+00 5.50740E-01 2.95904E-03 3.29548E-03 2.14782E-03
 -1      1320 5.82281E-01-1.93796E+00 5.80935E-01 3.34530E-03 3.45765E-03-8.15188E-04
 -1      1321 4.87585E-01-1.63268E+00 4.91422E-01 3.15919E-03 2.54517E-03 1.13668E-03
 -1      1322 5.21198E-01-1.73360E+00 5.19971E-01 1.96856E-03 2.18937E-03-4.47796E-04
 -1      1323 4.33896E-01-1.44773E+00 4.34682E-01 4.25497E-03 2.85074E-03 7.54497E-04
 -1      1324 4.63461E-01-1.53955E+00 4.61882E-01 4.66322E-03 3.31922E-03-8.93105E-04
 -1      1325 3.81397E-01-1.27475E+00 3.84106E-01 2.83276E-03 1.95080E-03 1.71017E-03
 -1      1326 4.10468E-01-1.36596E+00 4.09801E-01 2.96835E-03 3.08906E-03-6.40577E-04
 -1      1327 3.31808E-01-1.11151E+00 3.35049E-01 1.86642E-03 1.73175E-03 1.04719E-03
 -1      1328 3.58685E-01-1.19460E+00 3.58334E-01 5.23133E-04 2.24512E-03-5.90434E-04
 -1      1329 2.89662E-01-9.61226E-01 2.88211E-01 7.56798E-03 5.87522E-04 1.73529E-03
 -1      1330 3.12428E-01-1.03506E+00 3.10480E-01 4.42326E-03 1.69244E-03-2.87091E-04
 -1      1331 2.44274E-01-8.16474E-01 2.45197E-01 2.70185E-03 1.97401E-03 7.29522E-04
 -1      1332 2.67252E-01-8.89057E-01 2.65819E-01 6.77172E-03 5.63524E-04-1.73153E-03
 -1      1333 2.05981E-01-6.89587E-01 2.07512E-01 2.17641E-03 1.66744E-03 7.85044E-04
 -1      1334 2.26987E-01-7.53938E-01 2.25940E-01 1.33211E-03 1.69391E-03-3.34213E-04
 -1      1335 1.70650E-01-5.69800E-01 1.71155E-01 2.36625E-03 1.55647E-03 6.13263E-04
 -1      1336 1.89522E-01-6.28317E-01 1.88742E-01 3.26622E-03 1.62995E-03-3.75185E-04
 -1      1337 1.38532E-01-4.62745E-01 1.39370E-01 1.39902E-03 1.16663E-03 9.78452E-04
 -1      1338 1.56776E-01-5.18571E-01 1.54945E-01 1.94710E-03 1.80191E-03-4.04303E-04
 -1      1339 1.09046E-01-3.64446E-01 1.10014E-01 9.24114E-04 8.48633E-04 4.45069E-04
 -1      1340 1.25426E-01-4.15004E-01 1.23848E-01 6.00663E-04 1.47816E-03-2.94691E-04
 -1      1341 8.42201E-02-2.80034E-01 8.43974E-02 2.06159E-03 1.27959E-03 6.77620E-04
 -1      1342 9.83706E-02-3.24590E-01 9.67030E-02 1.29723E-03 1.80417E-03-6.08771E-04
 -1      1343 6.14464E-02-2.05477E-01 6.18939E-02 1.34991E-03 1.25418E-03 4.25169E-04
 -1      1344 7.32875E-02-2.42347E-01 7.25542E-02 1.85716E-03 1.23677E-03-5.24998E-04
 -1      1345 4.25307E-02-1.42981E-01 4.33092E-02 1.53898E-03 6.82270E-04 3.87344E-04
 -1      1346 5.24989E-02-1.73516E-01 5.22380E-02 8.78668E-04 1.00553E-03-1.48511E-04
 -1      1347 2.73993E-02-9.06114E-02 2.72517E-02 1.50490E-03 7.56343E-04 4.30965E-04
 -1      1348 3.54942E-02-1.15372E-01 3.43928E-02 1.24524E-03 7.85866E-04-1.59676E-04
 -1      1349 1.49427E-02-5.05177E-02 1.55262E-02 7.84697E-04 6.00601E-04 2.65770E-04
 -1      1350 2.11351E-02-6.91524E-02 2.09724E-02 1.06927E-03 8.24838E-04-2.07691E-04
 -1      1351 6.52838E-03-2.19384E-02 6.77840E-03 1.01567E-03 1.22955E-04 3.57561E-04
 -1      1352 1.06272E-02-3.43562E-02 1.06259E-02 4.92729E-04 3.74951E-04 2.34647E-05
 -1      1353 1.65831E-03-4.64458E-03 1.55507E-03-2.70121E-04 6.75913E-07 4.82438E-05
 -1      1354 3.81874E-03-1.18150E-02 3.70710E-03 3.90104E-04 2.43808E-04-2.99652E-05
 -1      1355 2.84177E+00-1.10321E+01 3.46684E+00 2.86837E+00-4.54448E-03-2.60158E-02
 -1      1356 1.79752E+00-8.53569E+00 2.84043E+00 3.50747E+00 7.37399E-03 1.87789E-02
 -1      1357 5.00443E-01-5.31029E+00 1.85332E+00 3.64502E+00-6.01811E-03 1.32611E-02
 -1      1358 3.53818E+00-1.25071E+01 3.76627E+00 1.29703E+00-7.09725E-03 1.18839E-02
 -1      1359-3.43254E-01-3.29479E+00 1.34749E+00 3.06211E+00-6.46765E-03 7.12234E-04
 -1      1360 3.61276E+00-1.26472E+01 3.73659E+00 7.60067E-01-1.43437E-03 1.07250E-02
 -1      1361 3.73905E+00-1.26390E+01 3.75208E+00 8.02601E-01 3.82641E-02-2.02768E-02
 -1      1362 3.55728E+00-1.25076E+01 3.79552E+00 1.62671E+00-5.66197E-02-2.66469E-02
 -1      1363 3.73936E+00-1.26059E+01 3.72633E+00 7.82213E-01-5.17538E-02 1.56239E-02
 -1      1364 3.52124E+00-1.23543E+01 3.73559E+00 1.65135E+00 6.74299E-02 3.66522E-02
 -1      1365-3.05188E-01-3.57595E+00 1.52268E+00 3.46584E+00-2.79332E-01 2.16223E-01
 -1      1366-4.72084E-01-2.68847E+00 1.16374E+00 2.72874E+00-3.08279E-01 2.96983E-01
 -1      1367-5.88264E-01-2.88149E+00 1.40021E+00 2.80564E+00-4.74960E-04 3.71781E-04
 -1      1368-4.74130E-01-2.69692E+00 1.16477E+00 2.72497E+00 3.09995E-01-2.97505E-01
 -1      1369-2.76652E-01-3.61926E+00 1.52987E+00 3.48065E+00 2.56592E-01-2.16405E-01
 -1      1370 8.03080E-01-6.26218E+00 2.25336E+00 3.72256E+00-1.69446E-01 1.78434E-02
 -1      1371 1.96173E-01-4.83809E+00 1.84889E+00 3.60192E+00-2.58005E-01 1.33398E-01
 -1      1372-8.05228E-02-3.98321E+00 1.45843E+00 3.57321E+00-1.82776E-02 2.13431E-02
 -1      1373 2.07741E+00-9.17038E+00 3.03032E+00 3.42950E+00-8.50649E-02-2.20993E-02
 -1      1374 1.38025E+00-7.79222E+00 2.68603E+00 3.73277E+00-1.33659E-01 5.47183E-02
 -1      1375 1.19960E+00-7.09248E+00 2.40108E+00 3.70620E+00-3.58591E-03 1.27752E-02
 -1      1376 3.23505E+00-1.17392E+01 3.60042E+00 2.42285E+00 3.60039E-03-7.38468E-02
 -1      1377 2.57985E+00-1.05592E+01 3.36300E+00 3.08047E+00-8.56197E-02 1.84499E-02
 -1      1378 2.28982E+00-9.88522E+00 3.17047E+00 3.23108E+00-1.49802E-03-1.33419E-02
 -1      1379 3.34978E+00-1.21754E+01 3.63991E+00 2.21410E+00-5.28552E-02-2.83163E-03
 -1      1380 1.46359E-01-4.76455E+00 1.83889E+00 3.61294E+00 2.63241E-01-1.15965E-01
 -1      1381 8.31567E-01-6.23154E+00 2.22469E+00 3.70782E+00 1.69181E-01-1.85641E-02
 -1      1382 1.33892E+00-7.77284E+00 2.70676E+00 3.70660E+00 1.25855E-01-5.56028E-02
 -1      1383 2.07537E+00-9.19199E+00 3.06815E+00 3.39969E+00 6.26390E-02 2.15332E-02
 -1      1384 2.58967E+00-1.05747E+01 3.38927E+00 3.10737E+00 7.65371E-02-3.98650E-02
 -1      1385 3.24101E+00-1.19209E+01 3.63746E+00 2.56456E+00 1.81146E-02 2.66412E-02
 -1      1386-4.61132E-04 1.67473E-03-4.44301E-04 3.45798E-04 4.26989E-07 4.87770E-07
 -1      1387-2.40942E-04 1.06599E-03-2.13299E-04 7.05760E-04 2.24580E-06 1.81881E-06
 -1      1388-6.44828E-05 9.49488E-04-2.41063E-04 7.08507E-04-3.15481E-05 1.82905E-05
 -1      1389-7.73121E-05 9.51076E-04-2.34147E-04 7.07747E-04 2.89839E-05-2.56191E-05
 -1      1390-8.71230E-04 2.95376E-03-8.18261E-04 3.35026E-04-2.14627E-04 1.73516E-05
 -1      1391-8.67205E-04 2.94129E-03-8.15247E-04 3.34578E-04 2.12633E-04-1.42723E-05
 -1      1392-9.26104E-04 3.16965E-03-8.12551E-04 4.39700E-04 1.83598E-04-9.70461E-05
 -1      1393-9.04659E-04 3.03179E-03-8.24904E-04 1.53444E-04 1.51484E-04-3.75351E-05
 -1      1394-7.08522E-04 2.58773E-03-7.50967E-04 3.01068E-04 2.56285E-04 3.05003E-05
 -1      1395-9.20970E-04 3.06859E-03-8.36637E-04 1.31620E-04-1.56692E-04 6.05340E-05
 -1      1396-9.42225E-04 3.18060E-03-7.89660E-04 4.36253E-04-1.91482E-04 9.04346E-05
 -1      1397-7.05067E-04 2.58466E-03-7.51825E-04 3.02344E-04-2.63373E-04-2.97014E-05
 -1      1398 4.86812E-05 9.28832E-04-2.94193E-04 7.51924E-04-1.05869E-04 2.51143E-05
 -1      1399-2.44871E-04 1.18694E-03-3.45535E-04 6.77098E-04-7.19502E-06-4.95660E-06
 -1      1400 3.20183E-05 9.00519E-04-2.55429E-04 7.30402E-04 1.85431E-06 1.12008E-05
 -1      1401-2.45065E-04 1.18230E-03-3.48296E-04 6.77947E-04 2.42371E-06 6.48810E-06
 -1      1402 6.17903E-05 9.24830E-04-2.92737E-04 7.48918E-04 9.65699E-05-1.90666E-05
 -1      1403 3.19491E-05 8.97067E-04-2.55836E-04 7.33916E-04 1.78712E-06-1.18876E-05
 -1      1404-9.15917E-04 3.08955E-03-8.57301E-04 2.43849E-04 8.49208E-07-1.38092E-06
 -1      1405-3.06931E-04 1.27709E-03-3.95471E-04 4.82919E-04-6.96530E-05-7.51255E-06
 -1      1406-7.02430E-04 2.04797E-03-5.57684E-04 3.45636E-04-1.68614E-04 2.34583E-05
 -1      1407-7.18279E-04 2.58469E-03-6.73436E-04 3.43751E-04-9.27362E-05-7.96556E-06
 -1      1408-2.48393E-04 1.11392E-03-2.94757E-04 6.27620E-04-3.09318E-05-7.87759E-06
 -1      1409-2.89285E-04 1.27653E-03-2.99817E-04 5.46064E-04 1.69152E-06 9.17570E-07
 -1      1410-1.70501E-04 1.05932E-03-2.27184E-04 7.17407E-04-2.34013E-05-2.72244E-06
 -1      1411-7.05524E-04 2.05570E-03-5.57191E-04 3.46080E-04 1.65983E-04-2.23581E-05
 -1      1412-3.04803E-04 1.27392E-03-3.95860E-04 4.81579E-04 6.96897E-05 8.92089E-06
 -1      1413-7.19401E-04 2.58221E-03-6.70166E-04 3.42803E-04 9.21520E-05 9.78584E-06
 -1      1414-2.44544E-04 1.11429E-03-3.02003E-04 6.24575E-04 3.11504E-05 8.51225E-06
 -1      1415-1.73452E-04 1.05436E-03-2.33389E-04 7.15890E-04 2.24391E-05-6.22963E-06
 -1      1416-7.57994E-05 1.03195E-03-2.38032E-04 7.20508E-04 5.99972E-07-7.78744E-07
 -1      1417 6.73742E-02 7.70249E-02-6.29768E-02 2.83677E-01 2.41393E-04-4.61557E-03
 -1      1418 4.60906E-02-1.03408E-01 2.56824E-02 7.95985E-01 2.90135E-03-1.65578E-03
 -1      1419-2.26443E-02 6.59712E-03 6.82811E-03 4.54079E-02 2.59892E-05 1.34989E-04
 -1      1420-2.43201E-02 8.17038E-03 6.97548E-03 1.04170E-01-4.92563E-05 2.04398E-04
 -1      1421-2.44945E-02 8.49390E-03 6.91498E-03 1.59876E-01 4.02235E-05-2.09465E-04
 -1      1422-2.27646E-02 2.14784E-03 9.10714E-03 2.16483E-01-1.12926E-04 6.57037E-06
 -1      1423-2.19785E-02 9.39981E-04 8.77740E-03 2.72477E-01-1.91373E-04-6.35741E-04
 -1      1424-2.05954E-02-4.28961E-03 1.06014E-02 3.29332E-01 4.80421E-04 5.12427E-05
 -1      1425 9.30444E-03-9.85101E-02 3.84588E-02 3.82027E-01 1.09722E-05 8.87340E-05
 -1      1426 4.02978E-02-1.95940E-01 6.54417E-02 4.33422E-01 4.73252E-04-1.17534E-03
 -1      1427 5.72016E-02-2.54485E-01 8.44889E-02 4.88086E-01-1.73097E-04 6.63500E-05
 -1      1428 7.63780E-02-3.18929E-01 1.03754E-01 5.49770E-01-1.50956E-03 1.39543E-03
 -1      1429 9.67260E-02-3.86288E-01 1.23413E-01 6.02549E-01 4.69719E-05 1.39102E-03
 -1      1430-2.93776E-03-6.26317E-02 2.87928E-02 7.56160E-01-1.19219E-03 3.22379E-04
 -1      1431-1.80197E-02-1.03386E-02 1.19811E-02 6.50797E-01 1.49625E-05-2.73320E-03
 -1      1432 6.84020E-02-2.96627E-01 9.77187E-02 7.02737E-01-1.55509E-04-1.22449E-03
 -1      1433-7.81020E-01 3.74385E+00-1.27333E+00-1.97157E-01 1.15282E-02-1.59103E-02
 -1      1434 7.60908E-01-3.58772E+00 1.21476E+00-3.33448E-01-1.18569E-02-7.61634E-03
 -1      1435-9.75119E-03 8.17889E-04 3.81991E-03 1.34756E-02-5.94187E-06 1.00810E-05
 -1      1436-6.69922E-01 2.11841E+00-6.18586E-01 5.60553E-01-1.89760E-03 1.88496E-03
 -1      1437-5.62546E-01 1.76767E+00-5.16658E-01 5.11387E-01-1.14764E-03-3.77500E-04
 -1      1438-4.65452E-01 1.44537E+00-4.19912E-01 4.58333E-01-2.87363E-04 1.84913E-05
 -1      1439-3.79351E-01 1.15247E+00-3.30317E-01 4.16631E-01-1.53987E-03 1.25469E-03
 -1      1440-2.91433E-01 8.61153E-01-2.42710E-01 3.70053E-01-2.01031E-03 1.57005E-03
 -1      1441-2.27296E-01 6.47738E-01-1.79302E-01 3.18026E-01-3.88674E-04 3.29338E-04
 -1      1442-1.71237E-01 4.65774E-01-1.25780E-01 2.69089E-01-3.54217E-04 1.16829E-03
 -1      1443-1.25798E-01 3.12075E-01-8.01292E-02 2.19042E-01 8.54554E-04 1.15853E-04
 -1      1444-2.53853E-03-2.91715E-02 1.34825E-02 6.66790E-02 7.87788E-05-1.37422E-04
 -1      1445 1.50141E-02-9.06388E-02 3.32351E-02 1.16427E-01 6.60506E-04-9.25664E-05
 -1      1446-8.87251E-02 1.89348E-01-4.30748E-02 1.69400E-01 2.44753E-04 3.86249E-04
 -1      1447 6.27812E-01-2.12952E+00 6.43447E-01 5.64405E-01 6.94195E-04 1.03235E-03
 -1      1448-3.24709E-02 1.58645E-02 7.19761E-03 5.13073E-03 5.17862E-05 6.73277E-05
 -1      1449-8.44992E-01 2.69936E+00-7.93296E-01 5.98749E-01-6.29522E-04-1.41679E-04
 -1      1450 5.22364E-01-1.77125E+00 5.33074E-01 5.13549E-01-2.87297E-03 6.71410E-04
 -1      1451 4.23430E-01-1.45139E+00 4.42018E-01 4.58842E-01 7.03484E-05 4.30948E-04
 -1      1452 3.34485E-01-1.16059E+00 3.56892E-01 4.11414E-01 8.08584E-04 1.01129E-04
 -1      1453 2.59041E-01-8.95027E-01 2.71310E-01 3.60545E-01 4.12200E-04 5.15961E-04
 -1      1454 1.90390E-01-6.66876E-01 2.03114E-01 3.11598E-01 1.37850E-03-3.20893E-04
 -1      1455 1.31661E-01-4.75024E-01 1.47065E-01 2.62929E-01-5.02199E-04-4.48958E-05
 -1      1456 8.34995E-02-3.13306E-01 9.85443E-02 2.15894E-01-1.57924E-04-3.83208E-05
 -1      1457 4.27404E-02-1.79916E-01 5.86241E-02 1.64408E-01 3.61538E-04 5.90453E-04
 -1      1458-6.22590E-02 1.02015E-01-1.70588E-02 1.17872E-01 2.32422E-04-1.75943E-04
 -1      1459-4.67806E-02 4.49927E-02 6.67551E-04 6.36905E-02 2.23452E-05 1.88485E-04
 -1      1460 7.70484E-01-2.60390E+00 7.86012E-01 6.06404E-01 1.06090E-04 1.04093E-03
 -1      1461 1.21219E+00-4.14940E+00 1.25709E+00 6.04166E-01 1.15368E-04 6.48395E-04
 -1      1462-1.08121E+00 4.05461E+00-1.27540E+00 7.61216E-01-3.37893E-03 3.65413E-04
 -1      1463 9.87945E-01-3.32201E+00 9.98385E-01 6.30302E-01 4.41372E-03 8.76830E-04
 -1      1464 1.10185E+00-3.68343E+00 1.10521E+00 6.71880E-01 1.39835E-03 8.13615E-04
 -1      1465-1.12148E+00 3.65886E+00-1.08704E+00 6.77710E-01-2.36294E-03 1.15192E-03
 -1      1466-1.02184E+00 3.29140E+00-9.72096E-01 6.28315E-01-2.37359E-03-6.48129E-04
 -1      1467-1.16424E+00 5.49279E+00-1.85318E+00 6.51138E-01-3.96240E-03-1.56026E-02
 -1      1468 1.24877E+00-5.32366E+00 1.74409E+00 4.19490E-01 5.64784E-03 5.86262E-03
 -1      1469-4.25969E-02 2.67626E-02 6.74923E-03 3.27569E-02-1.08200E-04 1.92461E-04
 -1      1470-5.20670E-01 1.61380E+00-4.69838E-01 3.23499E-01-7.17338E-04-9.68928E-04
 -1      1471-6.32652E-01 1.98307E+00-5.78834E-01 3.76815E-01-1.40534E-03 3.26767E-04
 -1      1472-4.06676E-01 1.23124E+00-3.52693E-01 2.80435E-01-1.40956E-03-8.44042E-04
 -1      1473-2.82166E-01 8.20953E-01-2.31016E-01 2.54794E-01-1.14046E-03-1.10022E-03
 -1      1474-7.71328E-01 2.44451E+00-7.17796E-01 4.19425E-01-3.83268E-04 2.04058E-03
 -1      1475 1.64312E+00-5.46546E+00 1.63838E+00 5.62802E-01 3.39454E-04 1.03561E-03
 -1      1476-2.07231E-01 5.70402E-01-1.55654E-01 2.10802E-01-1.35548E-03 6.64474E-05
 -1      1477-9.41624E-01 2.99890E+00-8.79182E-01 4.54591E-01-4.18028E-04 3.15725E-04
 -1      1478-1.46119E-01 3.66224E-01-9.44274E-02 1.70601E-01-5.84783E-04 1.59556E-04
 -1      1479-2.26228E-03-1.74760E-02 8.45737E-03 3.47640E-02 1.73537E-04 6.04988E-05
 -1      1480 2.09464E-02-8.98849E-02 2.97356E-02 7.60167E-02-2.16514E-06-1.98532E-04
 -1      1481-9.53654E-02 1.98543E-01-4.40640E-02 1.26762E-01-3.87802E-04 4.45617E-05
 -1      1482 4.67326E-02-1.81149E-01 5.75879E-02 1.26141E-01 4.28345E-04 1.64928E-04
 -1      1483 1.03156E-01-3.66672E-01 1.13260E-01 1.62096E-01 4.88947E-04-4.41961E-05
 -1      1484-6.51552E-02 9.48376E-02-1.26307E-02 8.10319E-02-1.57268E-04-1.99087E-05
 -1      1485 1.67718E-01-5.78258E-01 1.75424E-01 2.03249E-01 9.04663E-04-2.99516E-05
 -1      1486 2.46814E-01-8.44688E-01 2.56092E-01 2.48736E-01-1.78053E-04 3.62841E-04
 -1      1487 3.42235E-01-1.16423E+00 3.52677E-01 2.84560E-01 1.26458E-03-9.47509E-04
 -1      1488 4.33332E-01-1.47059E+00 4.44434E-01 3.35521E-01 1.30461E-03 1.08285E-03
 -1      1489 5.54757E-01-1.87048E+00 5.63729E-01 3.74913E-01 9.87314E-04 4.17249E-04
 -1      1490 6.89327E-01-2.31823E+00 6.98062E-01 4.22513E-01 5.29812E-04-1.18184E-03
 -1      1491 8.37471E-01-2.81201E+00 8.45996E-01 4.60663E-01 2.18120E-03 1.84470E-04
 -1      1492 1.08755E+00-3.64942E+00 1.09886E+00 4.75771E-01 9.99826E-04-1.78901E-04
 -1      1493-1.75196E+00 5.70257E+00-1.69088E+00 4.76486E-01-1.76360E-03 2.71919E-04
 -1      1494-1.10415E+00 3.56576E+00-1.05839E+00 5.00707E-01-1.94534E-04-3.50419E-03
 -1      1495 1.05523E+00-3.54691E+00 1.06825E+00 5.86719E-01 3.66477E-03-4.97955E-04
 -1      1496-1.52008E+00 5.05742E+00-1.51904E+00 6.81569E-01-1.50950E-03 2.37443E-03
 -1      1497-1.24461E+00 4.03319E+00-1.19563E+00 5.41565E-01-5.53846E-04-1.45980E-03
 -1      1498 1.34045E+00-4.48646E+00 1.34846E+00 5.97065E-01 4.94487E-04-7.13736E-05
 -1      1499-1.38559E+00 5.86184E+00-1.91583E+00 3.26647E-01 9.39691E-02-2.18690E-02
 -1      1500-1.91257E-03-1.39759E-03 1.43203E-03 2.84117E-03 6.21044E-06 8.57581E-05
 -1      1501-3.29414E-02-2.02221E-02 3.81247E-02-7.83264E-01 1.25082E-02-3.98933E-03
 -1      1502 1.30394E+00-5.74138E+00 1.89904E+00 2.94416E-02-8.75575E-02-1.87677E-02
 -1      1503-5.27459E-02 4.54167E-02 3.15681E-03 3.99952E-02 6.60425E-05 1.40646E-04
 -1      1504-1.47557E+00 7.19790E+00-2.46930E+00 7.51501E-01-1.27838E-02-1.08582E-02
 -1      1505 8.10122E-03 1.78123E-01-8.93990E-02-2.96999E-01-5.89300E-03-1.17377E-02
 -1      1506-1.25154E-02 5.03156E-03 3.13852E-03 4.58126E-03-1.55265E-05-2.13633E-05
 -1      1507-2.52298E-02 1.13323E-02 5.97166E-03 2.73569E-02 1.47358E-05 5.18034E-05
 -1      1508 7.35485E-04-1.19745E-02 4.76097E-03 1.57457E-02-2.73546E-05 8.61372E-05
 -1      1509-6.12499E-01 1.90432E+00-5.52952E-01 2.45772E-01 6.14856E-04 2.46979E-04
 -1      1510 1.59652E-01-3.10780E-01 6.53393E-02 6.61638E-01 1.34486E-04-7.50884E-04
 -1      1511-7.72299E-01 2.43799E+00-7.13978E-01 2.84147E-01 5.34255E-04 3.13317E-06
 -1      1512-4.72296E-01 1.44168E+00-4.16176E-01 2.13366E-01-1.30317E-03 4.74927E-04
 -1      1513-9.48583E-01 3.03584E+00-8.96041E-01 3.09698E-01-8.06839E-04-1.49445E-04
 -1      1514-1.14995E+00 3.69954E+00-1.09133E+00 3.41363E-01 1.25621E-04-1.53839E-03
 -1      1515-3.49576E-01 1.02793E+00-2.90142E-01 1.81813E-01 4.63359E-04 2.32708E-04
 -1      1516 1.06571E+00-5.93800E+00 2.11158E+00 2.47576E+00-1.03788E-01 2.17561E-03
 -1      1517-8.01630E-03-1.55206E-03 3.70755E-03-9.16071E-03 5.71263E-04-1.16574E-04
 -1      1518-2.49863E-01 6.94399E-01-1.89619E-01 1.49520E-01-8.29688E-04 3.18953E-04
 -1      1519-1.68314E-01 4.26482E-01-1.10759E-01 1.17393E-01 2.29652E-05 2.44492E-04
 -1      1520-1.08861E-01 2.27213E-01-5.03772E-02 8.40178E-02-2.89292E-04 2.02073E-04
 -1      1521-1.36553E+00 4.41926E+00-1.30836E+00 3.75458E-01 9.55530E-04-2.82355E-04
 -1      1522-6.93126E-02 9.58297E-02-1.14173E-02 4.98359E-02 2.31124E-05 2.58446E-04
 -1      1523-8.62628E-02 2.04431E-01-5.02507E-02 7.41919E-01-1.01143E-03-3.61398E-04
 -1      1524-6.37787E-02 1.73150E-01-4.84545E-02 7.89519E-01 2.56055E-04 1.75797E-03
 -1      1525 1.20666E-01-4.09632E-01 1.23372E-01 1.13895E-01 1.26677E-04 3.90837E-04
 -1      1526 1.98920E-01-6.73072E-01 2.03404E-01 1.45545E-01 6.02898E-04 2.52940E-04
 -1      1527 2.98525E-01-1.00637E+00 3.04091E-01 1.77958E-01 7.36255E-04 6.59436E-04
 -1      1528 4.17589E-01-1.40022E+00 4.21011E-01 2.11397E-01-2.11956E-04 3.90678E-04
 -1      1529 2.07223E-02-7.78807E-02 2.42754E-02 4.99476E-02 2.05363E-04 8.37737E-05
 -1      1530 5.53177E-01-1.85491E+00 5.58568E-01 2.43845E-01 8.62118E-04 6.58288E-04
 -1      1531 1.01261E-02-4.44238E-02 1.48020E-02 3.70174E-02-3.54989E-05 1.44013E-04
 -1      1532 5.96576E-02-2.09034E-01 6.39798E-02 8.45278E-02 6.84826E-05-2.81235E-04
 -1      1533 7.11469E-01-2.37773E+00 7.13257E-01 2.77069E-01 7.43591E-04-8.29769E-04
 -1      1534 4.19810E-02-1.49588E-01 4.59891E-02 6.91553E-02 1.04070E-04 8.36949E-05
 -1      1535 8.87948E-01-2.96355E+00 8.88094E-01 3.07807E-01 2.24686E-04 1.23613E-05
 -1      1536-2.48621E-02 1.18679E-02 5.13847E-03 1.41175E-01-2.58776E-04-2.45312E-05
 -1      1537 1.08303E+00-3.61798E+00 1.08659E+00 3.45174E-01 1.25405E-03 1.80811E-03
 -1      1538-2.56156E-02 9.40315E-03 7.07622E-03 8.24322E-02-4.03026E-04-4.60677E-05
 -1      1539 1.30927E+00-4.37461E+00 1.31364E+00 3.65566E-01-2.71161E-04-5.00367E-04
 -1      1540-2.18902E-02 4.58306E-03 6.95491E-03 1.95101E-01-1.23847E-04-1.32813E-04
 -1      1541-2.04095E-02-1.26253E-03 8.86112E-03 2.50957E-01 3.53975E-04 1.07259E-03
 -1      1542-1.87279E-02-3.51441E-03 8.27408E-03 3.09486E-01 2.27437E-04 1.81505E-04
 -1      1543-1.78951E-02-1.53103E-02 1.52073E-02 3.59820E-01 6.33784E-04-4.35157E-04
 -1      1544-1.52409E-02-1.91200E-02 1.50906E-02 4.17171E-01 9.34812E-04 8.10383E-04
 -1      1545-6.98813E-03-4.16377E-02 2.04965E-02 4.74942E-01-1.72863E-03 1.20427E-03
 -1      1546-6.01243E-03-5.54210E-02 2.73453E-02 5.29103E-01 1.76050E-03 2.10527E-06
 -1      1547-1.64925E-03-6.56481E-02 2.92650E-02 5.88511E-01 6.03555E-04-4.62162E-04
 -1      1548-1.58981E-02-1.87862E-02 1.47667E-02 6.35568E-01 9.33833E-04 2.68505E-03
 -1      1549-8.11991E-03-4.91598E-02 2.44590E-02 6.92479E-01 2.02056E-03-8.25284E-04
 -1      1550 2.65800E-02-1.52948E-01 5.40281E-02 6.20550E-01 1.06753E-03-1.65353E-03
 -1      1551 1.99982E-02-1.27361E-01 4.37584E-02 5.63788E-01-7.13833E-04 6.73948E-04
 -1      1552 1.20673E+00-4.03847E+00 1.21415E+00 3.65700E-01 7.73627E-04-1.09824E-03
 -1      1553 1.51036E+00-5.03494E+00 1.50838E+00 4.15329E-01 8.14263E-04 1.32056E-03
 -1      1554 1.12376E-02-1.04712E-01 4.01298E-02 5.11661E-01 7.56422E-04 6.27231E-04
 -1      1555-5.24921E-03-5.68714E-02 2.74037E-02 4.53906E-01 4.57388E-04 7.96661E-04
 -1      1556 9.96654E-01-3.33635E+00 1.00258E+00 3.26214E-01 1.06518E-03 3.55872E-04
 -1      1557-1.14337E-02-3.16431E-02 1.81589E-02 4.04646E-01 2.13388E-04 5.76866E-04
 -1      1558-1.93541E-02-5.69758E-03 9.94647E-03 3.46827E-01 1.73343E-03-1.37957E-03
 -1      1559 8.10205E-01-2.71469E+00 8.16328E-01 3.03998E-01 9.83049E-04 6.36474E-04
 -1      1560-2.03190E-02-3.17439E-03 1.02665E-02 2.88247E-01-5.11057E-04 3.84735E-04
 -1      1561-2.17907E-02 2.96881E-03 7.65517E-03 2.37483E-01 4.74109E-04-7.29567E-04
 -1      1562-2.35683E-02 6.53308E-03 7.29967E-03 1.21863E-01-1.51969E-04 2.25005E-04
 -1      1563-2.38511E-02 5.28583E-03 8.23220E-03 1.77964E-01-9.74244E-04-1.42898E-04
 -1      1564 6.42364E-01-2.15469E+00 6.48412E-01 2.67737E-01 6.29267E-04-9.17271E-04
 -1      1565-2.42558E-02 7.31288E-03 7.29608E-03 6.56897E-02-6.98929E-05-5.91745E-05
 -1      1566 4.95162E-01-1.66059E+00 4.99223E-01 2.31650E-01 6.74327E-04 1.25209E-03
 -1      1567 3.65620E-01-1.22421E+00 3.66106E-01 1.99594E-01 7.38018E-05-1.77514E-04
 -1      1568 2.54847E-01-8.62152E-01 2.60619E-01 1.67077E-01 1.24042E-03 8.24312E-04
 -1      1569 2.05498E+00-7.37277E+00 2.27378E+00 5.53933E-01 4.31237E-03 6.24361E-04
 -1      1570 1.64325E-01-5.58889E-01 1.68899E-01 1.33222E-01 6.90252E-04-3.41134E-04
 -1      1571 9.22824E-02-3.17541E-01 9.61766E-02 1.03617E-01 7.45580E-04 4.06497E-04
 -1      1572-7.54509E-01 3.09588E+00-1.03881E+00-5.88421E-01 1.63798E-02-3.76064E-02
 -1      1573-1.40801E-01 3.36121E-01-8.36862E-02 1.05683E-01-4.87412E-04 2.45811E-04
 -1      1574-2.01809E+00 7.47323E+00-2.33375E+00 8.10474E-01-4.37384E-03-5.78486E-03
 -1      1575-2.12969E-01 5.75547E-01-1.54901E-01 1.38156E-01-1.00345E-03 1.29994E-04
 -1      1576 1.43396E+00-4.79667E+00 1.44169E+00 4.01158E-01-3.22009E-04 2.05132E-03
 -1      1577-3.03455E-01 8.77482E-01-2.45759E-01 1.75648E-01-3.60030E-04 1.31307E-04
 -1      1578-9.04771E-02 1.68795E-01-3.37293E-02 7.09198E-02-4.75228E-05 3.06042E-04
 -1      1579-1.15178E-02-2.59510E-03 6.04086E-03 2.87613E-02-1.03223E-04-5.98663E-05
 -1      1580-4.13910E-01 1.24700E+00-3.57303E-01 2.05873E-01-8.98532E-04 1.19802E-03
 -1      1581 1.41582E+00-6.67106E+00 2.26175E+00 3.33829E-01-7.07074E-03-2.08934E-02
 -1      1582-5.49179E-01 1.69494E+00-4.90766E-01 2.40994E-01-5.60351E-04 1.75888E-04
 -1      1583-5.60815E-01 3.09647E+00-1.09026E+00 1.70937E-01-1.55902E-03-6.45221E-03
 -1      1584-1.67195E+00 5.43508E+00-1.61286E+00 4.34236E-01-6.68111E-04 4.29092E-04
 -1      1585-7.66718E-01 2.41759E+00-7.07406E-01 2.29119E-01-4.01302E-04 1.80157E-03
 -1      1586-9.50058E-01 3.03219E+00-8.92628E-01 2.60055E-01-7.24652E-04-3.43575E-04
 -1      1587-1.07778E-02-3.53222E-02 1.97508E-02 6.86202E-01 1.13149E-03-1.09681E-03
 -1      1588-1.15835E+00 3.72182E+00-1.09843E+00 2.84341E-01-1.01291E-03 4.77117E-04
 -1      1589 6.47399E-01-2.97601E+00 1.04418E+00-7.29552E-01-4.71756E-03-3.14347E-02
 -1      1590-1.38725E+00 4.48943E+00-1.32965E+00 3.20342E-01-6.31343E-04 9.21817E-04
 -1      1591 2.14435E+00-7.15858E+00 2.14703E+00 4.60985E-01-1.24149E-03 1.41566E-03
 -1      1592 2.01158E+00-6.70408E+00 2.01175E+00 4.47494E-01-7.61748E-04-1.41468E-03
 -1      1593-2.27219E-01 6.58038E-01-1.85670E-01 3.45793E-01-2.40190E-03 1.42752E-03
 -1      1594 8.28682E-01-3.13400E+00 9.90638E-01 4.62287E-01-2.19660E-03-3.79432E-03
 -1      1595-2.75747E-01 8.18420E-01-2.32980E-01 3.96523E-01 4.78633E-04-9.65649E-04
 -1      1596-1.38428E+00 6.49607E+00-2.19146E+00 1.61108E+00 2.90732E-01-1.50863E-02
 -1      1597-1.69493E-01 4.61968E-01-1.25485E-01 2.87754E-01-4.83770E-04-3.31601E-04
 -1      1598 2.00816E+00-6.68949E+00 2.00582E+00 4.09152E-01-9.95361E-04-4.18000E-04
 -1      1599-3.40657E-01 1.03263E+00-2.96379E-01 4.50091E-01 2.66785E-05 3.23774E-04
 -1      1600-1.25100E-01 3.16484E-01-8.26203E-02 2.37126E-01 1.53764E-03-2.09395E-04
 -1      1601-4.14928E-01 1.27953E+00-3.70556E-01 5.09075E-01 4.68917E-04 1.69657E-03
 -1      1602-4.47653E-02 1.69141E-02 1.23729E-02-1.10548E-03 5.78480E-05 7.78872E-04
 -1      1603-4.99967E-01 1.56349E+00-4.55785E-01 5.52619E-01 1.00874E-03 9.15984E-04
 -1      1604-9.03810E-02 1.98344E-01-4.60582E-02 1.83159E-01-3.02287E-04 2.99890E-04
 -1      1605-1.66342E+00 5.40672E+00-1.60403E+00 3.24263E-01-3.73488E-03 1.19299E-03
 -1      1606-1.84236E+00 5.99915E+00-1.78049E+00 4.12244E-01-1.03445E-03-1.22991E-03
 -1      1607-2.05808E+00 6.73666E+00-2.00419E+00 4.57554E-01-6.26288E-04 4.17292E-05
 -1      1608-5.38431E-01 2.63051E+00-8.96564E-01 5.97486E-01 1.32015E-04-2.94961E-03
 -1      1609-1.96080E+00 6.40625E+00-1.90608E+00 4.52705E-01 5.71778E-04 6.29331E-04
 -1      1610-2.26919E+00 7.57032E+00-2.26971E+00 5.28259E-01-1.95446E-03 5.76587E-03
 -1      1611-6.16164E-01 1.95284E+00-5.73777E-01 5.95725E-01 1.07991E-03-1.68419E-03
 -1      1612 1.84837E+00-6.17325E+00 1.85395E+00 3.67932E-01 8.22115E-04-2.90145E-04
 -1      1613 5.63077E-01-1.93396E+00 5.89632E-01 6.28024E-01 6.25854E-04 2.40658E-04
 -1      1614-6.40125E-02 1.10304E-01-1.94108E-02 1.32762E-01 1.63157E-04 1.74271E-04
 -1      1615-6.50542E-01 5.70827E+00-2.09932E+00 3.09241E+00 4.64230E-01 7.89980E-02
 -1      1616-4.72731E-02 5.23999E-02-2.18756E-03 8.11953E-02-4.51031E-05-7.96770E-05
 -1      1617 1.62105E-02-9.54616E-02 3.40036E-02 1.35081E-01 2.81723E-05-3.81256E-05
 -1      1618-1.51328E-03-3.63790E-02 1.61507E-02 8.04868E-02 1.67498E-05 8.56233E-05
 -1      1619 1.63472E-04-3.35037E-03 1.28786E-03 4.10296E-03-4.68837E-05 1.50541E-04
 -1      1620-2.95527E-01 1.15771E+00-3.71259E-01 7.83892E-01 4.37005E-04 2.18374E-03
 -1      1621 5.95780E-01-2.02579E+00 6.13408E-01 5.89673E-01-1.61584E-03-1.22376E-03
 -1      1622 5.08885E-01-1.73579E+00 5.25920E-01 5.38344E-01-1.54747E-03 2.68742E-05
 -1      1623 4.16278E-01-1.42705E+00 4.34097E-01 4.82351E-01-5.75374E-04-7.45066E-04
 -1      1624 3.32824E-01-1.14504E+00 3.48137E-01 4.37144E-01-1.67208E-04-7.28895E-05
 -1      1625 2.56354E-01-8.91485E-01 2.72020E-01 3.80766E-01 6.30669E-04 3.05345E-04
 -1      1626 1.88689E-01-6.77190E-01 2.11075E-01 3.32174E-01 6.28509E-04-9.24384E-04
 -1      1627 1.30433E-01-4.72637E-01 1.47438E-01 2.82528E-01-6.49600E-04 1.68699E-03
 -1      1628 8.42245E-02-3.20293E-01 1.01221E-01 2.33412E-01-5.31522E-04 8.87389E-04
 -1      1629 4.46426E-02-1.92186E-01 6.39624E-02 1.84855E-01-1.32426E-04-3.38086E-05
 -1      1630 5.36126E-01-2.43008E+00 8.12201E-01 2.36086E-02 7.84597E-03-7.61297E-03
 -1      1631 6.77810E-01-2.30450E+00 6.96074E-01 6.40691E-01 1.14895E-03-9.69695E-04
 -1      1632 5.58738E-01-1.89763E+00 5.73473E-01 5.56909E-01-1.50595E-03 1.51529E-04
 -1      1633 7.07108E-03-6.34365E-02 2.41521E-02 1.04849E-01 6.36342E-05 3.14530E-04
 -1      1634-6.08576E-01 1.92866E+00-5.65120E-01 6.94145E-01-1.52979E-03-1.43571E-04
 -1      1635-6.25812E-02 6.97903E-02-3.01834E-03 3.53076E-02 2.13579E-04 7.53664E-05
 -1      1636-7.87561E-03-1.52505E-02 9.71682E-03 5.23756E-02-9.34233E-05-3.96814E-05
 -1      1637 4.59310E-01-1.57169E+00 4.76918E-01 4.99974E-01-5.07768E-04 1.71840E-03
 -1      1638 3.72633E-01-1.27267E+00 3.84725E-01 4.59854E-01-1.85941E-04 7.38361E-04
 -1      1639 2.90518E-01-1.00244E+00 3.04625E-01 4.10000E-01-5.98579E-04-2.34487E-05
 -1      1640 8.39420E-01-2.78966E+00 8.35301E-01 7.32372E-01-1.07047E-04 2.21540E-03
 -1      1641 2.19787E-01-7.71753E-01 2.36424E-01 3.60043E-01 6.20255E-04 3.43798E-04
 -1      1642 1.52144E-01-5.47662E-01 1.68951E-01 3.05916E-01-2.75903E-04-5.54493E-05
 -1      1643 1.03645E-01-3.82478E-01 1.18907E-01 2.57277E-01-1.45369E-03 1.15762E-03
 -1      1644 6.07420E-02-2.43481E-01 7.78535E-02 2.04153E-01 2.31924E-04-9.20355E-04
 -1      1645 2.73750E-02-1.32163E-01 4.46365E-02 1.55938E-01 6.50900E-04-1.07872E-04
 -1      1646 8.17940E-01-2.69519E+00 8.05685E-01 7.30200E-01-5.91337E-05-2.94710E-03
 -1      1647 3.03003E-01-1.05105E+00 3.19449E-01 7.73107E-01 2.44096E-03-3.28877E-04
 -1      1648 2.86532E-01-1.01628E+00 3.12906E-01 7.21391E-01 8.24140E-04-7.53212E-04
 -1      1649-9.18790E-01 2.95559E+00-8.71935E-01 6.73017E-01-1.45643E-03 1.54741E-03
 -1      1650-7.97397E-01 2.56047E+00-7.56522E-01 7.22231E-01-8.54295E-04-2.39601E-03
 -1      1651 1.42964E+00-6.49445E+00 2.20623E+00 1.04549E+00-1.31637E-01-8.56900E-04
 -1      1652 6.36665E-04-1.06594E-03 1.20850E-04 2.35507E-03-4.04448E-04-3.09056E-04
 -1      1653-4.19244E-05 4.32493E-04-1.29682E-04-7.73347E-04-9.80695E-05 6.39259E-05
 -1      1654-1.73257E-04-2.20151E-04 1.69378E-04-2.32109E-05 4.21311E-05-1.16907E-05
 -1      1655-5.37531E-02 7.58076E-02-9.67920E-03 1.05531E-01-2.82425E-04 2.65557E-04
 -1      1656-7.47344E-02 1.46265E-01-3.05295E-02 1.55701E-01 5.34903E-05 3.29285E-04
 -1      1657-8.07363E-01 2.67313E+00-8.02704E-01 7.59577E-01 2.04867E-03-1.44104E-03
 -1      1658-1.51592E-02 5.92197E-03 4.00012E-03-7.97270E-04 1.23127E-04 1.12000E-04
 -1      1659-4.83741E-02 2.52218E-02 9.90336E-03 1.64518E-02 2.11340E-05 3.13405E-04
 -1      1660-1.05219E-01 2.49766E-01-6.18037E-02 2.07373E-01 3.33477E-04-5.83293E-04
 -1      1661-1.62781E+00 7.47764E+00-2.52957E+00 1.16629E+00 2.42853E-02-4.84468E-02
 -1      1662 7.15459E-01-2.42765E+00 7.34155E-01 6.96746E-01 3.47837E-03-5.33986E-04
 -1      1663 1.90367E+00-6.35836E+00 1.90904E+00 3.80771E-01 2.63326E-04-1.26483E-03
 -1      1664-1.45618E-01 3.77802E-01-9.88269E-02 2.63162E-01 3.22976E-04 5.40088E-04
 -1      1665-2.13684E+00 8.94109E+00-2.94652E+00 9.75336E-01 9.63771E-03-2.40216E-02
 -1      1666-3.80911E-02 2.72654E-02 4.37390E-03 5.25795E-02-7.74391E-06-4.37836E-05
 -1      1667-1.90336E-01 5.35882E-01-1.48052E-01 3.15093E-01 2.31417E-04-8.65372E-04
 -1      1668-2.50478E-01 7.23040E-01-2.01084E-01 3.67382E-01-4.93649E-04 3.77963E-04
 -1      1669-5.25803E-02 3.57321E-02 7.43317E-03 2.29109E-02-1.33962E-04 2.14509E-04
 -1      1670-1.70211E-04 1.56321E-03-5.73974E-04 1.40421E-03-3.00632E-04-9.45264E-05
 -1      1671-1.17384E-04 9.53926E-04-3.55195E-04-1.55173E-05-6.69561E-05 1.91353E-05
 -1      1672 1.73840E+00-7.64711E+00 2.55395E+00 7.52492E-01-2.20661E-02-4.76355E-03
 -1      1673-5.49632E-03 8.52269E-04 1.95304E-03 3.45269E-03 5.35705E-05-4.79782E-07
 -1      1674-2.27358E-01 6.63615E-01-1.86874E-01 4.23237E-01-1.30827E-03 2.13784E-04
 -1      1675-1.71793E+00 5.59542E+00-1.66221E+00 3.46955E-01-5.33064E-04 1.37186E-03
 -1      1676-2.72757E-01 8.19057E-01-2.35270E-01 4.80868E-01 9.54333E-04-1.58504E-03
 -1      1677-3.26745E-01 1.00599E+00-2.92178E-01 5.35131E-01 2.78073E-04-3.12809E-04
 -1      1678-5.30430E-01 1.66823E+00-4.87306E-01 6.72857E-01-6.19251E-05 2.21814E-03
 -1      1679-3.97987E-01 1.23068E+00-3.57081E-01 5.83598E-01 1.66778E-03 9.60060E-04
 -1      1680-1.71432E+00 5.58030E+00-1.65704E+00 2.68841E-01-2.82906E-03-1.96915E-03
 -1      1681-2.33604E-02 1.11204E-02 5.28694E-03 1.31322E-02 1.02868E-04 4.71037E-05
 -1      1682 2.08254E+00-8.37291E+00 2.72254E+00 6.28759E-01 7.10074E-03-3.87722E-02
 -1      1683-1.46028E+00 4.72432E+00-1.39931E+00 2.34790E-01-9.88538E-04 2.07719E-03
 -1      1684-1.21315E+00 3.90370E+00-1.15406E+00 2.15361E-01-2.33139E-03 1.33028E-03
 -1      1685 1.88881E+00-6.30402E+00 1.89249E+00 3.00741E-01 1.31941E-03 1.08382E-03
 -1      1686-9.88882E-01 3.15428E+00-9.27636E-01 1.89061E-01-1.11888E-03-4.54549E-04
 -1      1687-7.90020E-01 2.49410E+00-7.30591E-01 1.65079E-01-4.93785E-04 8.01771E-04
 -1      1688-3.60119E-02 1.99879E-02 6.61813E-03 2.01539E-02 3.72607E-05-2.54910E-05
 -1      1689-6.11346E-01 1.90220E+00-5.53985E-01 1.42329E-01-1.24481E-03-1.12505E-04
 -1      1690-5.15428E-01 1.63610E+00-4.83125E-01 6.34775E-01-1.42341E-04-1.13761E-03
 -1      1691-4.48595E-01 1.35543E+00-3.88752E-01 1.32814E-01-8.03609E-04 7.95021E-04
 -1      1692-3.21068E-01 9.32961E-01-2.62716E-01 1.10072E-01-5.99902E-04-2.34325E-04
 -1      1693 7.18032E-03-2.79239E-02 8.88436E-03 1.75478E-02-5.34831E-05 2.36065E-04
 -1      1694 3.90215E-02-1.32874E-01 4.00458E-02 3.75979E-02 2.09816E-04-2.81248E-04
 -1      1695-2.19913E-01 5.92251E-01-1.59460E-01 8.92901E-02-8.43627E-04 9.00168E-06
 -1      1696 9.06677E-02-3.05420E-01 9.16962E-02 6.68796E-02 6.94099E-04 3.58814E-04
 -1      1697 1.72167E-01-5.76142E-01 1.72974E-01 8.20970E-02 6.49333E-04-5.26352E-04
 -1      1698 2.51270E+00-8.37073E+00 2.51062E+00 2.80368E-01-5.31074E-05 7.75164E-04
 -1      1699-1.39322E-01 3.24195E-01-7.91368E-02 6.67257E-02-6.26921E-04 2.58872E-04
 -1      1700 2.74680E-01-9.19886E-01 2.76694E-01 1.03056E-01 8.41313E-04 1.01395E-03
 -1      1701 4.00415E-01-1.33806E+00 4.02013E-01 1.23561E-01 1.25071E-03 6.36850E-04
 -1      1702-8.64799E-02 1.47025E-01-2.57477E-02 4.11239E-02-3.23375E-04 3.23769E-04
 -1      1703 5.48826E-01-1.83671E+00 5.52460E-01 1.43982E-01 1.38971E-03-6.95092E-04
 -1      1704 7.13048E-01-2.37850E+00 7.13727E-01 1.78219E-01 1.38514E-03 5.30662E-04
 -1      1705 9.06142E-01-3.02423E+00 9.07557E-01 1.96434E-01 9.89649E-04 2.85204E-04
 -1      1706-1.00190E+00 6.01312E+00-1.93609E+00 2.00040E+00 7.71590E-01 8.59920E-02
 -1      1707 1.12265E+00-3.74399E+00 1.12260E+00 2.21519E-01 1.55985E-03-1.79530E-03
 -1      1708 1.36392E+00-4.55075E+00 1.36566E+00 2.47022E-01 2.12230E-03-8.86059E-05
 -1      1709 1.67652E+00-5.59200E+00 1.67847E+00 2.39960E-01 7.29246E-04 1.81250E-03
 -1      1710 2.75977E+00-9.62735E+00 2.94721E+00 4.64349E-01 9.66122E-03 1.69245E-02
 -1      1711 2.72262E+00-9.28398E+00 2.81647E+00 2.96066E-01 2.05997E-03-5.78751E-03
 -1      1712 2.74863E+00-1.02656E+01 3.22880E+00 1.17537E+00 3.71670E-02 6.05286E-03
 -1      1713 2.84456E+00-1.02518E+01 3.19245E+00 5.34836E-01 1.18302E-02-5.08464E-03
 -1      1714 2.06075E+00-7.93803E+00 2.51556E+00 6.20761E-01 1.60952E-02-7.89503E-03
 -1      1715 6.39357E-04-3.58748E-03 1.12997E-03 2.08305E-03-6.26023E-05 1.17281E-04
 -1      1716 5.14472E-07-5.83528E-04 1.16896E-04 1.71095E-03 9.47370E-05-3.95294E-05
 -1      1717-4.18749E-04 1.01918E-03-3.18326E-04-2.83251E-06-1.31771E-04-4.85559E-05
 -1      1718-3.43194E-04 9.59113E-04-2.95898E-04-1.17460E-04-5.93845E-05-2.02590E-05
 -1      1719-1.26050E-04-1.25642E-03 6.47552E-04 1.86034E-03 6.52677E-05 2.03243E-05
 -1      1720 5.88003E-01-5.01037E+00 1.71746E+00 2.82881E+00-5.30376E-01 3.13662E-02
 -1      1721-4.34883E-05 8.22464E-04-3.09795E-04 3.10314E-04-1.26124E-04 3.71825E-05
 -1      1722-4.14400E-01 4.82881E+00-1.74145E+00 2.97606E+00 6.90299E-01 1.33352E-01
 -1      1723-1.05895E-04 1.29436E-03-2.96443E-04 2.34234E-04-3.78675E-04-1.95792E-04
 -1      1724-2.02944E-04-2.68826E-03 1.20961E-04-9.09756E-04-7.63105E-04 8.71672E-04
 -1      1725-1.15165E-02-2.08470E-03 5.02960E-03-1.28376E-02 1.26648E-03-1.18379E-03
 -1      1726-3.81987E-02 8.85596E-03 1.31255E-02-6.60734E-03 1.08303E-03 5.15284E-04
 -1      1727-4.78038E-02 1.21555E-02 1.57727E-02 2.59107E-03-1.30169E-04-2.92465E-04
 -1      1728-2.71272E-02 9.02493E-03 8.01951E-03-9.22163E-03 2.52309E-04-1.75903E-06
 -1      1729-2.75328E+00 9.35900E+00-2.82703E+00 4.32890E-01 1.28292E-03 3.18926E-03
 -1      1730-2.80714E+00 9.77882E+00-2.96841E+00 6.06932E-01 2.64217E-03 7.29446E-03
 -1      1731-2.95283E+00 1.06511E+01-3.33051E+00 6.77759E-01-4.18698E-03-2.56373E-02
 -1      1732-2.84869E+00 1.07414E+01-3.38368E+00 1.33060E+00 1.06286E-02-3.07493E-02
 -1      1733-2.08240E+00 8.18752E+00-2.64557E+00 9.14369E-01 1.52360E-03-1.32011E-02
 -1      1734 2.74366E+00-9.14527E+00 2.74038E+00 2.47077E-01-4.62618E-03 3.02768E-03
 -1      1735 2.67482E+00-8.92013E+00 2.67595E+00 2.37740E-01-3.37037E-03-9.97723E-04
 -1      1736 2.13246E+00-7.30573E+00 2.21162E+00 5.00536E-01-2.24879E-03-1.20642E-02
 -1      1737 2.85716E+00-9.51652E+00 2.85399E+00 1.46195E-01 4.06538E-04-2.32898E-03
 -1      1738 2.78737E+00-9.29037E+00 2.78708E+00 1.47903E-01 1.26259E-03 2.77558E-03
 -1      1739 2.32560E+00-7.77614E+00 2.33386E+00 3.69738E-01-1.02481E-03 5.55203E-03
 -1      1740 2.53679E+00-8.45165E+00 2.53469E+00 2.36357E-01-1.19660E-03-6.52186E-04
 -1      1741 2.46781E+00-8.23775E+00 2.47340E+00 2.36267E-01-1.53885E-03 7.08927E-04
 -1      1742 2.26622E+00-7.52685E+00 2.25646E+00 3.67696E-01-6.14396E-04-3.93312E-03
 -1      1743 2.46971E+00-8.22204E+00 2.46349E+00 2.15511E-01-1.91105E-03-2.16817E-03
 -1      1744 2.39912E+00-8.00520E+00 2.40171E+00 2.17748E-01 1.08150E-03 2.27517E-03
 -1      1745 2.01175E+00-6.70004E+00 2.00883E+00 4.29400E-01-1.12568E-03-3.13698E-03
 -1      1746 2.34150E+00-7.80211E+00 2.34147E+00 2.05508E-01 8.46730E-04-2.24311E-03
 -1      1747 2.27155E+00-7.59074E+00 2.28065E+00 2.00238E-01-2.23718E-03-4.38570E-05
 -1      1748 1.67125E+00-5.56864E+00 1.67177E+00 5.07340E-01-3.06591E-03 2.72887E-03
 -1      1749 2.06344E+00-6.88358E+00 2.06542E+00 3.30938E-01-5.35883E-03-1.72596E-04
 -1      1750 1.62590E+00-5.44191E+00 1.63266E+00 4.96447E-01-2.11998E-03-2.77492E-03
 -1      1751 2.24763E+00-7.49414E+00 2.24812E+00 1.91067E-01 1.14934E-03-1.97147E-03
 -1      1752 2.18268E+00-7.28575E+00 2.18755E+00 1.92022E-01 8.96876E-04-1.39785E-04
 -1      1753 1.87638E+00-6.26561E+00 1.88231E+00 3.74150E-01-3.91242E-04-2.56247E-03
 -1      1754 2.20502E+00-7.34778E+00 2.20321E+00 1.56859E-01 1.62645E-03-2.11181E-03
 -1      1755 2.14266E+00-7.14201E+00 2.14205E+00 1.57485E-01 1.89623E-03 2.59247E-03
 -1      1756 1.86416E+00-6.23970E+00 1.87513E+00 3.34813E-01 2.08934E-04 3.40075E-03
 -1      1757 1.95164E+00-6.49879E+00 1.94840E+00 2.24103E-01-2.14501E-03 1.34788E-03
 -1      1758 1.88643E+00-6.30433E+00 1.89234E+00 2.20178E-01-2.49351E-03-1.74194E-03
 -1      1759 1.69687E+00-5.65890E+00 1.69706E+00 3.61773E-01 1.47953E-04 1.48310E-04
 -1      1760 1.84931E+00-6.16641E+00 1.84929E+00 2.10679E-01 4.12947E-04-6.81108E-04
 -1      1761 1.79078E+00-5.97809E+00 1.79481E+00 2.10942E-01 3.09942E-04 3.60027E-04
 -1      1762 1.46671E+00-4.91264E+00 1.47745E+00 4.07818E-01-1.93259E-03-1.48426E-03
 -1      1763 1.91301E+00-6.36893E+00 1.90945E+00 1.25477E-01 1.86626E-03-1.61894E-03
 -1      1764 1.85355E+00-6.17667E+00 1.85230E+00 1.25797E-01 1.70551E-03 3.74573E-03
 -1      1765 1.55376E+00-5.20122E+00 1.56327E+00 3.20743E-01-2.28698E-04 5.49417E-03
 -1      1766 1.67081E+00-5.56229E+00 1.66788E+00 1.97158E-01-1.20813E-03 2.06461E-03
 -1      1767 1.61085E+00-5.38397E+00 1.61625E+00 1.94537E-01-2.03766E-03-1.40730E-03
 -1      1768 1.49420E+00-4.97094E+00 1.49145E+00 3.07916E-01-6.70819E-04 1.16993E-03
 -1      1769 1.55748E+00-5.19899E+00 1.56020E+00 1.95624E-01 1.97739E-04-1.45801E-03
 -1      1770 1.50302E+00-5.02718E+00 1.51007E+00 1.94065E-01 4.01670E-04-1.90362E-03
 -1      1771 1.25658E+00-4.20114E+00 1.26398E+00 3.70116E-01-2.29584E-03-2.97327E-03
 -1      1772 1.58307E+00-5.27724E+00 1.58294E+00 1.27736E-01 2.53467E-03-2.62056E-03
 -1      1773 1.52974E+00-5.10246E+00 1.53095E+00 1.27370E-01 2.57514E-03 2.46759E-03
 -1      1774 1.28629E+00-4.30110E+00 1.29271E+00 3.05318E-01 8.55742E-04-7.41008E-04
 -1      1775 1.39175E+00-4.62922E+00 1.38741E+00 1.83208E-01-1.03609E-03 2.01951E-03
 -1      1776 1.33764E+00-4.46712E+00 1.34093E+00 1.81071E-01-4.81862E-04 9.52731E-04
 -1      1777 1.22186E+00-4.07298E+00 1.22198E+00 2.95496E-01 5.21472E-04 5.40109E-04
 -1      1778 1.29546E+00-4.31362E+00 1.29296E+00 1.79586E-01-9.48060E-04-2.60780E-04
 -1      1779 1.24563E+00-4.15620E+00 1.24695E+00 1.77518E-01-7.60596E-04 7.94428E-04
 -1      1780 1.03744E+00-3.47708E+00 1.04588E+00 3.41373E-01-1.33711E-04 6.59992E-03
 -1      1781 1.30664E+00-4.35261E+00 1.30524E+00 1.14925E-01 2.60898E-03-1.32475E-03
 -1      1782 1.25640E+00-4.19415E+00 1.25907E+00 1.14514E-01 1.72438E-03 1.39089E-03
 -1      1783 1.06448E+00-3.54856E+00 1.06224E+00 2.75522E-01-1.44888E-04-4.17388E-03
 -1      1784 1.14090E+00-3.79750E+00 1.13838E+00 1.65450E-01-1.41708E-03 1.58175E-03
 -1      1785 1.09179E+00-3.65117E+00 1.09599E+00 1.62337E-01-1.79972E-03-1.38275E-03
 -1      1786 1.00391E+00-3.34768E+00 1.00288E+00 2.66643E-01-5.77507E-04 5.96420E-05
 -1      1787 1.05258E+00-3.51190E+00 1.05328E+00 1.60611E-01 5.49317E-04-5.64534E-04
 -1      1788 1.00802E+00-3.37023E+00 1.01289E+00 1.59943E-01 6.35543E-04-1.68231E-04
 -1      1789 8.47455E-01-2.83694E+00 8.54029E-01 3.06708E-01-1.32388E-03-1.51354E-03
 -1      1790 1.05612E+00-3.52105E+00 1.05608E+00 1.03534E-01 4.32426E-04-1.73792E-03
 -1      1791 1.01232E+00-3.37726E+00 1.01341E+00 1.03358E-01 4.18478E-04 1.68056E-03
 -1      1792 8.56111E-01-2.87538E+00 8.65008E-01 2.50711E-01 7.51227E-04 3.23466E-03
 -1      1793 9.15672E-01-3.05002E+00 9.13959E-01 1.48607E-01-7.45498E-04 1.68391E-04
 -1      1794 8.71586E-01-2.91745E+00 8.76203E-01 1.45415E-01-1.45295E-03-1.21502E-03
 -1      1795 8.11035E-01-2.69288E+00 8.06560E-01 2.40498E-01 1.15408E-03-3.58558E-03
 -1      1796 8.36211E-01-2.79301E+00 8.38110E-01 1.43398E-01 3.88482E-04-9.23057E-04
 -1      1797 7.96474E-01-2.66755E+00 8.01653E-01 1.41973E-01 4.04007E-04-1.28631E-03
 -1      1798 6.75047E-01-2.26190E+00 6.81747E-01 2.74047E-01-1.15960E-03-2.16633E-03
 -1      1799 8.32638E-01-2.77490E+00 8.32203E-01 9.23636E-02 1.85484E-03-1.62564E-03
 -1      1800 7.94254E-01-2.64839E+00 7.94500E-01 9.20017E-02 1.88980E-03 1.93336E-03
 -1      1801 6.78423E-01-2.27106E+00 6.83174E-01 2.22078E-01 4.32576E-04-6.21914E-05
 -1      1802 7.15738E-01-2.38140E+00 7.13838E-01 1.31186E-01-5.86609E-04 1.50228E-03
 -1      1803 6.76930E-01-2.26513E+00 6.80352E-01 1.28916E-01-3.20661E-04 2.41048E-04
 -1      1804 6.33252E-01-2.10938E+00 6.33160E-01 2.12313E-01 1.44440E-04 1.25599E-03
 -1      1805 6.49084E-01-2.15966E+00 6.46909E-01 1.25211E-01-6.81010E-04-2.54362E-04
 -1      1806 6.14780E-01-2.04809E+00 6.13829E-01 1.23695E-01-1.14879E-04 9.48136E-04
 -1      1807 5.22534E-01-1.75616E+00 5.29457E-01 2.40549E-01-7.23790E-05 3.49048E-03
 -1      1808 6.39701E-01-2.13109E+00 6.39331E-01 7.59383E-02 1.07072E-03-6.94041E-04
 -1      1809 6.04152E-01-2.02002E+00 6.06460E-01 7.53382E-02 1.30373E-03 8.84764E-04
 -1      1810 5.23857E-01-1.75367E+00 5.25982E-01 1.89258E-01-9.26318E-05 1.06279E-03
 -1      1811 5.40795E-01-1.79823E+00 5.38729E-01 1.12530E-01-9.49276E-04 8.23656E-04
 -1      1812 5.07220E-01-1.69805E+00 5.10117E-01 1.10650E-01-5.29106E-04 2.78681E-04
 -1      1813 4.83216E-01-1.61264E+00 4.84093E-01 1.78707E-01-3.79585E-04-8.00440E-04
 -1      1814 4.81369E-01-1.60360E+00 4.80256E-01 1.07899E-01-3.15171E-04-5.21338E-04
 -1      1815 4.51617E-01-1.50763E+00 4.52192E-01 1.05713E-01-9.16025E-05 3.90567E-04
 -1      1816 3.89629E-01-1.31336E+00 3.95560E-01 2.08133E-01-6.65616E-04 2.61480E-03
 -1      1817 4.68711E-01-1.55848E+00 4.67285E-01 6.41704E-02 5.11308E-04-1.41324E-05
 -1      1818 4.38705E-01-1.46397E+00 4.39206E-01 6.45445E-02 1.14368E-03 1.31330E-03
 -1      1819 3.86291E-01-1.28612E+00 3.83317E-01 1.60119E-01-4.49495E-05 3.47786E-04
 -1      1820 3.89419E-01-1.29462E+00 3.87922E-01 9.57497E-02-4.95854E-04 1.16385E-03
 -1      1821 3.60981E-01-1.21010E+00 3.63588E-01 9.37856E-02-1.89625E-04 2.25802E-04
 -1      1822 3.48755E-01-1.16783E+00 3.51757E-01 1.51373E-01-2.01735E-04 7.43029E-04
 -1      1823 3.39432E-01-1.13092E+00 3.38597E-01 9.07213E-02-6.28221E-04 8.17183E-05
 -1      1824 3.13580E-01-1.05041E+00 3.15398E-01 8.89397E-02 3.76334E-05-1.23798E-04
 -1      1825 2.75604E-01-9.32376E-01 2.82354E-01 1.74351E-01 2.06573E-05 2.75750E-03
 -1      1826 3.23413E-01-1.07648E+00 3.22517E-01 5.41480E-02 4.83388E-04-6.88939E-04
 -1      1827 2.99480E-01-9.98157E-01 2.98998E-01 5.39056E-02 8.81274E-04 1.36307E-03
 -1      1828 2.64123E-01-8.92807E-01 2.69786E-01 1.35830E-01 8.68414E-04 1.96416E-03
 -1      1829 2.62442E-01-8.73464E-01 2.61356E-01 7.77967E-02-4.85822E-04-2.17662E-04
 -1      1830 2.39758E-01-8.03194E-01 2.40864E-01 7.75818E-02-7.87945E-04 2.22653E-04
 -1      1831 2.36698E-01-7.91659E-01 2.38282E-01 1.25476E-01 2.21036E-04 6.59246E-04
 -1      1832 2.20845E-01-7.40768E-01 2.23523E-01 7.27969E-02-1.54786E-04-4.80020E-05
 -1      1833 2.00236E-01-6.73918E-01 2.03607E-01 7.05957E-02 1.91085E-05 5.47357E-04
 -1      1834 1.81828E-01-6.15485E-01 1.86077E-01 1.42174E-01 1.01831E-03 2.12994E-04
 -1      1835 2.04372E-01-6.80799E-01 2.04289E-01 4.27039E-02 9.45507E-04-4.02223E-04
 -1      1836 1.84939E-01-6.19487E-01 1.86227E-01 4.24112E-02 7.49755E-04 5.70111E-04
 -1      1837 1.69328E-01-5.70776E-01 1.71210E-01 1.06957E-01-1.49426E-04-1.45380E-03
 -1      1838 1.60171E-01-5.34110E-01 1.60141E-01 6.16396E-02-2.60754E-04 4.66222E-04
 -1      1839 1.42031E-01-4.80334E-01 1.44532E-01 5.94237E-02-2.81813E-04-5.47680E-04
 -1      1840 1.45520E-01-4.89875E-01 1.47038E-01 9.91862E-02-3.25696E-05 2.36978E-04
 -1      1841 1.27798E-01-4.30081E-01 1.29279E-01 5.66584E-02 7.91350E-05-6.68384E-05
 -1      1842 1.12472E-01-3.81002E-01 1.14944E-01 5.52581E-02 6.13803E-05-5.75868E-04
 -1      1843 1.05864E-01-3.62973E-01 1.10389E-01 1.09826E-01-2.68153E-04-5.13848E-04
 -1      1844 1.11352E-01-3.72346E-01 1.11703E-01 3.56312E-02 6.08909E-04-1.94656E-04
 -1      1845 9.71466E-02-3.26225E-01 9.78320E-02 3.50489E-02 8.34418E-04 5.04236E-05
 -1      1846 9.11441E-02-3.12375E-01 9.49928E-02 8.55319E-02-1.02248E-04 2.32080E-04
 -1      1847 8.13200E-02-2.76963E-01 8.36457E-02 4.58873E-02-2.42991E-04-5.00581E-04
 -1      1848 6.92777E-02-2.38003E-01 7.22082E-02 4.42637E-02-2.97096E-04 6.58129E-05
 -1      1849 7.45617E-02-2.55103E-01 7.76784E-02 7.60390E-02-2.24701E-04-4.24400E-04
 -1      1850 6.13882E-02-2.05906E-01 6.18085E-02 3.78112E-02-2.62393E-04-9.34065E-06
 -1      1851 5.03910E-02-1.72782E-01 5.24630E-02 3.64651E-02-2.91506E-04 5.85763E-06
 -1      1852 5.14335E-02-1.79189E-01 5.46626E-02 7.80603E-02 1.82403E-04-8.51681E-04
 -1      1853 4.83852E-02-1.61529E-01 4.84047E-02 1.97646E-02 2.68455E-04-2.95651E-04
 -1      1854 3.88506E-02-1.32057E-01 3.98148E-02 1.91538E-02 2.37083E-04 2.89399E-04
 -1      1855 4.12537E-02-1.43336E-01 4.33695E-02 5.29829E-02 1.96617E-05-8.20215E-04
 -1      1856 3.04201E-02-1.04265E-01 3.15554E-02 2.69753E-02-3.28467E-04-1.46838E-04
 -1      1857 2.29851E-02-8.15868E-02 2.50857E-02 2.54200E-02-1.55914E-04 1.67118E-04
 -1      1858 2.96282E-02-1.04431E-01 3.18197E-02 4.42511E-02-4.92214E-05 1.22097E-04
 -1      1859 1.79921E-02-6.25137E-02 1.88473E-02 2.03505E-02-3.35949E-04-6.06486E-05
 -1      1860 1.23530E-02-4.50060E-02 1.38719E-02 1.86542E-02-2.11956E-04 1.71476E-04
 -1      1861 1.51452E-02-6.06498E-02 1.96439E-02 4.35306E-02 1.56029E-04-2.07351E-04
 -1      1862 1.04987E-02-3.56164E-02 1.06173E-02 9.33756E-03-2.97314E-04-9.11823E-05
 -1      1863 6.38922E-03-2.32885E-02 7.05605E-03 8.70421E-03 8.01803E-05 1.61989E-04
 -1      1864 8.68278E-03-3.63584E-02 1.18262E-02 2.70198E-02-9.02574E-05 3.62626E-04
 -1      1865 3.58135E-03-1.49701E-02 4.77189E-03 8.91712E-03-1.09294E-04 1.05777E-05
 -1      1866 1.44126E-03-8.13246E-03 2.75203E-03 7.13524E-03-3.40052E-05 4.01427E-05
 -1      1867 3.88449E-03-1.91614E-02 6.57789E-03 1.71463E-02-1.23558E-04 1.20148E-04
 -1      1868 3.20950E-04-7.27585E-03 3.05326E-03 9.50591E-03-8.33922E-05 1.15592E-04
 -1      1869 6.25902E-01-5.27573E+00 2.01994E+00 3.05028E+00-1.97475E-01 7.91382E-02
 -1      1870 9.88638E-01-6.30177E+00 2.31456E+00 3.07277E+00-5.99005E-02 4.01402E-02
 -1      1871 1.13063E+00-5.85558E+00 1.95138E+00 2.36696E+00-2.86625E-01-1.50579E-01
 -1      1872 1.27628E+00-6.75052E+00 2.39317E+00 2.26655E+00-4.42000E-03-1.54917E-02
 -1      1873 1.84542E+00-7.92179E+00 2.62092E+00 2.10707E+00-4.34846E-02-3.11471E-02
 -1      1874 1.24173E+00-6.34945E+00 2.18013E+00 1.74033E+00-4.22479E-02 2.26825E-02
 -1      1875 2.08421E+00-8.82851E+00 2.92560E+00 1.92198E+00 1.61219E-02 5.60057E-02
 -1      1876 2.51897E+00-9.74301E+00 3.13027E+00 1.42864E+00-2.94976E-02 8.15821E-03
 -1      1877 1.37521E+00-6.24626E+00 2.09667E+00 5.50929E-01-1.46798E-01-2.09079E-02
 -1      1878 1.81178E+00-7.77007E+00 2.56154E+00 1.43551E+00 3.11588E-02 2.13786E-02
 -1      1879 1.51033E+00-6.60959E+00 2.19123E+00 3.66973E-01-1.77976E-03-4.14214E-02
 -1      1880 1.56502E+00-7.28899E+00 2.42909E+00 4.86085E-01-3.91942E-02 7.38548E-03
 -1      1881 2.31450E+00-9.27982E+00 2.99388E+00 1.06745E+00 1.04888E-02 3.45275E-02
 -1      1882 1.72060E+00-7.51200E+00 2.48067E+00 5.01724E-01 1.06344E-02-4.03148E-02
 -1      1883-4.00628E-04 1.55198E-03-4.96611E-04 5.99090E-05-1.49725E-04-1.23091E-05
 -1      1884-1.44182E-04 9.83660E-04-3.70794E-04 2.76801E-04-6.61961E-05 2.94889E-06
 -1      1885-1.94812E-04 2.93961E-04 2.93727E-05-4.84276E-04 3.87850E-05 4.11691E-05
 -1      1886-3.96244E-04 1.27359E-03-4.06951E-04-3.51335E-04-9.43585E-05 4.40035E-05
 -1      1887-6.18945E-05 7.34410E-04-2.91276E-04-4.32921E-04-5.09404E-05 9.52154E-05
 -1      1888 5.05542E-05 6.22920E-04-2.63907E-04-2.08081E-05-1.01073E-04 8.00119E-05
 -1      1889 1.12237E+00-6.29097E+00 2.14839E+00 1.62657E+00-5.14816E-01-1.07083E-01
 -1      1890 1.11604E+00-5.52826E+00 1.61921E+00 3.06479E-01-5.99804E-01-8.62041E-02
 -1      1891 1.32977E+00-6.23808E+00 1.92930E+00 9.87070E-01-6.49497E-01-2.38151E-02
 -1      1892 3.60619E-01-2.27218E+00 7.18254E-01-9.36542E-01-2.30843E-01-2.67996E-02
 -1      1893 6.48351E-01-3.68414E+00 1.10861E+00-5.45017E-01-4.22666E-01 8.71338E-03
 -1      1894 1.01440E+00-4.43493E+00 1.47832E+00-3.35779E-01-4.99747E-02-2.15858E-02
 -1      1895 1.01963E+00-4.90938E+00 1.46530E+00-1.76192E-01-4.22608E-01-4.38654E-02
 -1      1896-1.52388E-01 7.57772E-01-1.60228E-01-9.75245E-01 1.08282E-01-2.19701E-02
 -1      1897 6.66462E-02-8.79397E-01 2.53311E-01-1.02368E+00-1.45691E-01-4.70980E-02
 -1      1898 2.91592E-01-1.52677E+00 5.75575E-01-7.73062E-01-1.18117E-03-1.20472E-02
 -1      1899-7.17077E-01 3.66703E+00-1.03467E+00-4.63914E-01 4.36813E-01 4.86741E-02
 -1      1900-4.83574E-01 2.24896E+00-6.81213E-01-8.47773E-01 2.01125E-01-7.37491E-03
 -1      1901-3.78817E-01 1.58553E+00-5.49629E-01-7.02075E-01 6.90687E-03-3.04483E-02
 -1      1902-1.40494E+00 6.13437E+00-1.59664E+00 1.07233E+00 9.34434E-01-8.83002E-02
 -1      1903-1.09337E+00 5.49186E+00-1.54520E+00 5.96662E-01 7.27460E-01-4.31307E-02
 -1      1904-1.04757E+00 4.84137E+00-1.41047E+00-3.07531E-03 4.45820E-01-3.31102E-03
 -1      1905-1.08804E+00 4.52351E+00-1.47962E+00-1.17023E-01 5.48011E-02-2.05011E-02
 -1      1906-1.44217E+00 6.36995E+00-2.08152E+00 9.62084E-01 1.66392E-01-3.37467E-02
 -1      1907-1.01154E+00 6.14325E+00-1.50415E+00 2.43845E+00 1.41156E+00 4.97046E-01
 -1      1908-1.11838E+00 6.42408E+00-1.32758E+00 1.59683E+00 1.60025E+00 1.32226E-01
 -1      1909-1.22387E+00 6.21092E+00-2.10238E+00 1.79812E+00 5.28836E-01-3.13354E-03
 -1      1910-2.28948E-01 4.94846E+00-1.98966E+00 3.30609E+00 3.56882E-01 1.58128E-01
 -1      1911-5.32503E-01 5.46338E+00-1.76278E+00 2.99590E+00 8.49325E-01 2.68398E-01
 -1      1912-7.62688E-01 5.74769E+00-2.01422E+00 2.57294E+00 6.08009E-01 6.96844E-02
 -1      1913 1.75184E-04 4.14284E-04-8.61757E-05-4.48006E-04-2.73225E-04 1.60663E-04
 -1      1914 1.68422E-04-1.44427E-04 3.90767E-05-9.03455E-04 1.08348E-05 1.32350E-04
 -1      1915-2.35999E-03-2.19468E-04 1.03359E-03 9.02246E-04 1.63115E-04-3.14012E-05
 -1      1916-3.49661E-03 7.20966E-04 1.29420E-03 1.49009E-03 1.68370E-04-1.18248E-04
 -1      1917-1.93454E-04-4.89536E-04 1.99180E-04-5.58554E-04 2.73806E-05 2.90237E-05
 -1      1918-9.25502E-04-7.79400E-04 8.28242E-04 1.18286E-03 2.02418E-04-3.46045E-06
 -1      1919-7.69197E-04-7.64766E-04 6.89462E-04 3.98431E-04 4.85930E-05-3.40456E-05
 -1      1920-3.81520E-03-3.63608E-04 1.69328E-03 3.30631E-03-3.98248E-05 1.55526E-05
 -1      1921-6.93835E-03 2.65954E-03 1.81205E-03 1.83198E-03-5.32997E-05-2.13426E-04
 -1      1922-8.25605E-03 3.46547E-03 2.00741E-03 2.10641E-03-4.90275E-05-1.44546E-05
 -1      1923-9.03886E-03 3.13389E-03 2.51058E-03 4.10437E-03 9.01371E-05 7.58977E-05
 -1      1924-8.63619E-03 2.96688E-03 2.44500E-03-2.83624E-04 2.24172E-04 3.36044E-04
 -1      1925-6.38173E-03 8.00694E-04 2.41896E-03-8.16497E-04 3.07102E-04 5.14816E-04
 -1      1926-1.43331E-02 5.75424E-03 3.64046E-03 2.33397E-03-5.57681E-05 1.05800E-05
 -1      1927-1.29159E-04-1.48985E-03 3.36579E-04 1.48086E-03 3.07402E-04 6.17022E-06
 -1      1928 4.34583E-04 3.24784E-04 1.39099E-04 1.98755E-03-7.42431E-04-5.95277E-04
 -1      1929-2.65714E-03-2.20246E-03 2.29646E-03-2.10449E-03 4.54897E-04-1.45159E-04
 -1      1930-1.39094E-03-2.29048E-03 2.21726E-03-1.65574E-03 1.24083E-03-7.46865E-05
 -1      1931-1.32009E-02 2.91757E-03 4.41240E-03-4.70978E-03 2.43308E-04-2.37940E-04
 -1      1932 2.80339E-05 9.51070E-04-3.83816E-04 1.26648E-03-2.04421E-04-3.48901E-04
 -1      1933-7.03046E-05 1.01921E-03-4.85762E-04 3.84255E-04-3.57808E-04 2.10514E-05
 -1      1934 3.75781E-04 6.43995E-04-5.02932E-04 2.22352E-03-4.09723E-04-3.01337E-04
 -1      1935-1.32622E-03 4.50394E-03-1.31942E-03 1.27342E-03-7.38347E-04 1.84986E-04
 -1      1936-2.21375E-04 1.66993E-03-1.14233E-03 2.17862E-03-6.18033E-04-4.17006E-04
 -1      1937-4.64511E-02 1.45100E-02 1.40650E-02 8.91106E-03-3.44685E-04-3.37336E-05
 -1      1938-4.96957E-02 2.40484E-02 1.11460E-02 1.02994E-02 9.82628E-05 5.47474E-05
 -1      1939-4.67389E-02 2.01959E-02 1.09862E-02 8.95505E-03 4.64969E-04 7.59323E-04
 -1      1940-5.17243E-02 2.99561E-02 9.49762E-03 1.20098E-02-3.05241E-04-2.89900E-05
 -1      1941-5.62616E-02 4.48102E-02 5.02355E-03 1.29807E-02-1.78994E-04-6.13146E-05
 -1      1942-5.03008E-02 2.88159E-02 8.79643E-03 2.00839E-02 1.21890E-04 1.34818E-04
 -1      1943-6.15801E-02 6.41927E-02-9.36960E-04 1.78953E-02-2.62869E-05 1.12105E-04
 -1      1944-6.81605E-02 8.37615E-02-6.36309E-03 1.85351E-02 5.12837E-04-4.01848E-04
 -1      1945-5.72923E-02 5.10482E-02 2.63729E-03 2.21045E-02 4.51295E-04-2.92880E-04
 -1      1946-5.79117E-02 5.67629E-02 2.73666E-04 3.83398E-02-9.37358E-05-1.09585E-04
 -1      1947-5.26747E-02 4.12637E-02 5.20256E-03 3.15643E-02 1.70000E-05 2.14635E-04
 -1      1948-7.10283E-02 9.71152E-02-1.11000E-02 2.59360E-02-5.25295E-06 1.73429E-04
 -1      1949-7.85903E-02 1.21246E-01-1.81040E-02 2.74337E-02 1.66162E-04-2.30107E-04
 -1      1950-6.57558E-02 8.26193E-02-6.97531E-03 4.31336E-02-2.51383E-04-1.16745E-04
 -1      1951-8.72158E-02 1.47497E-01-2.54439E-02 2.12118E-02-6.37848E-04-7.25960E-05
 -1      1952-9.66770E-02 1.78423E-01-3.46799E-02 2.21156E-02-4.00716E-04-8.48134E-05
 -1      1953-7.68889E-02 1.19880E-01-1.86287E-02 4.56904E-02 4.53899E-05 2.19326E-05
 -1      1954-9.89483E-02 1.90051E-01-3.90114E-02 3.70186E-02-1.94759E-04-1.11818E-04
 -1      1955-1.09561E-01 2.24868E-01-4.90702E-02 3.83299E-02-1.71658E-04 3.56873E-05
 -1      1956-8.84279E-02 1.58786E-01-3.03416E-02 5.63262E-02-3.55366E-05 9.66894E-04
 -1      1957-1.18573E-01 2.56726E-01-5.88151E-02 4.38653E-02 1.33832E-04-4.02330E-04
 -1      1958-1.31235E-01 2.97020E-01-7.07777E-02 4.57629E-02 1.08154E-04 1.88809E-04
 -1      1959-9.83406E-02 1.95657E-01-4.22559E-02 7.73721E-02 2.35178E-04-2.69796E-04
 -1      1960-1.46364E-01 3.45947E-01-8.52375E-02 3.50701E-02-4.88177E-04-3.50337E-05
 -1      1961-1.61553E-01 3.93514E-01-9.94584E-02 3.53117E-02-5.01581E-05 2.07781E-04
 -1      1962-1.24363E-01 2.73932E-01-6.44481E-02 7.62798E-02-4.72365E-05-1.11152E-04
 -1      1963-1.63216E-01 4.01486E-01-1.01904E-01 5.61362E-02 1.04813E-04 2.13465E-04
 -1      1964-1.78437E-01 4.52286E-01-1.16921E-01 5.75488E-02-4.27389E-05-2.94944E-04
 -1      1965-1.40910E-01 3.32206E-01-8.14035E-02 8.70004E-02-1.56323E-04 1.64366E-04
 -1      1966-1.91805E-01 5.00897E-01-1.32292E-01 6.14760E-02 3.19004E-04 1.64905E-04
 -1      1967-2.10352E-01 5.56523E-01-1.48287E-01 6.33929E-02 4.07043E-04 6.42459E-04
 -1      1968-1.54736E-01 3.80340E-01-9.72858E-02 1.12107E-01 6.79773E-05 1.25834E-03
 -1      1969-2.35229E-01 6.41594E-01-1.73925E-01 4.59523E-02-1.04282E-03 8.50592E-04
 -1      1970-2.54299E-01 7.04622E-01-1.92715E-01 4.66176E-02-9.36573E-04-9.03912E-04
 -1      1971-1.93988E-01 5.05399E-01-1.33742E-01 1.04215E-01-9.18730E-05 3.76997E-04
 -1      1972-2.51156E-01 6.99785E-01-1.92038E-01 7.37296E-02-2.94012E-04-8.22320E-04
 -1      1973-2.71634E-01 7.65257E-01-2.11163E-01 7.50990E-02-2.79993E-04-1.99931E-04
 -1      1974-2.16616E-01 5.86229E-01-1.58494E-01 1.13587E-01-1.63477E-04-3.03281E-04
 -1      1975-2.90524E-01 8.31059E-01-2.31147E-01 7.87506E-02 6.28146E-04-5.70674E-04
 -1      1976-3.14455E-01 9.02160E-01-2.51683E-01 8.09211E-02 7.17628E-04 7.18841E-04
 -1      1977-2.30342E-01 6.34155E-01-1.73306E-01 1.45440E-01 7.42273E-05-9.61712E-04
 -1      1978-3.49266E-01 1.02342E+00-2.88775E-01 5.75512E-02-6.80521E-04 8.46966E-04
 -1      1979-3.74383E-01 1.10295E+00-3.12448E-01 5.77399E-02-6.05818E-04 1.47185E-05
 -1      1980-2.85207E-01 8.10469E-01-2.25297E-01 1.31633E-01-3.59126E-04 1.57549E-04
 -1      1981-3.66258E-01 1.07867E+00-3.05385E-01 9.22183E-02-7.26977E-04 5.72758E-04
 -1      1982-3.90471E-01 1.16114E+00-3.29849E-01 9.34749E-02-8.90726E-04-4.84240E-04
 -1      1983-3.13476E-01 9.09246E-01-2.54269E-01 1.42298E-01 2.32258E-04 3.74291E-04
 -1      1984-4.13102E-01 1.24277E+00-3.54869E-01 9.63880E-02 5.85324E-04-1.00539E-03
 -1      1985-4.41700E-01 1.32968E+00-3.80170E-01 9.87563E-02 5.28721E-04 2.52763E-04
 -1      1986-3.25653E-01 9.51836E-01-2.69017E-01 1.79779E-01 8.02767E-04-7.52005E-04
 -1      1987-4.91627E-01 1.49606E+00-4.29671E-01 6.97001E-02-1.42410E-03 4.41284E-04
 -1      1988-5.21584E-01 1.59246E+00-4.58309E-01 7.02133E-02-8.43519E-04-4.71299E-04
 -1      1989-3.96935E-01 1.18513E+00-3.39155E-01 1.58326E-01 7.89821E-04 1.56424E-03
 -1      1990-5.04792E-01 1.54288E+00-4.44685E-01 1.09589E-01 2.32059E-04 3.79088E-05
 -1      1991-5.36198E-01 1.64005E+00-4.72450E-01 1.11019E-01 9.44367E-04 1.95427E-04
 -1      1992-4.30315E-01 1.30329E+00-3.74726E-01 1.70879E-01 2.13406E-05 2.57501E-03
 -1      1993-5.64178E-01 1.74608E+00-5.06001E-01 1.12338E-01-1.91338E-05-1.06101E-04
 -1      1994-5.98636E-01 1.84843E+00-5.35500E-01 1.14825E-01 6.89048E-04 8.72666E-04
 -1      1995-4.41717E-01 1.34158E+00-3.86902E-01 2.11805E-01-1.44657E-04 3.21154E-03
 -1      1996-6.67015E-01 2.08321E+00-6.06943E-01 7.46397E-02-1.62955E-03 1.21936E-03
 -1      1997-7.02561E-01 2.19615E+00-6.40658E-01 7.47649E-02-1.42131E-03 9.79329E-05
 -1      1998-5.41605E-01 1.66534E+00-4.82189E-01 1.79605E-01 2.13423E-04 8.12880E-04
 -1      1999-6.72015E-01 2.09687E+00-6.10802E-01 1.26655E-01-9.49390E-04 7.83571E-04
 -1      2000-7.05749E-01 2.21093E+00-6.44606E-01 1.27484E-01-1.13702E-03-7.91611E-04
 -1      2001-5.82146E-01 1.80460E+00-5.22501E-01 1.90897E-01 1.83184E-04 5.52780E-04
 -1      2002-7.37415E-01 2.32576E+00-6.80075E-01 1.29178E-01 1.27620E-03-1.15897E-03
 -1      2003-7.77382E-01 2.44403E+00-7.14221E-01 1.31863E-01 9.89430E-04 4.58412E-04
 -1      2004-5.80181E-01 1.80013E+00-5.23509E-01 2.43954E-01 1.01841E-03-9.45198E-04
 -1      2005-8.66041E-01 2.74390E+00-8.04251E-01 8.66092E-02-1.02209E-03 2.00417E-03
 -1      2006-9.06039E-01 2.87307E+00-8.42770E-01 8.63005E-02-7.88639E-04-1.30446E-03
 -1      2007-6.99632E-01 2.19160E+00-6.39054E-01 2.07828E-01 2.74746E-04-1.71539E-04
 -1      2008-8.93438E-01 2.83667E+00-8.32594E-01 1.20110E-01-3.56179E-04 5.14993E-04
 -1      2009-9.35721E-01 2.96956E+00-8.70712E-01 1.20526E-01-1.69349E-05 6.72198E-05
 -1      2010-7.75377E-01 2.45767E+00-7.20420E-01 1.98459E-01 1.14884E-04 3.34937E-03
 -1      2011-9.36895E-01 2.98914E+00-8.79453E-01 1.47947E-01 1.22622E-03 2.54632E-04
 -1      2012-9.82219E-01 3.12438E+00-9.17818E-01 1.50060E-01 9.54683E-04 4.63823E-04
 -1      2013-7.66697E-01 2.42871E+00-7.12184E-01 2.56133E-01 1.22650E-03 3.85550E-03
 -1      2014-1.08818E+00 3.48914E+00-1.02901E+00 9.83216E-02-1.36704E-03 1.34153E-03
 -1      2015-1.13334E+00 3.63591E+00-1.07259E+00 9.85694E-02-1.49670E-03-2.41513E-03
 -1      2016-8.82584E-01 2.78897E+00-8.18321E-01 2.36789E-01-1.37080E-04-3.34841E-03
 -1      2017-1.11290E+00 3.57627E+00-1.05586E+00 1.36891E-01-7.45474E-04-9.36922E-04
 -1      2018-1.15939E+00 3.72380E+00-1.09891E+00 1.37188E-01-1.10697E-03-1.40661E-03
 -1      2019-9.68408E-01 3.09787E+00-9.12108E-01 2.24958E-01-6.79290E-04 1.68927E-04
 -1      2020-1.16001E+00 3.73800E+00-1.10438E+00 1.64857E-01 2.13521E-03-1.51750E-03
 -1      2021-1.21083E+00 3.88649E+00-1.14738E+00 1.67003E-01 8.93391E-04 2.02177E-03
 -1      2022-9.49621E-01 3.03594E+00-8.95133E-01 2.88978E-01 7.57989E-04-1.92573E-03
 -1      2023-1.34192E+00 4.32879E+00-1.27995E+00 1.10312E-01-2.18937E-03 2.74714E-03
 -1      2024-1.39096E+00 4.49153E+00-1.32882E+00 1.09927E-01-2.01464E-03-1.76760E-03
 -1      2025-1.08086E+00 3.46112E+00-1.02176E+00 2.62522E-01-2.81514E-04 1.38225E-03
 -1      2026-1.36343E+00 4.40387E+00-1.30234E+00 1.50592E-01 1.79008E-04-8.34877E-04
 -1      2027-1.41536E+00 4.56944E+00-1.35082E+00 1.50632E-01 1.42821E-04-3.73561E-04
 -1      2028-1.18498E+00 3.81583E+00-1.12764E+00 2.49831E-01-1.03976E-03 8.68809E-04
 -1      2029-1.40899E+00 4.56784E+00-1.35369E+00 1.81413E-01 1.91016E-03-6.19685E-04
 -1      2030-1.46516E+00 4.73420E+00-1.40113E+00 1.83155E-01 1.38703E-03 1.34295E-03
 -1      2031-1.15696E+00 3.71581E+00-1.09607E+00 3.16531E-01-5.44862E-04 3.04601E-03
 -1      2032-1.62045E+00 5.25473E+00-1.55718E+00 1.23062E-01-1.71320E-03 3.09210E-03
 -1      2033-1.67520E+00 5.43359E+00-1.61042E+00 1.22174E-01-2.14726E-03-1.31098E-03
 -1      2034-1.30660E+00 4.20287E+00-1.24157E+00 2.92314E-01 6.47967E-04 8.09871E-04
 -1      2035-1.63677E+00 5.31860E+00-1.57847E+00 1.67225E-01-1.09218E-03 4.89493E-04
 -1      2036-1.69274E+00 5.49869E+00-1.63080E+00 1.66139E-01-1.37152E-03-1.27053E-03
 -1      2037-1.42071E+00 4.60942E+00-1.36626E+00 2.76732E-01 1.15671E-04 4.29569E-03
 -1      2038-1.68245E+00 5.47968E+00-1.62684E+00 1.99924E-01 2.74114E-03-1.87594E-03
 -1      2039-1.74379E+00 5.65998E+00-1.67889E+00 2.00742E-01 1.92624E-03 1.54559E-03
 -1      2040-1.37654E+00 4.45996E+00-1.32174E+00 3.49350E-01 1.39546E-03-1.58711E-03
 -1      2041-1.91570E+00 6.24986E+00-1.85727E+00 1.38543E-01-2.76225E-03 2.06763E-03
 -1      2042-1.97511E+00 6.44542E+00-1.91537E+00 1.39235E-01-3.25624E-03-3.56658E-03
 -1      2043-1.53876E+00 4.98894E+00-1.47831E+00 3.23459E-01-2.51800E-04-1.07617E-03
 -1      2044-1.95178E+00 6.36305E+00-1.89024E+00 1.74130E-01-3.36633E-04-3.11071E-04
 -1      2045-2.01330E+00 6.55781E+00-1.94752E+00 1.74204E-01-4.39980E-04-4.53499E-04
 -1      2046-1.68794E+00 5.49622E+00-1.63246E+00 2.98950E-01-1.82935E-03-2.23602E-03
 -1      2047-2.03554E+00 6.65328E+00-1.98079E+00 1.83035E-01 1.65454E-03 1.84237E-03
 -1      2048-2.10078E+00 6.85224E+00-2.03760E+00 1.86401E-01-1.62227E-03-1.61894E-03
 -1      2049-1.69013E+00 5.50641E+00-1.63512E+00 3.40654E-01-2.73619E-03 3.62937E-03
 -1      2050-2.08412E+00 6.81016E+00-2.02517E+00 2.31133E-01-2.91887E-04 1.58510E-03
 -1      2051-2.14848E+00 7.00929E+00-2.08190E+00 2.30467E-01 2.28366E-03-3.78786E-04
 -1      2052-1.86691E+00 6.08665E+00-1.80747E+00 3.00846E-01 5.58369E-03 6.51885E-04
 -1      2053-1.45796E+00 4.72158E+00-1.39980E+00 4.96338E-01 2.22355E-03 1.50620E-03
 -1      2054-1.48418E+00 4.82790E+00-1.43215E+00 4.47047E-01 2.48169E-04-1.49101E-03
 -1      2055-2.23164E+00 7.29765E+00-2.17185E+00 2.14370E-01-1.15124E-03 1.02774E-03
 -1      2056-2.29696E+00 7.50846E+00-2.23298E+00 2.16075E-01-9.45708E-04-8.29633E-04
 -1      2057-1.75626E+00 5.71576E+00-1.69468E+00 4.22847E-01 8.89166E-04 1.16652E-03
 -1      2058-2.25391E+00 7.37276E+00-2.19404E+00 2.59135E-01 2.20050E-03 2.38464E-04
 -1      2059-2.31708E+00 7.58243E+00-2.25629E+00 2.59814E-01 1.97551E-03-8.91709E-04
 -1      2060-1.80102E+00 5.85845E+00-1.73635E+00 4.48069E-01 5.30289E-04-5.37290E-03
 -1      2061-2.42333E+00 7.94265E+00-2.36597E+00 2.35720E-01-8.19094E-06 6.09251E-04
 -1      2062-2.49099E+00 8.16366E+00-2.43011E+00 2.36293E-01-5.59207E-04-9.45110E-04
 -1      2063-1.85236E+00 6.04766E+00-1.80028E+00 4.68993E-01 1.53882E-03 3.69913E-03
 -1      2064-2.53944E+00 8.33656E+00-2.48513E+00 2.38875E-01 1.22399E-03 3.98124E-04
 -1      2065-2.61355E+00 8.56696E+00-2.55189E+00 2.46451E-01-8.27922E-04-2.06901E-03
 -1      2066-2.00960E+00 6.56660E+00-1.95599E+00 4.54190E-01 1.64587E-03-1.99182E-03
 -1      2067-2.73950E+00 9.04388E+00-2.69610E+00 2.76251E-01 2.09566E-03 1.66105E-03
 -1      2068-2.83477E+00 9.32639E+00-2.77105E+00 2.85147E-01 1.64129E-02-7.52323E-04
 -1      2069-1.79622E+00 5.91276E+00-1.76295E+00 5.74045E-01 4.67582E-04-3.77347E-04
 -1      2070-2.35570E+00 7.75384E+00-2.31355E+00 3.72362E-01 7.77062E-03-1.85613E-03
 -1      2071-1.89607E+00 6.28744E+00-1.88924E+00 6.09316E-01-4.29885E-03 1.37726E-03
 -1      2072-2.19010E+00 7.55467E+00-2.30386E+00 6.63037E-01-1.17208E-02 7.20310E-03
 -1      2073-2.44691E+00 9.71510E+00-3.13399E+00 1.29152E+00 8.87928E-03-3.20970E-03
 -1      2074-2.21509E+00 9.27006E+00-3.06538E+00 1.84875E+00 2.08505E-04 1.02042E-02
 -1      2075-1.77703E+00 8.11103E+00-2.69644E+00 8.89744E-01 1.48900E-02 1.34109E-03
 -1      2076-2.21665E+00 9.39055E+00-3.10008E+00 2.19640E+00 5.28186E-02-3.09919E-03
 -1      2077-1.76766E+00 8.36958E+00-2.84532E+00 2.47925E+00 4.01927E-02 5.95515E-03
 -1      2078-1.57306E+00 7.49341E+00-2.50857E+00 9.67312E-01-3.84484E-02-4.07980E-02
 -1      2079-1.53263E+00 7.44556E+00-2.54428E+00 2.64604E+00 6.26856E-02-2.04300E-02
 -1      2080-9.77761E-01 6.32275E+00-2.30113E+00 2.70341E+00 1.13620E-01 9.12277E-03
 -1      2081-1.59859E+00 7.43423E+00-2.50580E+00 1.90335E+00-2.54061E-02 6.89911E-04
 -1      2082-1.51833E+00 6.59115E+00-2.17332E+00 6.84673E-01 1.32381E-03-5.41420E-02
 -1      2083-6.26021E-01 5.91464E+00-2.24412E+00 3.50120E+00 2.61604E-01 6.99752E-02
 -1      2084-1.01459E+00 6.22429E+00-2.20299E+00 2.32240E+00 3.16758E-01 1.75835E-02
 -1      2085 4.90730E-02 1.19543E-01-8.04096E-02-1.44720E-02-8.46033E-04-1.18546E-02
 -1      2086-2.51542E-01 1.61567E+00-5.95606E-01-4.98958E-02 1.41092E-03-1.54769E-02
 -1      2087-2.48991E-01 1.57114E+00-5.77867E-01 2.22233E-01 1.85311E-03-1.24745E-02
 -1      2088 3.17436E-01-1.19584E+00 3.80231E-01 1.56604E-01 2.71552E-03-4.62600E-03
 -1      2089 2.64571E-01-1.12085E+00 3.61095E-01-1.24422E-01-2.36520E-03-1.02351E-03
 -1      2090 1.20947E-01-1.15626E-01-7.11660E-04 4.84145E-01-1.85025E-03-6.58591E-03
 -1      2091 5.07609E-01-1.72382E+00 5.25485E-01 5.56219E-01-7.14306E-04-1.00968E-03
 -1      2092 4.31109E-01-1.52097E+00 4.66421E-01 3.74441E-01-4.25624E-05-4.46260E-03
 -1      2093-2.14252E-01 1.34621E+00-4.79171E-01 4.44418E-01 4.31773E-04-7.24268E-03
 -1      2094-1.96807E-01 1.14250E+00-4.09925E-01 6.22691E-01-2.21312E-03-3.91194E-03
 -1      2095-5.44348E-01 2.88140E+00-9.99806E-01 4.02015E-01-2.79399E-03-5.17186E-03
 -1      2096 6.83936E-01-2.80211E+00 9.00255E-01 2.58666E-01 3.06530E-03-1.07432E-02
 -1      2097-1.25179E-01 5.16833E-01-1.71135E-01 7.98378E-01 1.00411E-03 2.55840E-03
 -1      2098-9.00502E-01 3.10925E+00-9.51885E-01 7.43014E-01-4.38046E-03 4.67404E-03
 -1      2099-7.24442E-01 2.46089E+00-7.48108E-01 7.52306E-01 4.64121E-03-5.57482E-04
 -1      2100-1.15878E+00 3.84198E+00-1.15702E+00 7.10348E-01-4.44815E-03-2.46379E-03
 -1      2101-3.80753E-01 1.30206E+00-3.94247E-01 7.89343E-01 6.52533E-03-6.32864E-03
 -1      2102-1.12762E-02 3.52621E-02-1.20571E-02 7.97481E-01 1.60638E-03-2.25938E-03
 -1      2103 3.89857E-01-1.30930E+00 3.88937E-01 7.66915E-01-1.78987E-03 4.62921E-03
 -1      2104 4.40991E-01-1.44821E+00 4.31018E-01 7.63295E-01-7.33770E-04 1.08473E-03
 -1      2105-4.41920E-01 1.41904E+00-4.19787E-01 7.69197E-01 2.53920E-03 1.98027E-03
 -1      2106 4.35652E-01-1.39629E+00 4.13216E-01 7.62273E-01-1.03211E-03 3.54449E-04
 -1      2107 2.63197E-01-7.71517E-01 2.19941E-01 7.66932E-01-4.06920E-03-2.48954E-03
 -1      2108 8.24155E-01-2.74465E+00 8.21339E-01 7.32417E-01-1.72131E-03 3.05157E-03
 -1      2109-3.29741E-02 1.73391E-02 6.51607E-03 3.99695E-02 1.75963E-04-1.06547E-04
 -1      2110-3.39652E-02 1.86257E-02 6.47929E-03 3.07627E-02 2.13665E-04 1.03996E-05
 -1      2111-2.39398E-02 9.45625E-03 6.37465E-03 3.66790E-02 1.53570E-04 2.55728E-04
 -1      2112-3.03377E-02 1.70267E-02 5.54285E-03 4.90203E-02 1.31540E-04 8.90028E-05
 -1      2113-4.07134E-02 2.75014E-02 5.76079E-03 4.31351E-02-1.91536E-04-2.18867E-04
 -1      2114-1.69684E-02 1.49844E-03 6.70708E-03 3.72726E-02 5.31288E-05 2.40210E-04
 -1      2115-6.96461E-03-9.70864E-03 7.36723E-03 3.20853E-02 6.16882E-05 1.14767E-04
 -1      2116-1.18964E-02-5.80132E-03 7.81489E-03 4.11607E-02 3.81866E-04 1.49819E-04
 -1      2117-4.79703E-03-1.70799E-02 8.96387E-03 4.36995E-02 1.52283E-05 9.06387E-05
 -1      2118-1.58632E-02-4.11290E-03 8.42732E-03 4.89089E-02 1.06501E-04 6.53161E-06
 -1      2119-1.81043E-02 3.80855E-03 6.03901E-03 2.83763E-02 4.98153E-06 4.76141E-05
 -1      2120-1.61357E-02-4.01395E-03 8.76243E-03 5.93200E-02 2.50003E-04 1.73019E-04
 -1      2121-2.33641E-02 6.57673E-03 7.20598E-03 5.56439E-02 7.73467E-05 1.65335E-04
 -1      2122-3.13215E-02 1.73589E-02 5.78027E-03 5.90571E-02-1.15197E-04 9.21842E-05
 -1      2123-1.20784E-02-1.72632E-02 1.22518E-02 9.36750E-02 9.32900E-05 3.04240E-04
 -1      2124 9.28498E-03-6.18349E-02 2.27652E-02 7.88684E-02-3.69570E-05 1.86413E-04
 -1      2125-6.84165E-04-4.07363E-02 1.74728E-02 9.31501E-02 3.59571E-05-4.18028E-05
 -1      2126-9.21801E-03-2.53383E-02 1.49430E-02 1.05299E-01-4.67143E-04 7.72387E-04
 -1      2127 1.47804E-02-7.94067E-02 2.75590E-02 9.18840E-02 3.01454E-05-2.29620E-04
 -1      2128-5.63485E-02 7.26176E-02-7.01000E-03 8.23672E-02-2.01363E-04-1.88875E-04
 -1      2129-3.60607E-02 3.24805E-02 1.68136E-03 9.31183E-02-7.92434E-05 1.47459E-05
 -1      2130-4.55526E-02 5.09658E-02-2.39832E-03 9.47235E-02-2.99545E-04 7.97993E-04
 -1      2131-5.98508E-02 8.77065E-02-1.19898E-02 9.44009E-02-4.73690E-04 6.15363E-04
 -1      2132-3.84960E-02 4.07034E-02-1.03336E-03 1.04439E-01 2.60603E-04 7.50679E-04
 -1      2133-3.64764E-02 3.20685E-02 2.35109E-03 8.24232E-02-5.28297E-04-8.75871E-05
 -1      2134-2.49243E-02 8.73268E-03 6.99078E-03 9.38482E-02-2.63740E-04-1.84210E-04
 -1      2135-1.27447E-02-1.50285E-02 1.17365E-02 8.28145E-02 3.38002E-04 8.40656E-04
 -1      2136-8.35713E-03-2.75629E-02 1.59243E-02 1.13077E-01 2.89970E-05 2.86127E-04
 -1      2137-2.44270E-02 6.77349E-03 7.00668E-03 1.12855E-01-3.21508E-04 9.35086E-04
 -1      2138-3.85243E-02 4.03252E-02-1.44105E-03 1.14698E-01-8.16614E-04 3.88810E-04
 -1      2139-6.01956E-02 1.04618E-01-1.90694E-02 1.47807E-01 1.21516E-03-3.86024E-05
 -1      2140-7.85904E-02 1.54076E-01-3.21573E-02 1.30484E-01 2.55720E-04 5.86870E-04
 -1      2141-4.58587E-02 6.13957E-02-6.25731E-03 1.46328E-01 7.13028E-04-4.82918E-04
 -1      2142-4.89351E-02 7.55624E-02-1.16792E-02 1.59404E-01-1.76328E-04-3.51931E-04
 -1      2143-8.64646E-02 1.73543E-01-3.71142E-02 1.42877E-01 1.28285E-04-6.53705E-04
 -1      2144 1.12867E-02-8.53714E-02 3.22649E-02 1.46347E-01-6.69523E-04-8.31793E-04
 -1      2145-3.73093E-03-4.71888E-02 2.15128E-02 1.48446E-01-9.62336E-04-8.08212E-04
 -1      2146 3.12436E-02-1.36130E-01 4.51668E-02 1.31400E-01 5.22311E-04-7.81986E-04
 -1      2147 1.07740E-03-6.01906E-02 2.55467E-02 1.59026E-01 3.06953E-04-5.05018E-04
 -1      2148 3.68904E-02-1.58332E-01 5.17841E-02 1.43185E-01 5.25789E-04-9.74417E-04
 -1      2149-4.52039E-02 6.27203E-02-7.14289E-03 1.37988E-01-4.34035E-04-1.54917E-04
 -1      2150-2.43768E-02 1.00251E-02 6.31587E-03 1.49885E-01-2.13679E-04-4.72776E-04
 -1      2151-4.02519E-03-4.28614E-02 1.94712E-02 1.38308E-01-3.37080E-04 4.73868E-05
 -1      2152 1.54970E-03-6.17779E-02 2.62501E-02 1.66612E-01-5.69624E-04-4.16578E-04
 -1      2153-2.39452E-02 6.56457E-03 7.23500E-03 1.70354E-01-2.85043E-04-1.63219E-03
 -1      2154-4.88584E-02 7.43349E-02-1.12166E-02 1.68262E-01-1.10234E-03-7.01721E-05
 -1      2155-1.18135E-01 2.79444E-01-6.94804E-02 1.78629E-01-3.47241E-04 1.17536E-03
 -1      2156-5.85385E-02 1.02917E-01-1.84456E-02 2.00673E-01-3.01575E-04 4.58919E-04
 -1      2157-8.48276E-02 1.84892E-01-4.29311E-02 1.98780E-01 5.02202E-04 1.09976E-04
 -1      2158-1.26157E-01 3.11105E-01-7.88608E-02 1.90567E-01-2.29884E-04-1.16745E-03
 -1      2159-6.24962E-02 1.24231E-01-2.64846E-02 2.12920E-01-9.23542E-05-6.11978E-04
 -1      2160 1.19510E-02-9.93756E-02 3.77674E-02 2.00724E-01-3.60240E-04-1.52531E-03
 -1      2161 7.36859E-02-2.76397E-01 8.76962E-02 1.74030E-01 9.69197E-04-3.23171E-04
 -1      2162 4.08310E-02-1.84020E-01 6.17361E-02 1.93943E-01 1.76632E-03-7.67777E-04
 -1      2163 8.28903E-02-3.08890E-01 9.58741E-02 1.85073E-01 1.31476E-03 1.81026E-04
 -1      2164 1.82139E-02-1.17906E-01 4.32203E-02 2.10063E-01 3.45501E-04-4.80534E-04
 -1      2165-5.67375E-02 1.03684E-01-1.94696E-02 1.91237E-01-1.03127E-03-4.31220E-04
 -1      2166-2.10780E-02 2.70868E-03 8.16258E-03 2.05989E-01-2.16493E-04-7.65313E-04
 -1      2167 1.18540E-02-9.54769E-02 3.51560E-02 1.90173E-01-7.97853E-05-3.99439E-05
 -1      2168 1.98552E-02-1.20727E-01 4.31554E-02 2.21621E-01 1.31562E-03-3.26000E-04
 -1      2169-2.24012E-02 4.04918E-03 7.62426E-03 2.27405E-01-4.53490E-04-6.31576E-05
 -1      2170-6.31939E-02 1.24490E-01-2.74320E-02 2.23198E-01-7.18857E-04-3.37809E-04
 -1      2171-1.66260E-01 4.39608E-01-1.18245E-01 2.25200E-01-1.97139E-07-4.24831E-04
 -1      2172-7.47077E-02 1.64209E-01-3.92502E-02 2.57122E-01 2.67565E-03-1.09564E-03
 -1      2173-1.14495E-01 2.84839E-01-7.33320E-02 2.47627E-01 1.38775E-03-2.35121E-05
 -1      2174-1.76479E-01 4.77179E-01-1.27365E-01 2.38029E-01-5.04964E-04 1.07018E-03
 -1      2175-8.27453E-02 1.82037E-01-4.25953E-02 2.69969E-01 2.14649E-03 1.68324E-03
 -1      2176 3.11214E-02-1.64962E-01 5.73512E-02 2.55142E-01-2.32560E-03-4.67604E-04
 -1      2177 1.26043E-01-4.44480E-01 1.36818E-01 2.19744E-01 1.21045E-04-2.02062E-04
 -1      2178 7.32859E-02-2.89454E-01 9.19950E-02 2.43941E-01-1.81487E-03 8.15687E-05
 -1      2179 1.35913E-01-4.85308E-01 1.48108E-01 2.31217E-01 1.31366E-04 1.19652E-03
 -1      2180 3.97160E-02-1.84259E-01 6.13548E-02 2.68293E-01-3.18733E-03 1.69802E-03
 -1      2181-7.41177E-02 1.59741E-01-3.65886E-02 2.43998E-01 1.75300E-03 8.96257E-04
 -1      2182-2.16822E-02-1.86047E-04 8.93461E-03 2.61206E-01 3.05195E-04 1.35262E-03
 -1      2183 3.25712E-02-1.61800E-01 5.51342E-02 2.43722E-01-4.18471E-04 8.89631E-04
 -1      2184 4.15195E-02-1.89925E-01 6.46300E-02 2.73250E-01-1.24590E-03 5.58205E-04
 -1      2185-2.21103E-02-9.57481E-04 9.60153E-03 2.81393E-01-4.80503E-04 6.55857E-04
 -1      2186-8.16628E-02 1.85560E-01-4.50852E-02 2.77973E-01 7.65952E-04 2.05196E-04
 -1      2187-2.25522E-01 6.38148E-01-1.77576E-01 2.74051E-01-7.37226E-04-1.35715E-03
 -1      2188-9.68218E-02 2.33166E-01-5.87649E-02 3.08882E-01 1.19428E-03-1.29547E-03
 -1      2189-1.51690E-01 4.08520E-01-1.09913E-01 2.98993E-01 1.05937E-03-6.54026E-04
 -1      2190-2.36255E-01 6.84321E-01-1.91250E-01 2.87522E-01-9.46042E-04 7.15456E-04
 -1      2191-1.05106E-01 2.57469E-01-6.56373E-02 3.24205E-01 2.17675E-03 7.02736E-04
 -1      2192 5.79131E-02-2.41787E-01 7.88132E-02 3.06501E-01 7.13494E-04 1.45886E-03
 -1      2193 1.86053E-01-6.53388E-01 2.01768E-01 2.67669E-01 9.23561E-04-3.90239E-04
 -1      2194 1.13563E-01-4.26121E-01 1.33245E-01 2.98829E-01 3.60753E-03 2.82182E-04
 -1      2195 2.02050E-01-7.01645E-01 2.12441E-01 2.80234E-01 1.32533E-03 1.40343E-03
 -1      2196 6.48078E-02-2.71095E-01 8.76996E-02 3.20788E-01 1.18497E-03-9.04178E-04
 -1      2197-9.45127E-02 2.31630E-01-5.84546E-02 2.97551E-01-1.54952E-03-3.83797E-04
 -1      2198-2.03396E-02-4.33783E-03 9.20715E-03 3.20376E-01 9.80266E-04-1.41453E-03
 -1      2199 5.52674E-02-2.39999E-01 7.67770E-02 2.98839E-01 1.39563E-03-5.43727E-04
 -1      2200 6.58958E-02-2.75212E-01 8.99176E-02 3.27737E-01 1.81238E-03-9.79036E-04
 -1      2201-2.39965E-02-4.32797E-03 1.15431E-02 3.37714E-01 1.49933E-03-2.14758E-03
 -1      2202-1.02803E-01 2.63291E-01-6.98441E-02 3.32227E-01 1.86418E-03-1.53990E-03
 -1      2203 1.00900E-01-3.93492E-01 1.25858E-01 3.60075E-01 6.57175E-04 1.02182E-03
 -1      2204 2.63813E-01-9.17185E-01 2.82234E-01 3.10985E-01 1.65961E-03-1.50880E-03
 -1      2205 1.77163E-01-6.26151E-01 1.94159E-01 3.43384E-01 2.61437E-03 1.55794E-03
 -1      2206 2.81516E-01-9.74907E-01 2.96325E-01 3.26824E-01 2.47313E-03 1.45241E-03
 -1      2207 1.14092E-01-4.29154E-01 1.34779E-01 3.72259E-01-8.32962E-04 2.49524E-03
 -1      2208-1.09586E-01 2.76266E-01-7.26277E-02 3.65083E-01-2.19266E-03 1.42370E-03
 -1      2209-1.21520E-01 3.22234E-01-8.54103E-02 3.54057E-01-2.56201E-04 1.54867E-03
 -1      2210-3.80681E-03-5.34518E-02 2.53095E-02 3.75997E-01-2.63982E-04 2.30670E-03
 -1      2211 8.61175E-02-3.49947E-01 1.12974E-01 3.47845E-01 2.80477E-04-3.36209E-04
 -1      2212 1.02894E-01-4.00218E-01 1.29311E-01 3.82490E-01-7.62924E-04-2.47586E-04
 -1      2213-6.25908E-04-6.63168E-02 2.82846E-02 3.93144E-01 7.84827E-05 1.65306E-03
 -1      2214-1.30038E-01 3.45483E-01-9.33964E-02 3.85791E-01 6.85633E-04 9.35717E-05
 -1      2215-1.19534E-01 3.10203E-01-7.88958E-02 3.76827E-01 1.35326E-03 2.49251E-03
 -1      2216-2.38770E-01 6.92683E-01-1.93243E-01 3.57570E-01-7.56283E-04 2.96197E-03
 -1      2217 1.50791E-01-5.47451E-01 1.68109E-01 4.08265E-01-9.73498E-05 5.85532E-05
 -1      2218 3.44785E-01-1.17532E+00 3.56575E-01 3.63769E-01 1.39694E-04 2.39861E-03
 -1      2219 2.36160E-01-8.38454E-01 2.55875E-01 3.94607E-01-1.09658E-03 1.68185E-03
 -1      2220 3.62653E-01-1.24124E+00 3.75136E-01 3.72199E-01 6.81558E-04 1.36451E-03
 -1      2221 1.63011E-01-5.91956E-01 1.83632E-01 4.25992E-01-1.97230E-03 1.94450E-03
 -1      2222-1.19808E-01 3.11962E-01-8.38043E-02 4.20494E-01 2.19733E-03-7.70115E-04
 -1      2223-1.43473E-01 3.99558E-01-1.07962E-01 4.07583E-01 8.98547E-04 5.52986E-04
 -1      2224 8.47720E-03-1.03353E-01 4.03830E-02 4.28099E-01 2.32701E-03-1.48172E-03
 -1      2225 1.21212E-01-4.59664E-01 1.43006E-01 4.04981E-01 2.65015E-03 3.86470E-04
 -1      2226 1.42689E-01-5.28138E-01 1.66667E-01 4.34536E-01-7.22237E-04-3.29652E-04
 -1      2227 1.79235E-02-1.31099E-01 4.72130E-02 4.46585E-01 8.28921E-04 1.78263E-03
 -1      2228-1.19801E-01 3.03464E-01-7.93011E-02 4.39657E-01-1.00574E-03 1.62177E-03
 -1      2229-9.22741E-02 2.34289E-01-5.94069E-02 4.30336E-01 2.45078E-03 1.63436E-03
 -1      2230-2.51613E-01 7.43970E-01-2.11090E-01 4.15574E-01-3.28339E-04 9.73768E-04
 -1      2231 1.94726E-01-7.07888E-01 2.19570E-01 4.67102E-01-3.03161E-03-1.98980E-03
 -1      2232 4.44697E-01-1.50186E+00 4.53878E-01 4.08861E-01 1.23854E-03-2.22166E-03
 -1      2233 3.06447E-01-1.06307E+00 3.24197E-01 4.42544E-01-2.45269E-03 7.40038E-05
 -1      2234 4.63379E-01-1.57528E+00 4.74395E-01 4.18583E-01 7.15327E-04 1.68165E-03
 -1      2235 2.13693E-01-7.53917E-01 2.31149E-01 4.78669E-01-3.00988E-03 2.76242E-03
 -1      2236-1.41901E-01 3.89955E-01-1.07623E-01 4.77720E-01 3.34630E-03-1.03375E-03
 -1      2237-1.71957E-01 4.95771E-01-1.36985E-01 4.62089E-01 7.13692E-04 1.99820E-03
 -1      2238 2.10957E-02-1.44111E-01 5.32493E-02 4.82734E-01-5.54091E-04-1.40116E-03
 -1      2239 1.64317E-01-5.95534E-01 1.83140E-01 4.58442E-01-2.15685E-03 1.03349E-03
 -1      2240 1.90477E-01-6.85320E-01 2.14125E-01 4.87875E-01-2.04328E-04-1.21428E-04
 -1      2241 3.69570E-02-1.81750E-01 6.12532E-02 5.01216E-01 6.64727E-04 1.74680E-03
 -1      2242-1.33325E-01 3.56561E-01-1.00099E-01 4.97096E-01 1.99756E-03-2.66271E-03
 -1      2243-1.07073E-01 2.81274E-01-7.54034E-02 4.85803E-01 1.88602E-03-4.66721E-05
 -1      2244-3.11861E-01 9.29426E-01-2.65154E-01 4.65457E-01 9.82599E-04-3.13837E-03
 -1      2245 2.49027E-01-8.79542E-01 2.71886E-01 5.18211E-01-1.83854E-04 2.36880E-03
 -1      2246 5.48381E-01-1.86500E+00 5.66374E-01 4.55014E-01 1.82040E-03-2.75797E-03
 -1      2247 3.84694E-01-1.31761E+00 4.00481E-01 4.98746E-01 2.79146E-03 3.23933E-04
 -1      2248 5.74604E-01-1.94950E+00 5.87268E-01 4.68766E-01 6.84891E-04-1.68037E-03
 -1      2249 2.67049E-01-9.38838E-01 2.87884E-01 5.28787E-01-8.25627E-04-1.98476E-03
 -1      2250-1.70430E-01 4.82726E-01-1.35606E-01 5.33929E-01 2.55437E-03-6.07503E-05
 -1      2251-2.10874E-01 6.08784E-01-1.69641E-01 5.19731E-01 2.59799E-03 2.83638E-03
 -1      2252 3.77548E-02-1.84182E-01 6.43723E-02 5.40188E-01 2.44172E-04 2.45266E-03
 -1      2253 2.04665E-01-7.40914E-01 2.29758E-01 5.10822E-01 2.43312E-03 5.24954E-04
 -1      2254 2.40374E-01-8.44104E-01 2.58684E-01 5.35388E-01 3.65538E-04 1.52488E-04
 -1      2255 4.32333E-02-2.26707E-01 7.59883E-02 5.58491E-01-9.81582E-04-1.29945E-03
 -1      2256-1.53430E-01 4.36556E-01-1.24552E-01 5.52658E-01 9.64220E-04-1.87505E-03
 -1      2257-1.24605E-01 3.42965E-01-9.41807E-02 5.42577E-01 8.71446E-04 1.53789E-03
 -1      2258-3.72079E-01 1.14729E+00-3.31963E-01 5.22324E-01 2.74084E-05-1.74293E-03
 -1      2259 3.03131E-01-1.07290E+00 3.29173E-01 5.75117E-01-4.10048E-03-2.50639E-03
 -1      2260 6.73837E-01-2.26633E+00 6.83308E-01 5.02695E-01 1.14631E-03-2.36309E-03
 -1      2261 4.67860E-01-1.60140E+00 4.84979E-01 5.43584E-01-2.05584E-03-8.74127E-05
 -1      2262 6.99996E-01-2.36146E+00 7.10572E-01 5.11737E-01 4.15632E-04 8.33200E-04
 -1      2263 3.25832E-01-1.13219E+00 3.43961E-01 5.85483E-01-3.67945E-03 2.35437E-03
 -1      2264-2.04329E-01 5.91763E-01-1.66889E-01 5.83845E-01-1.37078E-03 1.70723E-03
 -1      2265-2.48875E-01 7.44667E-01-2.09717E-01 5.74306E-01-1.08583E-03-2.29010E-03
 -1      2266 4.80688E-02-2.22426E-01 7.68448E-02 5.95529E-01-1.06462E-03-1.92942E-03
 -1      2267 2.54073E-01-9.00710E-01 2.75580E-01 5.68185E-01-3.00156E-03 9.60719E-04
 -1      2268 2.90704E-01-1.02311E+00 3.14316E-01 5.91783E-01-1.25571E-03-4.96959E-04
 -1      2269 6.80253E-02-2.73635E-01 8.81218E-02 6.13216E-01-2.03624E-03-2.13483E-03
 -1      2270-1.88440E-01 5.38834E-01-1.51568E-01 6.01701E-01 4.61836E-04 4.60005E-04
 -1      2271-1.50233E-01 4.22907E-01-1.14742E-01 5.98683E-01-2.07402E-03 7.08140E-04
 -1      2272-4.51707E-01 1.40121E+00-4.07254E-01 5.72385E-01-1.37337E-03 2.58083E-03
 -1      2273 6.66235E-01-2.27652E+00 6.90880E-01 6.92238E-01 4.51242E-03 1.37372E-05
 -1      2274 8.18605E-01-2.78768E+00 8.42185E-01 6.91006E-01 5.83362E-03 4.57621E-03
 -1      2275 1.52532E-01-5.48885E-01 1.72387E-01 7.69122E-01 1.14957E-03 1.51365E-03
 -1      2276 3.57966E-01-1.24784E+00 3.82217E-01 7.27185E-01 1.82627E-04-3.90067E-03
 -1      2277 1.02569E+00-3.44208E+00 1.04104E+00 6.53777E-01 4.35358E-03-1.89472E-03
 -1      2278-4.62188E-01 1.43850E+00-4.21358E-01 7.21666E-01 1.75999E-03-2.79479E-03
 -1      2279-5.02947E-01 1.57364E+00-4.56359E-01 7.13443E-01-5.00773E-03-2.25896E-03
 -1      2280-4.32099E-02 7.30931E-02-1.16990E-02 7.58998E-01-6.64473E-04-5.50902E-03
 -1      2281 3.15185E-01-1.11166E+00 3.40869E-01 7.19489E-01 4.56434E-03-1.62644E-03
 -1      2282-2.48583E-01 7.52958E-01-2.19869E-01 7.59551E-01 7.15986E-03-2.63098E-03
 -1      2283-3.95876E-01 1.24684E+00-3.64375E-01 7.37361E-01 8.75624E-04 4.04516E-04
 -1      2284-8.59237E-01 2.76295E+00-8.14801E-01 7.04525E-01-2.89666E-04-4.33026E-03
 -1      2285-3.18540E-01 9.69808E-01-2.82083E-01 6.30692E-01 3.19396E-03-1.89594E-03
 -1      2286-3.15057E-01 9.68884E-01-2.78024E-01 6.17793E-01 2.14220E-03 1.36254E-03
 -1      2287-1.70401E-02-1.55859E-02 1.35038E-02 6.47642E-01 2.83433E-04-2.51726E-03
 -1      2288 2.87737E-01-1.02177E+00 3.13233E-01 6.17406E-01-2.76513E-03 5.23827E-04
 -1      2289 2.89628E-01-1.01510E+00 3.13513E-01 6.28446E-01-3.95662E-03-1.91950E-03
 -1      2290 2.69685E-01-9.70508E-01 2.99961E-01 6.43090E-01-1.28147E-03 1.14784E-03
 -1      2291 2.77334E-01-9.84313E-01 3.05295E-01 6.56482E-01 2.88467E-03-2.66310E-04
 -1      2292-1.43158E-02-2.31458E-02 1.57963E-02 6.74000E-01 6.18752E-04 1.83152E-03
 -1      2293-2.65341E-01 8.02165E-01-2.32782E-01 6.59368E-01-9.45584E-04-4.49797E-04
 -1      2294-2.64882E-01 8.14109E-01-2.35251E-01 6.46264E-01 1.52483E-03 2.54633E-04
 -1      2295-5.67052E-01 1.79502E+00-5.29353E-01 6.20000E-01-9.67483E-04 1.73317E-03
 -1      2296 5.80041E-01-1.97791E+00 6.01762E-01 6.14643E-01-4.75840E-04 4.91886E-03
 -1      2297 3.78216E-01-1.30249E+00 3.98095E-01 6.75729E-01-6.55442E-04-3.43581E-03
 -1      2298 8.65083E-01-2.91719E+00 8.80421E-01 6.15373E-01 3.11070E-03-1.70448E-03
 -1      2299 5.56837E-01-1.92077E+00 5.83582E-01 6.59220E-01-7.91088E-04-8.25716E-04
 -1      2300 6.68797E-01-2.28323E+00 6.94326E-01 6.59888E-01 2.82398E-03 1.11857E-03
 -1      2301 1.79142E-01-6.50432E-01 2.03309E-01 7.20528E-01-1.31616E-03 1.33971E-03
 -1      2302 2.45954E-02-1.71093E-01 6.16738E-02 7.02296E-01 2.54591E-03-3.97038E-03
 -1      2303 3.36117E-01-1.18030E+00 3.58019E-01 6.74449E-01 6.61963E-03-1.85843E-03
 -1      2304-2.30291E-01 6.81599E-01-1.94777E-01 6.90206E-01 6.20594E-04 1.91752E-04
 -1      2305-2.65726E-01 8.06077E-01-2.28680E-01 6.85392E-01 2.14385E-03 2.99336E-03
 -1      2306-1.59508E-01 4.57517E-01-1.28535E-01 7.14488E-01-4.22719E-03 8.38976E-05
 -1      2307-2.68218E-01 8.15855E-01-2.33672E-01 6.98326E-01 1.33855E-04 1.27280E-03
 -1      2308-5.67722E-01 1.79247E+00-5.25312E-01 6.86102E-01-1.68680E-03 6.55997E-03
 -1      2309-7.77739E-01 3.40297E+00-1.17277E+00-3.87813E-01 2.23305E-02-2.86731E-02
 -1      2310-1.10735E+00 4.83508E+00-1.59515E+00 1.26277E-01 5.02206E-02-3.97710E-02
 -1      2311-1.23118E+00 5.68184E+00-1.88903E+00 3.69880E-01 1.03784E-02 2.61798E-04
 -1      2312-3.78576E-01 1.94337E+00-6.83094E-01-2.88236E-01-2.82356E-02-1.16144E-02
 -1      2313-4.18181E-02 8.55243E-02-1.32747E-02-5.58682E-01 1.16204E-03-2.82622E-02
 -1      2314-4.14313E-01 1.87746E+00-6.31665E-01-4.92602E-01 4.85641E-03-1.77160E-03
 -1      2315-1.11195E+00 5.38074E+00-1.86395E+00 3.15535E-01-2.51911E-03-1.13842E-02
 -1      2316-1.02614E+00 5.09354E+00-1.74970E+00 4.08056E-01-1.48132E-02-3.51419E-03
 -1      2317-6.58253E-01 3.42813E+00-1.17328E+00-2.37232E-02-2.74499E-02-2.12992E-02
 -1      2318 3.85351E-01-1.80190E+00 6.31741E-01-5.85669E-01-1.60349E-02-2.14902E-02
 -1      2319 3.77246E-01-1.70534E+00 5.64220E-01-3.37585E-01-2.54946E-03-1.08574E-02
 -1      2320 6.91331E-01-3.24428E+00 1.14009E+00-5.42953E-01-2.91703E-02-3.02413E-02
 -1      2321 1.06702E+00-4.69312E+00 1.55718E+00-1.14025E-01-5.25604E-02-3.70982E-02
 -1      2322 1.24873E+00-5.63958E+00 1.87160E+00 1.06337E-01-2.34759E-02-1.71427E-02
 -1      2323 6.37300E-01-3.04477E+00 1.02031E+00-1.73782E-01-1.90212E-03-1.54610E-03
 -1      2324 9.97546E-01-4.54593E+00 1.53205E+00 1.64203E-01 1.33774E-02-3.97627E-03
 -1      2325 1.08102E+00-5.04948E+00 1.73363E+00 3.53337E-02 3.71759E-03 7.77681E-03
 -1      2326-5.48446E-03-6.67810E-04 2.59062E-03 7.94428E-03-3.30750E-06 6.36846E-05
 -1      2327-1.11681E-03-2.44789E-03 1.41500E-03 3.83898E-03-9.37787E-05 2.49497E-04
 -1      2328-4.09122E-03-1.86023E-03 2.60217E-03 8.81710E-03 2.04506E-05 1.42739E-04
 -1      2329-8.03350E-03 1.28018E-03 2.94686E-03 7.92215E-03 3.42382E-05 3.23828E-06
 -1      2330-1.15183E-02 3.47937E-03 3.48428E-03 9.51286E-03-2.06077E-05 5.01480E-05
 -1      2331-1.63281E-02 5.71470E-03 4.52828E-03 1.38169E-02 3.84284E-05 2.67389E-05
 -1      2332-1.83277E-02 8.07284E-03 4.32497E-03 9.04776E-03 9.04669E-05-5.75003E-05
 -1      2333-1.06125E-02-6.63819E-04 4.90681E-03 2.11370E-02-4.21482E-05-2.48098E-05
 -1      2334-1.73480E-02 5.66855E-03 4.98824E-03 2.04761E-02 1.10586E-04 1.90126E-05
 -1      2335-2.41594E-02 1.14323E-02 5.54575E-03 2.03651E-02 1.53323E-04 9.81544E-05
 -1      2336-4.74665E-03-5.65117E-03 4.31153E-03 1.54587E-02 4.49969E-05 1.07932E-05
 -1      2337-5.14237E-03-7.25801E-03 5.45915E-03 2.24957E-02 1.93654E-05 1.72656E-04
 -1      2338-1.02743E+00 3.30338E+00-9.77044E-01 4.54145E-01 9.09029E-04-2.23338E-03
 -1      2339-1.16243E+00 3.73296E+00-1.10161E+00 3.88249E-01-1.12539E-03 1.57233E-03
 -1      2340-8.13026E-01 2.57255E+00-7.50317E-01 5.06392E-01 5.58227E-04-2.22581E-03
 -1      2341-6.69378E-01 2.11561E+00-6.21194E-01 5.31997E-01-5.78103E-04 2.73593E-03
 -1      2342-5.26246E-01 1.66722E+00-4.88436E-01 5.73238E-01-8.22228E-04-1.69397E-03
 -1      2343-1.01075E+00 3.26061E+00-9.63761E-01 4.71440E-01 9.49379E-04 3.60642E-03
 -1      2344-6.49152E-01 2.04231E+00-5.94908E-01 5.83703E-01 3.61256E-04-3.78092E-03
 -1      2345-9.89032E-01 3.18189E+00-9.41969E-01 5.01349E-01 5.35103E-03-1.29616E-03
 -1      2346-3.20575E-01 9.82359E-01-2.80295E-01 6.04383E-01-2.57908E-03-2.48861E-03
 -1      2347 9.51900E-03-8.55436E-02 3.39203E-02 6.35204E-01 1.25633E-04-2.98168E-03
 -1      2348-3.45823E-01 1.04941E+00-3.02089E-01 6.05929E-01 8.13443E-04 2.39042E-04
 -1      2349-8.57130E-01 2.73861E+00-8.08129E-01 4.12081E-01-7.27790E-03 1.75388E-04
 -1      2350-9.57973E-01 3.07597E+00-9.08578E-01 3.53290E-01-3.39793E-03-1.59913E-03
 -1      2351-6.74475E-01 2.11344E+00-6.17509E-01 4.63579E-01-2.63828E-03 4.07514E-03
 -1      2352-5.47036E-01 1.72356E+00-5.04799E-01 4.85144E-01-6.30397E-04-1.01042E-04
 -1      2353-4.43257E-01 1.37551E+00-4.00803E-01 5.26460E-01-1.99569E-03-8.58475E-04
 -1      2354-8.50744E-01 2.72636E+00-8.02879E-01 4.29609E-01-3.00595E-03-3.45125E-03
 -1      2355-5.36985E-01 1.67174E+00-4.86950E-01 5.36454E-01-1.05203E-03 3.23492E-03
 -1      2356-8.27813E-01 2.63131E+00-7.75222E-01 4.61458E-01-3.01403E-03 2.13912E-03
 -1      2357-2.68867E-01 8.21129E-01-2.36850E-01 5.43767E-01-2.10303E-03-4.32194E-05
 -1      2358 4.76757E-03-9.70476E-02 3.81905E-02 5.78700E-01-5.58085E-04 2.77582E-03
 -1      2359-2.81068E-01 8.57456E-01-2.47520E-01 5.57964E-01-1.81618E-03 2.82672E-03
 -1      2360-7.06556E-01 2.23218E+00-6.56399E-01 3.71807E-01 8.41231E-04-3.07520E-03
 -1      2361-7.87057E-01 2.49913E+00-7.33809E-01 3.17322E-01-9.31293E-04 1.64132E-03
 -1      2362-5.55831E-01 1.72198E+00-4.99518E-01 4.19689E-01 1.03471E-03-3.62577E-03
 -1      2363-4.49157E-01 1.39821E+00-4.06873E-01 4.39093E-01 3.74426E-03-2.00804E-04
 -1      2364-3.67820E-01 1.12613E+00-3.26951E-01 4.70766E-01-3.32241E-04-1.34725E-03
 -1      2365-7.01971E-01 2.23496E+00-6.59196E-01 3.86464E-01-5.65635E-04 1.22221E-03
 -1      2366-4.40598E-01 1.36779E+00-3.96545E-01 4.87469E-01-2.64882E-05 3.74552E-03
 -1      2367-6.81487E-01 2.15768E+00-6.34092E-01 4.19777E-01-2.11720E-03 1.91523E-03
 -1      2368-2.25960E-01 6.72114E-01-1.90029E-01 4.90765E-01-8.18536E-04-6.92918E-04
 -1      2369 2.71299E-03-8.01912E-02 3.47132E-02 5.25983E-01 1.92310E-03 2.78943E-03
 -1      2370-2.36920E-01 6.94679E-01-1.97326E-01 5.00384E-01-2.88399E-04 3.26571E-03
 -1      2371-5.72011E-01 1.78209E+00-5.19508E-01 3.28139E-01 1.20001E-04 1.01139E-03
 -1      2372-6.43804E-01 2.00772E+00-5.84921E-01 2.79152E-01 2.75270E-04 3.03287E-03
 -1      2373-4.48985E-01 1.39181E+00-4.00897E-01 3.71562E-01 4.35036E-04 3.02340E-03
 -1      2374-3.75146E-01 1.13743E+00-3.28245E-01 3.82938E-01-1.51468E-03 1.82806E-03
 -1      2375-3.01614E-01 9.04620E-01-2.57131E-01 4.20897E-01-1.71308E-03 4.92267E-03
 -1      2376-5.74985E-01 1.78681E+00-5.18090E-01 3.51085E-01-1.32604E-04 2.10842E-03
 -1      2377-3.65537E-01 1.09934E+00-3.12848E-01 4.34461E-01-5.55856E-05-2.40859E-03
 -1      2378-5.55521E-01 1.73505E+00-5.06854E-01 3.75836E-01 2.31108E-03-1.50574E-03
 -1      2379-1.93797E-01 5.48374E-01-1.50292E-01 4.42231E-01 1.98382E-03 2.86916E-03
 -1      2380-3.11095E-03-5.04693E-02 2.32475E-02 4.67704E-01-7.16262E-04 3.29157E-03
 -1      2381-1.94636E-01 5.57906E-01-1.57218E-01 4.50623E-01 5.20464E-04 2.91458E-04
 -1      2382-4.49593E-01 1.38235E+00-3.97980E-01 3.12168E-01 7.75076E-04 7.33602E-04
 -1      2383-4.19948E-01 1.28024E+00-3.69755E-01 3.08430E-01 7.86558E-04-1.42747E-03
 -1      2384-2.86657E-01 8.44386E-01-2.37190E-01 3.86819E-01-1.97350E-04-1.79530E-03
 -1      2385-4.43688E-01 1.36011E+00-3.93461E-01 3.30790E-01 3.39433E-03-1.10084E-03
 -1      2386-1.49547E-01 4.17379E-01-1.12652E-01 3.89806E-01-2.37897E-03-6.38645E-04
 -1      2387-1.37219E-02-2.30699E-02 1.58857E-02 4.14276E-01 7.95017E-04-2.43397E-03
 -1      2388-1.54241E-01 4.19481E-01-1.13974E-01 3.96557E-01 3.43511E-04 1.23275E-04
 -1      2389-2.72999E-01 7.92606E-01-2.23085E-01 3.70338E-01-3.12628E-04-7.22031E-04
 -1      2390-3.98710E-01 1.20871E+00-3.45324E-01 3.05968E-01 8.99009E-04 3.92925E-04
 -1      2391-3.48967E-01 1.04663E+00-2.98731E-01 2.68687E-01-1.19855E-03 1.39980E-03
 -1      2392-3.21956E-01 9.45521E-01-2.67689E-01 2.61731E-01-2.22510E-03 1.49501E-03
 -1      2393-2.26960E-01 6.53533E-01-1.83946E-01 3.36935E-01-2.35256E-03 3.15681E-03
 -1      2394-3.51107E-01 1.05107E+00-3.02424E-01 2.86747E-01-3.91854E-03 2.36725E-03
 -1      2395-1.21121E-01 3.21368E-01-8.50510E-02 3.35476E-01-8.11665E-05-1.40210E-03
 -1      2396-1.76660E-02-1.13155E-02 1.14662E-02 3.57691E-01 1.47626E-03-2.53853E-03
 -1      2397-1.23833E-01 3.13272E-01-8.23985E-02 3.42053E-01-9.13700E-04 6.42673E-04
 -1      2398-2.08249E-01 5.91131E-01-1.64064E-01 3.19206E-01-2.03327E-04-9.12709E-04
 -1      2399-3.02392E-01 8.92391E-01-2.52160E-01 2.64708E-01-1.20491E-03-1.03520E-03
 -1      2400-2.58825E-01 7.45800E-01-2.07351E-01 2.28405E-01 5.88305E-04 6.36485E-04
 -1      2401-2.37540E-01 6.73626E-01-1.87539E-01 2.23321E-01 5.88500E-04-8.52944E-04
 -1      2402-1.72005E-01 4.64059E-01-1.25299E-01 2.80681E-01 4.37452E-04-1.20137E-03
 -1      2403-2.58375E-01 7.43133E-01-2.08055E-01 2.42420E-01 3.33443E-03-3.77390E-04
 -1      2404-9.31617E-02 2.29686E-01-5.74465E-02 2.82345E-01 5.77827E-04 1.73784E-03
 -1      2405-1.85621E-02-2.94723E-03 9.13810E-03 2.99458E-01 1.08240E-04 1.39742E-03
 -1      2406-9.52618E-02 2.30021E-01-5.92596E-02 2.91584E-01 6.75707E-04 6.34952E-04
 -1      2407-1.60160E-01 4.22511E-01-1.12888E-01 2.67258E-01 4.01493E-04 2.88527E-04
 -1      2408-2.24583E-01 6.28508E-01-1.72247E-01 2.21301E-01 1.26463E-03 3.95208E-04
 -1      2409-1.87513E-01 5.05169E-01-1.34840E-01 1.85750E-01-1.47162E-03-8.98907E-04
 -1      2410-1.69589E-01 4.44578E-01-1.17875E-01 1.79107E-01-2.31986E-05-6.22626E-04
 -1      2411-1.26373E-01 3.16616E-01-8.16131E-02 2.30291E-01 8.12749E-04-1.16619E-03
 -1      2412-1.87220E-01 5.03131E-01-1.35435E-01 1.95970E-01 1.08703E-03-2.26741E-04
 -1      2413-7.25586E-02 1.56248E-01-3.52558E-02 2.29332E-01-2.73228E-04-1.50193E-03
 -1      2414-2.13854E-02 6.61402E-04 8.69479E-03 2.46748E-01 6.64229E-04 3.49719E-06
 -1      2415-7.41046E-02 1.54603E-01-3.57999E-02 2.38244E-01 1.66772E-03 4.29606E-04
 -1      2416-1.15542E-01 2.81804E-01-7.06188E-02 2.15003E-01-2.95532E-04-1.10942E-03
 -1      2417-1.58714E-01 4.12896E-01-1.08049E-01 1.76512E-01-1.03634E-03-1.46708E-03
 -1      2418 3.44351E-03-3.69869E-02 1.46423E-02 5.11754E-02 2.76780E-04 3.89066E-04
 -1      2419 9.34285E-03-5.40701E-02 1.86370E-02 5.91978E-02 3.94388E-04-1.93541E-04
 -1      2420 1.01057E-02-5.73414E-02 2.01285E-02 6.57452E-02-1.46617E-04-2.04241E-04
 -1      2421-2.25524E-03-3.37944E-02 1.51063E-02 7.37145E-02 2.90151E-04-5.18986E-04
 -1      2422-4.88893E-03-2.16448E-02 1.15070E-02 5.96911E-02 2.04710E-04 2.86871E-04
 -1      2423 1.19892E-03-3.09904E-02 1.25787E-02 4.51233E-02-2.38721E-04 2.79452E-04
 -1      2424-1.39779E-02-1.01737E-02 1.04488E-02 7.49674E-02-3.13423E-04-1.56094E-04
 -1      2425-2.50086E-02 7.89724E-03 7.24740E-03 7.43274E-02-2.47943E-04-3.54512E-04
 -1      2426-1.33845E-02-1.05657E-02 1.00288E-02 6.63086E-02 2.05964E-04-2.50830E-04
 -1      2427 2.90514E-02-1.20361E-01 3.97564E-02 9.33161E-02 3.61046E-04-7.70038E-05
 -1      2428 3.71182E-02-1.49921E-01 4.86636E-02 1.00709E-01 8.22867E-04-2.02455E-04
 -1      2429 3.82943E-02-1.52613E-01 4.92901E-02 1.11506E-01 5.31044E-04 2.83987E-04
 -1      2430 1.59076E-02-9.28679E-02 3.30542E-02 1.26364E-01 7.62190E-05 1.28257E-04
 -1      2431 1.06591E-02-7.58081E-02 2.88817E-02 1.11078E-01 2.84064E-04 5.27241E-04
 -1      2432 2.54633E-02-1.06479E-01 3.46755E-02 8.90289E-02-6.30303E-04 9.28066E-05
 -1      2433-4.46366E-03-3.91875E-02 1.88198E-02 1.29357E-01 3.03005E-04 7.07781E-05
 -1      2434-2.44699E-02 8.83532E-03 6.24718E-03 1.32236E-01-5.39080E-04 7.51595E-04
 -1      2435-4.60210E-03-4.23333E-02 2.02129E-02 1.20034E-01-1.23036E-04 2.79349E-04
 -1      2436-1.28988E-01 3.06516E-01-7.54936E-02 1.45776E-01-6.94151E-04-4.30005E-04
 -1      2437-1.14211E-01 2.63607E-01-6.45332E-02 1.37510E-01-7.89414E-04 1.37210E-03
 -1      2438-8.76899E-02 1.93902E-01-4.51409E-02 1.77729E-01-5.89076E-04-5.28875E-04
 -1      2439-1.29928E-01 3.11562E-01-7.83573E-02 1.53823E-01-6.95521E-04 6.75232E-04
 -1      2440-5.56875E-02 9.72407E-02-1.64714E-02 1.76051E-01-1.62360E-03-4.49274E-04
 -1      2441-2.29680E-02 5.42228E-03 8.13993E-03 1.87666E-01-1.13687E-03-6.16976E-04
 -1      2442-5.61686E-02 9.71384E-02-1.81338E-02 1.83090E-01-7.44467E-04 4.09730E-04
 -1      2443-8.28315E-02 1.67781E-01-3.64479E-02 1.63696E-01-3.18667E-04 1.15423E-03
 -1      2444-1.07335E-01 2.43732E-01-5.76640E-02 1.32843E-01 3.87383E-04 9.05798E-04
 -1      2445 9.19075E-01-3.08347E+00 9.31886E-01 4.68421E-01-1.28713E-03-3.73097E-03
 -1      2446 9.67525E-01-3.25083E+00 9.77825E-01 4.69734E-01-8.82124E-04-4.94618E-05
 -1      2447 9.55919E-01-3.20479E+00 9.65531E-01 4.86138E-01-2.40692E-03-5.95582E-04
 -1      2448 6.15965E-01-2.08111E+00 6.28027E-01 5.80948E-01-2.33694E-03-3.69353E-03
 -1      2449 3.05933E-01-1.07603E+00 3.31034E-01 6.11540E-01-1.77628E-03-9.04731E-04
 -1      2450 3.23567E-01-1.13570E+00 3.45146E-01 6.00967E-01-1.90803E-03 2.16848E-03
 -1      2451 5.89416E-01-2.01200E+00 6.10071E-01 5.63193E-01-1.26581E-03 3.50162E-03
 -1      2452 8.85392E-01-2.96419E+00 8.92134E-01 4.69952E-01-3.89377E-03-1.70212E-03
 -1      2453-3.69700E-02 1.56938E-02 9.36790E-03 1.47354E-03 1.30429E-04 5.73722E-04
 -1      2454-2.35184E-02 9.30048E-03 6.39138E-03-3.19323E-03 7.43476E-04-1.05831E-04
 -1      2455-2.38855E-02 1.09076E-02 5.49344E-03 1.85244E-03 1.92130E-04-8.75627E-05
 -1      2456-4.14898E-02 2.09550E-02 8.74761E-03 1.02531E-02 1.93449E-04 1.16691E-04
 -1      2457-2.01349E-02 9.50303E-03 4.77171E-03 5.88570E-03 2.55029E-04 2.72248E-05
 -1      2458-2.77215E-02 1.34123E-02 6.14841E-03 9.33285E-03 6.70329E-05 1.41764E-04
 -1      2459-3.46745E-02 1.83509E-02 6.93896E-03 1.28700E-02 1.89912E-04 7.01065E-05
 -1      2460-4.21671E-02 2.25015E-02 8.18845E-03 1.82358E-02 6.66418E-06-2.31034E-05
 -1      2461-3.00624E-02 1.55643E-02 5.96888E-03 1.62974E-02 8.63956E-05-1.07968E-04
 -1      2462-1.25523E+00 4.05125E+00-1.19759E+00 4.71145E-01-5.39229E-03-7.05005E-04
 -1      2463-1.38041E+00 4.47607E+00-1.32912E+00 4.14215E-01-2.31203E-03-3.59699E-03
 -1      2464-9.75081E-01 3.14205E+00-9.30264E-01 5.49876E-01 1.51675E-03-4.50349E-03
 -1      2465-8.12413E-01 2.59382E+00-7.69439E-01 5.78453E-01-2.39482E-03-1.22332E-03
 -1      2466-6.75571E-01 2.16109E+00-6.38259E-01 6.18437E-01-1.33378E-03-3.26104E-03
 -1      2467-1.03841E+00 3.35296E+00-9.95413E-01 5.67247E-01-1.71864E-03 2.00204E-03
 -1      2468-1.28688E+00 4.14477E+00-1.22353E+00 4.85302E-01-1.25753E-03 3.42109E-03
 -1      2469-6.86152E-01 2.19419E+00-6.45347E-01 6.38484E-01-2.49941E-03 2.83684E-03
 -1      2470-8.91604E-01 2.85644E+00-8.40757E-01 6.08909E-01-1.29186E-03 1.13072E-03
 -1      2471-4.29166E-01 1.32943E+00-3.84191E-01 6.54238E-01-1.23108E-03-3.71198E-03
 -1      2472-8.79819E-03-3.98568E-02 2.10214E-02 6.94219E-01 2.49973E-03-3.42084E-03
 -1      2473-4.30369E-01 1.32982E+00-3.83934E-01 6.54009E-01 3.00742E-03 1.82718E-05
 -1      2474 7.59372E-01-2.55388E+00 7.68967E-01 4.21320E-01 1.76759E-03 3.19474E-03
 -1      2475 8.01318E-01-2.69463E+00 8.10368E-01 4.32281E-01-4.80332E-04 2.15081E-03
 -1      2476 7.93675E-01-2.67686E+00 8.07967E-01 4.47948E-01 1.57086E-03 9.21980E-04
 -1      2477 5.13553E-01-1.75281E+00 5.31057E-01 5.27590E-01-1.26458E-03 1.85383E-03
 -1      2478 2.62514E-01-9.21413E-01 2.82086E-01 5.55930E-01-3.13602E-03 4.74188E-05
 -1      2479 2.71468E-01-9.52741E-01 2.87202E-01 5.46583E-01-4.48994E-03 3.33965E-03
 -1      2480 4.91538E-01-1.67346E+00 5.03998E-01 5.14548E-01-2.39988E-03 3.93992E-03
 -1      2481 7.28865E-01-2.45901E+00 7.40575E-01 4.20318E-01 1.05168E-03-1.55878E-04
 -1      2482 6.16004E-01-2.08105E+00 6.30009E-01 3.83416E-01-6.59001E-04-2.60568E-03
 -1      2483 6.52210E-01-2.20822E+00 6.66127E-01 3.87287E-01 1.71338E-03-1.42760E-03
 -1      2484 6.50010E-01-2.19168E+00 6.62282E-01 4.04455E-01 1.03419E-03 1.15449E-03
 -1      2485 4.22831E-01-1.43868E+00 4.37316E-01 4.75257E-01 1.45973E-03 9.35881E-04
 -1      2486 2.08537E-01-7.52970E-01 2.36159E-01 5.02828E-01 3.78121E-03 1.93066E-03
 -1      2487 2.14982E-01-7.80330E-01 2.41001E-01 4.88016E-01 2.50412E-03-4.12013E-04
 -1      2488 4.00626E-01-1.36171E+00 4.12695E-01 4.61586E-01 3.76557E-04 2.85467E-04
 -1      2489 5.91223E-01-1.99297E+00 5.99946E-01 3.85169E-01-1.46237E-03-1.91440E-04
 -1      2490 4.88736E-01-1.65399E+00 5.02190E-01 3.42511E-01-3.60330E-04-2.98552E-03
 -1      2491 5.20963E-01-1.76840E+00 5.35701E-01 3.45694E-01 2.40370E-03-1.17545E-03
 -1      2492 5.21071E-01-1.75953E+00 5.31686E-01 3.62478E-01 1.54410E-03 4.84691E-04
 -1      2493 3.34777E-01-1.15282E+00 3.50930E-01 4.26998E-01-1.59769E-04 6.23345E-04
 -1      2494 1.65099E-01-5.99183E-01 1.87720E-01 4.47443E-01-8.55337E-05 1.62332E-03
 -1      2495 1.63268E-01-6.09109E-01 1.91849E-01 4.34948E-01-1.12531E-03 8.33124E-04
 -1      2496 3.14803E-01-1.07998E+00 3.29521E-01 4.12418E-01 5.69797E-04-2.36114E-04
 -1      2497 4.66853E-01-1.57645E+00 4.75707E-01 3.43365E-01-2.42439E-03-1.77313E-03
 -1      2498 3.78626E-01-1.27615E+00 3.84633E-01 2.95747E-01 2.01226E-03 2.15668E-03
 -1      2499 4.07136E-01-1.37543E+00 4.14178E-01 3.07049E-01-2.53913E-04 1.53889E-03
 -1      2500 4.05289E-01-1.37490E+00 4.16433E-01 3.18494E-01-4.89285E-04 1.27119E-03
 -1      2501 2.56389E-01-8.93555E-01 2.72741E-01 3.74427E-01 1.21042E-03 9.69981E-04
 -1      2502 1.24603E-01-4.58205E-01 1.44421E-01 3.93404E-01 2.29422E-03 2.18732E-03
 -1      2503 1.22397E-01-4.66016E-01 1.45432E-01 3.86404E-01 2.09597E-03-3.20379E-04
 -1      2504 2.38636E-01-8.31270E-01 2.54097E-01 3.63521E-01 9.52754E-04 1.07741E-04
 -1      2505 3.56746E-01-1.21809E+00 3.67921E-01 3.00457E-01 1.71764E-03 2.07705E-04
 -1      2506 2.79059E-01-9.46072E-01 2.84696E-01 2.55324E-01 3.91678E-04-2.58357E-04
 -1      2507 3.03332E-01-1.03499E+00 3.11409E-01 2.65775E-01-3.90415E-05 1.33777E-03
 -1      2508 3.01442E-01-1.03715E+00 3.15713E-01 2.78417E-01-1.41660E-03 4.89030E-07
 -1      2509 1.91188E-01-6.70595E-01 2.05218E-01 3.25427E-01 1.32830E-03-1.65994E-03
 -1      2510 8.76988E-02-3.40022E-01 1.08851E-01 3.39962E-01 6.26097E-04-1.47828E-03
 -1      2511 8.49354E-02-3.37650E-01 1.05711E-01 3.35374E-01 3.47904E-03-2.04132E-03
 -1      2512 1.69213E-01-6.07194E-01 1.86902E-01 3.10966E-01 1.03638E-03-1.29476E-03
 -1      2513 2.59894E-01-8.89599E-01 2.67976E-01 2.58905E-01 9.65830E-04-3.28166E-04
 -1      2514 1.93063E-01-6.66012E-01 2.03899E-01 2.14037E-01 1.79760E-03 1.49324E-03
 -1      2515 2.14034E-01-7.40516E-01 2.25484E-01 2.23193E-01-1.14861E-04 1.03404E-03
 -1      2516 2.13929E-01-7.38182E-01 2.26784E-01 2.36827E-01 1.35156E-03 2.01998E-03
 -1      2517 1.31810E-01-4.73040E-01 1.47433E-01 2.74790E-01 2.27298E-04 1.97723E-03
 -1      2518 5.67145E-02-2.42281E-01 7.94908E-02 2.89464E-01 1.22514E-03 1.23630E-03
 -1      2519 5.48664E-02-2.41311E-01 7.85372E-02 2.78186E-01-2.02031E-03 1.41969E-03
 -1      2520 1.17632E-01-4.26371E-01 1.32679E-01 2.62894E-01-7.25221E-04 1.99457E-03
 -1      2521 1.78865E-01-6.25445E-01 1.90517E-01 2.13819E-01-9.27349E-04 1.10643E-03
 -1      2522 1.24378E-01-4.39167E-01 1.34473E-01 1.77269E-01 2.59078E-04 7.46073E-04
 -1      2523 1.41515E-01-4.90990E-01 1.50459E-01 1.84653E-01 6.19821E-04-8.26687E-04
 -1      2524 1.41174E-01-4.97532E-01 1.53273E-01 1.93954E-01 8.48834E-04 9.73404E-04
 -1      2525 8.36448E-02-3.16768E-01 1.00372E-01 2.25064E-01-3.71514E-04 5.64825E-05
 -1      2526 3.19838E-02-1.59029E-01 5.50513E-02 2.35622E-01 4.98812E-04-6.81220E-04
 -1      2527 3.03113E-02-1.54727E-01 5.25797E-02 2.27240E-01 6.18005E-04 4.63340E-04
 -1      2528 7.26573E-02-2.78056E-01 8.76530E-02 2.11572E-01 1.03510E-04 2.09190E-04
 -1      2529 1.13413E-01-4.01289E-01 1.22608E-01 1.74337E-01 8.74908E-04-8.93015E-04
 -1      2530 6.77601E-02-2.48893E-01 7.76394E-02 1.35258E-01 6.41654E-04-1.58046E-04
 -1      2531 8.12889E-02-2.94948E-01 9.05538E-02 1.41517E-01-1.12058E-04 6.16719E-04
 -1      2532 8.27975E-02-3.00148E-01 9.36139E-02 1.52252E-01-1.29365E-03 2.19338E-04
 -1      2533 4.36800E-02-1.86356E-01 6.10905E-02 1.75360E-01-1.53421E-04 3.81115E-04
 -1      2534 1.06990E-02-8.77816E-02 3.28726E-02 1.80443E-01 5.38368E-04 3.45548E-04
 -1      2535 8.42015E-03-8.81167E-02 3.33235E-02 1.73298E-01 2.04194E-04-3.15784E-04
 -1      2536 3.54207E-02-1.55658E-01 5.13967E-02 1.62885E-01 7.26899E-04-6.94916E-04
 -1      2537 5.97043E-02-2.24961E-01 7.02115E-02 1.32573E-01 1.36506E-03-7.05034E-04
 -1      2538-8.59733E-02 1.63594E-01-3.28112E-02 1.02483E-01-8.48494E-04-6.48554E-04
 -1      2539-7.65511E-02 1.36224E-01-2.59549E-02 9.43371E-02-3.43857E-04 3.44502E-04
 -1      2540-6.23032E-02 1.06797E-01-1.88268E-02 1.26266E-01 1.49171E-04-6.27383E-04
 -1      2541-8.69782E-02 1.67544E-01-3.48554E-02 1.10373E-01 2.07095E-04-6.02454E-04
 -1      2542-4.24034E-02 5.43255E-02-4.81107E-03 1.20914E-01-4.28581E-04-7.11586E-05
 -1      2543-4.41012E-02 5.75215E-02-6.60980E-03 1.30360E-01-6.86394E-04 4.57023E-04
 -1      2544-5.90012E-02 8.87355E-02-1.30479E-02 1.11870E-01-2.91487E-04 5.85410E-04
 -1      2545-7.20552E-02 1.21850E-01-2.14193E-02 8.97511E-02-5.27856E-04 3.24470E-04
 -1      2546-5.50172E-02 5.79029E-02-1.34335E-03 5.04886E-02-3.64931E-04 1.84817E-04
 -1      2547-4.96246E-02 4.62382E-02 1.71975E-03 5.12059E-02-1.45802E-04-6.41929E-05
 -1      2548-4.53985E-02 3.59644E-02 3.80624E-03 4.69802E-02-2.84416E-04-1.24133E-05
 -1      2549-4.18865E-02 3.50355E-02 2.65968E-03 5.85930E-02-2.53751E-04-1.46471E-04
 -1      2550-4.63278E-02 4.84558E-02-7.22802E-04 7.30030E-02-2.51298E-04-3.89333E-04
 -1      2551-5.82501E-02 7.40645E-02-6.69408E-03 6.70095E-02-4.24762E-04-1.85142E-04
 -1      2552-5.81594E-02 6.94757E-02-4.74818E-03 5.82534E-02-4.78331E-04-9.01291E-05
 -1      2553-3.56700E-02 2.57266E-02 4.32308E-03 6.60686E-02-3.82744E-04-2.07804E-04
 -1      2554-3.64100E-02 2.73736E-02 3.87949E-03 7.36728E-02-4.68470E-04 2.89348E-05
 -1      2555 3.84133E-01-1.32583E+00 4.05072E-01 6.56832E-01 3.75923E-03 7.83259E-04
 -1      2556 3.80000E-01-1.31445E+00 3.99662E-01 6.55546E-01 4.05820E-03-2.97397E-03
 -1      2557 7.19907E-01-2.45884E+00 7.42586E-01 6.27694E-01 2.27963E-03-3.21559E-03
 -1      2558 1.10576E+00-3.70082E+00 1.11367E+00 5.01818E-01 1.71553E-03 2.27733E-03
 -1      2559 1.14298E+00-3.82068E+00 1.14483E+00 5.14294E-01 3.55868E-03-2.66770E-03
 -1      2560 1.09379E+00-3.66467E+00 1.10086E+00 5.37244E-01-1.91856E-03-1.97625E-03
 -1      2561 6.63596E-01-2.26384E+00 6.86690E-01 6.18983E-01 2.12410E-03-1.38036E-03
 -1      2562 9.97310E-01-3.35967E+00 1.01251E+00 5.24344E-01 4.18889E-03-8.09991E-04
 -1      2563 1.02375E+00-3.64708E+00 1.12360E+00 5.46696E-01-5.15838E-03 1.23589E-03
 -1      2564 6.72003E-01-2.22584E+00 6.61634E-01 6.44752E-01-3.21852E-03 9.28551E-04
 -1      2565 4.86562E-01-1.50876E+00 4.41336E-01 7.08322E-01-2.42123E-03-6.56145E-03
 -1      2566 1.01848E+00-3.42297E+00 1.03229E+00 6.74858E-01-2.41491E-03-3.89346E-03
 -1      2567 1.67655E+00-5.64857E+00 1.70703E+00 5.43492E-01-5.68756E-04-4.55372E-03
 -1      2568 1.64343E+00-5.76411E+00 1.76356E+00 5.66008E-01 1.56230E-03-2.72278E-03
 -1      2569 1.41157E+00-5.21693E+00 1.62374E+00 5.33816E-01 6.59694E-04 4.46935E-03
 -1      2570 1.47146E+00-4.91415E+00 1.47396E+00 6.07190E-01-4.19734E-03 1.16937E-03
 -1      2571-1.66237E+00 5.80064E+00-1.77628E+00 6.68760E-01-1.23332E-02 2.40363E-03
 -1      2572-1.30810E+00 4.58167E+00-1.39985E+00 7.27497E-01-5.74113E-03-3.09853E-03
 -1      2573-6.82014E-01 2.59240E+00-8.21431E-01 7.62081E-01-2.81627E-03-4.19511E-03
 -1      2574-4.34194E-01 1.85147E+00-6.05010E-01 7.28581E-01-4.99317E-03-2.27392E-03
 -1      2575-8.07209E-01 3.33876E+00-1.08469E+00 6.99218E-01-7.97534E-03 1.78969E-03
 -1      2576-6.90857E-02 4.24530E-01-1.50902E-01 7.32720E-01-1.38358E-03 2.12690E-03
 -1      2577-1.22037E+00 4.99783E+00-1.61510E+00 7.19056E-01-1.41681E-02-8.89307E-03
 -1      2578-1.53336E+00 5.72622E+00-1.80211E+00 7.62612E-01-9.44612E-03-8.06257E-03
 -1      2579 1.02576E+00-3.44047E+00 1.03438E+00 6.12262E-01 2.21134E-03-3.35847E-03
 -1      2580 1.45110E+00-4.84699E+00 1.45423E+00 4.81954E-01 4.61836E-04 1.29571E-03
 -1      2581 1.41654E+00-4.74281E+00 1.42928E+00 5.08745E-01-6.85857E-04-3.68157E-03
 -1      2582 6.37326E-01-2.16509E+00 6.53411E-01 6.77507E-01 3.70577E-03-3.00994E-03
 -1      2583 4.56269E-01-1.55762E+00 4.73764E-01 6.98955E-01-6.93261E-04-2.09583E-03
 -1      2584 9.94639E-02-4.14692E-01 1.33967E-01 7.33782E-01-2.15247E-03-3.30175E-03
 -1      2585 8.53859E-01-2.88197E+00 8.65839E-01 6.71578E-01 1.55290E-03-3.44166E-03
 -1      2586 1.44159E+00-4.83340E+00 1.45343E+00 5.12682E-01 1.93995E-03-2.91660E-04
 -1      2587 1.31311E+00-4.39065E+00 1.32291E+00 5.64194E-01-5.33933E-03-3.68127E-03
 -1      2588 1.22539E+00-4.09458E+00 1.22794E+00 6.35614E-01 3.10439E-03 3.62063E-03
 -1      2589 1.55125E+00-5.18385E+00 1.55879E+00 5.51139E-01-1.24956E-04 3.33852E-04
 -1      2590 6.99619E-01-2.36062E+00 7.08466E-01 7.23221E-01 3.54295E-03-2.80929E-03
 -1      2591 9.67379E-01-3.24656E+00 9.71772E-01 7.09264E-01-7.07939E-04 3.00773E-03
 -1      2592 5.23924E-01-1.75612E+00 5.27930E-01 7.43043E-01 4.49446E-03 1.84359E-03
 -1      2593 1.18802E-01-4.44681E-01 1.35380E-01 7.81404E-01 3.03273E-04-1.28339E-03
 -1      2594 1.55446E+00-5.19286E+00 1.55902E+00 5.60167E-01-9.76553E-04 2.28800E-03
 -1      2595 1.42907E+00-4.74907E+00 1.42608E+00 6.04086E-01-4.95492E-03-9.24126E-04
 -1      2596-9.62484E-01 3.09872E+00-9.20763E-01 7.06917E-01 4.63236E-04-3.42631E-03
 -1      2597-4.33399E-01 1.37935E+00-4.07640E-01 7.57546E-01 1.76661E-03-6.04613E-03
 -1      2598-5.94598E-01 1.91987E+00-5.67572E-01 7.46489E-01-5.00472E-03 1.53345E-03
 -1      2599-9.62018E-01 3.17406E+00-9.45637E-01 7.24336E-01 9.32484E-04 8.42791E-04
 -1      2600-1.58878E+00 5.19723E+00-1.54444E+00 5.73932E-01-9.52401E-04-1.04688E-03
 -1      2601-1.54468E+00 5.03487E+00-1.49901E+00 5.70278E-01 1.25418E-03-3.53369E-03
 -1      2602-1.43483E+00 4.69962E+00-1.40352E+00 6.25109E-01 5.65695E-03-3.24738E-03
 -1      2603-1.37565E+00 4.48008E+00-1.32845E+00 5.99016E-01 3.51049E-04 1.72745E-04
 -1      2604-8.15112E-01 2.60079E+00-7.67072E-01 6.63083E-01-1.48400E-04-1.88176E-03
 -1      2605-3.50723E-01 1.07914E+00-3.10021E-01 7.11004E-01-1.94065E-03-3.21951E-03
 -1      2606-5.55738E-01 1.75618E+00-5.12859E-01 6.97405E-01-5.69322E-03-3.08983E-03
 -1      2607-9.69080E-01 3.12566E+00-9.22116E-01 6.56221E-01-2.05556E-03-4.59894E-04
 -1      2608-1.43304E+00 4.65275E+00-1.37503E+00 5.25305E-01 2.04632E-04 2.08628E-03
 -1      2609-1.35094E+00 4.36860E+00-1.29363E+00 5.31316E-01-2.34141E-03-4.74329E-04
 -1      2610-1.13846E+00 3.68563E+00-1.08798E+00 5.76832E-01 4.58360E-03 3.29125E-03
 -1      2611-1.38227E+00 4.48340E+00-1.33070E+00 5.51373E-01 1.34112E-04-1.09156E-03
 -1      2612-8.41628E-01 4.22824E+00-1.46600E+00 3.92481E-01-1.18145E-02-1.70196E-02
 -1      2613-1.28829E+00 6.34804E+00-2.16403E+00 7.05368E-01-1.08135E-02-1.68929E-02
 -1      2614-1.66238E+00 7.27873E+00-2.40573E+00 8.46651E-01-2.34498E-02-6.05956E-03
 -1      2615-1.57614E+00 6.48887E+00-2.10006E+00 7.45945E-01-2.06506E-02-8.81536E-03
 -1      2616-8.49593E-01 4.04710E+00-1.37420E+00 6.08040E-01 4.16195E-03-1.46546E-02
 -1      2617 1.03837E+00-4.21066E+00 1.36387E+00 4.36014E-01-6.19478E-04-3.66963E-03
 -1      2618 1.63609E+00-6.34658E+00 2.00820E+00 5.24891E-01 1.19334E-02 6.98159E-03
 -1      2619 1.68776E+00-6.92813E+00 2.24724E+00 5.35505E-01 4.09050E-03-7.96450E-03
 -1      2620 1.34836E+00-6.02850E+00 2.01058E+00 4.19287E-01-2.20144E-02-3.84153E-03
 -1      2621 8.80127E-01-3.83189E+00 1.26472E+00 2.11721E-01 1.73297E-02 2.23137E-03
 -1      2622-4.76007E-02 3.48304E-02 5.44966E-03 3.65868E-02-3.35837E-04-3.55278E-05
 -1      2623-4.79123E-02 3.16118E-02 7.06704E-03 2.87910E-02-4.78037E-04 3.84624E-05
 -1      2624-3.92373E-02 2.31288E-02 6.66262E-03 2.63332E-02-1.70576E-04 6.59779E-05
 -1      2625-3.10126E-02 1.60307E-02 6.17295E-03 2.36960E-02 1.07728E-04-2.54817E-04
 -1      2626-4.53816E-02 2.62915E-02 8.06356E-03 2.39039E-02-4.26806E-04-1.55553E-04
 -1      2627-5.71059E-01 1.76282E+00-5.10392E-01 2.83780E-01-3.14592E-04-2.34035E-03
 -1      2628-3.95817E-01 1.21344E+00-3.52205E-01 3.60738E-01 3.96349E-04-5.21586E-04
 -1      2629-6.52541E-01 2.04953E+00-5.99411E-01 2.50371E-01-5.47678E-04 1.84542E-03
 -1      2630-7.03287E-01 2.21926E+00-6.49678E-01 3.29727E-01-9.36441E-04-3.10648E-03
 -1      2631-4.80372E-01 1.50351E+00-4.38377E-01 4.13960E-01 1.16452E-03 2.43275E-03
 -1      2632-8.12379E-01 2.56914E+00-7.53215E-01 2.89528E-01-1.62198E-03-1.30992E-03
 -1      2633-4.41964E-01 1.34068E+00-3.84380E-01 2.46497E-01-1.80612E-03 3.68516E-04
 -1      2634-3.16422E-01 9.46126E-01-2.69256E-01 3.13083E-01-2.49679E-03 7.25584E-04
 -1      2635-5.08961E-01 1.56932E+00-4.54318E-01 2.19120E-01-1.10492E-03 9.79569E-04
 -1      2636-3.30028E-01 9.78126E-01-2.76871E-01 3.24277E-01-1.70582E-03 3.84522E-04
 -1      2637-4.75629E-01 1.45708E+00-4.20678E-01 2.62190E-01-1.54581E-03 2.17629E-03
 -1      2638-3.19171E-01 9.28251E-01-2.60528E-01 2.17274E-01-1.97586E-04-2.35010E-03
 -1      2639-3.63507E-01 1.08646E+00-3.10326E-01 1.99446E-01-7.78724E-04 1.88606E-04
 -1      2640-3.47149E-01 1.02838E+00-2.93985E-01 2.31808E-01-1.41518E-03 9.48757E-04
 -1      2641-8.66877E-01 2.74636E+00-8.05511E-01 3.65687E-01-2.80948E-03 3.95823E-03
 -1      2642-5.90411E-01 1.85147E+00-5.39890E-01 4.66230E-01-1.72496E-03-4.53029E-04
 -1      2643-9.93106E-01 3.17122E+00-9.36183E-01 3.27075E-01-5.88502E-03 2.31156E-03
 -1      2644 1.88980E+00-6.29770E+00 1.88901E+00 5.10604E-01-2.28432E-04 4.77235E-03
 -1      2645 1.23339E+00-4.07870E+00 1.22090E+00 6.48898E-01-3.54467E-03-2.34785E-03
 -1      2646 2.07789E+00-6.91828E+00 2.07449E+00 4.30586E-01 2.77106E-04 8.47176E-04
 -1      2647 1.23902E+00-4.12595E+00 1.23787E+00 6.52302E-01-3.47260E-03 3.71458E-03
 -1      2648 1.83012E+00-6.09784E+00 1.82893E+00 5.09019E-01-3.74963E-05-3.43612E-03
 -1      2649-2.30672E-01 6.36714E-01-1.72696E-01 1.78757E-01-1.36816E-03-9.04191E-04
 -1      2650-2.64675E-01 7.53301E-01-2.09756E-01 1.65484E-01-8.16730E-04 9.33327E-04
 -1      2651-2.54065E-01 7.18663E-01-1.99301E-01 1.93282E-01-7.05741E-04 1.92827E-03
 -1      2652-1.05124E+00 3.36021E+00-9.85644E-01 3.94967E-01-1.39234E-03 2.04714E-03
 -1      2653-7.14763E-01 2.27836E+00-6.69304E-01 5.03234E-01 2.12220E-04-6.37987E-04
 -1      2654-1.19817E+00 3.85894E+00-1.14060E+00 3.51845E-01-1.42041E-03 1.93632E-03
 -1      2655-1.57425E-01 3.99121E-01-1.03028E-01 1.41985E-01-8.68074E-04 5.38396E-04
 -1      2656-1.83022E-01 4.78942E-01-1.27000E-01 1.31846E-01-1.61839E-04 1.38971E-04
 -1      2657-1.78575E-01 4.66829E-01-1.24117E-01 1.52644E-01-1.35717E-03-2.08452E-04
 -1      2658-8.74582E-04-1.53041E-02 6.68160E-03 2.47511E-02-2.05354E-05 2.05013E-04
 -1      2659 2.59361E-03-2.24231E-02 8.69102E-03 2.67479E-02 3.03525E-05 3.67106E-04
 -1      2660 3.55346E-03-2.96154E-02 1.13382E-02 3.56884E-02-2.87447E-05 4.60593E-04
 -1      2661 2.16021E-02-8.56942E-02 2.68735E-02 6.13313E-02 4.03250E-04-2.55925E-04
 -1      2662 2.97263E-02-1.11671E-01 3.50556E-02 5.75226E-02-6.25110E-05-2.86025E-05
 -1      2663 3.05188E-02-1.17985E-01 3.79584E-02 7.17457E-02 2.65005E-04-3.16411E-04
 -1      2664-1.03011E-01 2.17108E-01-4.82594E-02 1.04982E-01-8.67857E-04-8.96409E-04
 -1      2665-1.17340E-01 2.61181E-01-6.16690E-02 9.87375E-02-1.32914E-03 1.31397E-04
 -1      2666-1.17220E-01 2.62998E-01-6.27235E-02 1.16350E-01-8.03351E-04 1.22845E-03
 -1      2667 5.38033E-02-1.97874E-01 6.09264E-02 1.05169E-01 6.25649E-04-4.76506E-04
 -1      2668 6.85656E-02-2.42640E-01 7.46912E-02 9.86522E-02 3.81579E-04-2.90345E-04
 -1      2669 6.91399E-02-2.46350E-01 7.62817E-02 1.14595E-01 1.08289E-03 1.98509E-04
 -1      2670 1.14448E-01-3.90343E-01 1.17738E-01 1.36308E-01 5.26715E-04-7.95932E-04
 -1      2671 1.38074E-01-4.71968E-01 1.43098E-01 1.25318E-01 1.07765E-04 1.66628E-04
 -1      2672 1.31537E-01-4.58508E-01 1.40781E-01 1.46573E-01 1.04705E-03-1.13523E-03
 -1      2673-6.81226E-02 9.79343E-02-1.21700E-02 6.45566E-02-5.44725E-04 2.83558E-04
 -1      2674-7.54491E-02 1.19676E-01-1.91818E-02 6.20390E-02-7.65684E-04 4.39593E-04
 -1      2675-7.75303E-02 1.29854E-01-2.30987E-02 7.53770E-02-5.51896E-04 6.00739E-04
 -1      2676 1.84444E-01-6.29798E-01 1.89628E-01 1.73251E-01 1.27821E-03 9.81632E-04
 -1      2677 2.20219E-01-7.48858E-01 2.26641E-01 1.56433E-01 1.01953E-03 9.82841E-04
 -1      2678 2.10649E-01-7.15199E-01 2.17414E-01 1.85489E-01 2.15325E-03 1.79640E-03
 -1      2679 2.77325E-01-9.31529E-01 2.80275E-01 2.10430E-01 7.61127E-04 2.20203E-03
 -1      2680 3.23262E-01-1.09240E+00 3.29555E-01 1.89996E-01 2.20329E-03 1.00401E-03
 -1      2681 3.00701E-01-1.02830E+00 3.11392E-01 2.21373E-01 8.16417E-04-1.03646E-03
 -1      2682 3.83359E-01-1.28720E+00 3.87173E-01 2.45133E-01 4.41040E-04-2.58042E-03
 -1      2683 4.45778E-01-1.50175E+00 4.52929E-01 2.19801E-01 1.05772E-03 7.32340E-04
 -1      2684 4.16354E-01-1.40611E+00 4.25907E-01 2.58793E-01 1.41436E-03 1.55474E-03
 -1      2685 4.95128E-01-1.66759E+00 5.01799E-01 2.87829E-01 1.58832E-03 1.34437E-03
 -1      2686 5.74096E-01-1.92348E+00 5.78554E-01 2.63387E-01 4.41071E-04 8.09781E-04
 -1      2687 5.33192E-01-1.80511E+00 5.45508E-01 2.98148E-01 1.21444E-03 1.87637E-03
 -1      2688 6.33616E-01-2.13087E+00 6.38877E-01 3.26019E-01 1.99649E-03-2.07384E-03
 -1      2689 7.30738E-01-2.44739E+00 7.35580E-01 2.91868E-01 3.58164E-03 5.27473E-04
 -1      2690 6.81611E-01-2.28291E+00 6.86865E-01 3.37558E-01 1.82402E-03 3.06067E-03
 -1      2691 7.93411E-01-2.64918E+00 7.92739E-01 3.61030E-01 1.21965E-03-1.92332E-03
 -1      2692 9.05550E-01-3.03455E+00 9.11214E-01 3.30437E-01-2.47136E-04-2.09132E-04
 -1      2693 8.40576E-01-2.81773E+00 8.48891E-01 3.74021E-01 2.70201E-03-1.72227E-03
 -1      2694 9.66491E-01-3.22179E+00 9.65984E-01 3.99697E-01 2.33655E-03-1.93610E-03
 -1      2695 1.10063E+00-3.68149E+00 1.10622E+00 3.65099E-01 1.97097E-03 8.40665E-05
 -1      2696 1.01324E+00-3.41463E+00 1.02949E+00 4.09896E-01 1.92989E-03 2.65757E-03
 -1      2697 8.39119E-01-2.83927E+00 8.55869E-01 5.35088E-01-1.86252E-03 2.40105E-03
 -1      2698 1.19892E+00-4.01783E+00 1.20705E+00 4.21360E-01 1.57117E-03 1.23019E-03
 -1      2699 1.38066E+00-4.62040E+00 1.38867E+00 3.67800E-01 1.59932E-04 2.68533E-03
 -1      2700 1.26201E+00-4.21385E+00 1.26871E+00 4.39816E-01 2.32740E-03 2.94630E-03
 -1      2701 8.26449E-01-2.79389E+00 8.46780E-01 5.56007E-01 3.02076E-03 3.03324E-03
 -1      2702-1.33253E+00 4.33660E+00-1.28340E+00 5.73565E-01-4.51304E-03-1.41143E-03
 -1      2703-1.27853E+00 4.13097E+00-1.22219E+00 5.98032E-01-1.18809E-03-1.96740E-03
 -1      2704-1.24303E+00 3.99865E+00-1.18191E+00 4.32162E-01-9.14014E-04-4.20121E-03
 -1      2705-8.54893E-01 2.75247E+00-8.16734E-01 5.46326E-01 7.18058E-04-8.12643E-04
 -1      2706-1.40844E+00 4.57081E+00-1.35636E+00 3.93017E-01-9.67117E-04-1.47146E-03
 -1      2707 1.29063E+00-4.30329E+00 1.28794E+00 4.97959E-01 1.51336E-03-3.09319E-03
 -1      2708 1.47137E+00-4.92373E+00 1.48020E+00 4.53929E-01 2.46563E-03 1.20282E-03
 -1      2709-9.29348E-01 2.98564E+00-8.80267E-01 6.13696E-01-3.06448E-03 1.63477E-03
 -1      2710 7.44855E-02 6.86118E-02-5.93769E-02 2.68769E-01-6.41384E-04 1.31325E-03
 -1      2711 4.93907E-02-1.06346E-01 2.50284E-02 8.14154E-01-4.30055E-03 1.89506E-03
 -1      2712-2.25963E-02 6.64795E-03 6.85664E-03 4.52847E-02 1.24749E-05-8.38766E-05
 -1      2713-2.42223E-02 7.81643E-03 7.03121E-03 1.05123E-01 1.54539E-04 3.39953E-04
 -1      2714-2.43108E-02 8.64815E-03 6.57510E-03 1.59171E-01 2.75215E-04-4.83771E-06
 -1      2715-2.25898E-02 5.79335E-03 6.96378E-03 2.17584E-01-3.33359E-04-1.90799E-04
 -1      2716-2.18105E-02 1.37675E-03 8.80159E-03 2.73583E-01 6.68557E-05 7.43270E-04
 -1      2717-2.03695E-02-3.40941E-03 1.02650E-02 3.29400E-01-2.37202E-04-2.40253E-04
 -1      2718 9.66319E-03-9.95965E-02 3.82080E-02 3.82663E-01-3.57970E-04 5.57435E-04
 -1      2719 3.90656E-02-2.03225E-01 7.19531E-02 4.38983E-01 6.49315E-04 1.50490E-03
 -1      2720 5.69387E-02-2.54640E-01 8.45459E-02 4.97217E-01 6.53558E-04-5.17388E-04
 -1      2721 7.59324E-02-3.17673E-01 1.03539E-01 5.44959E-01 5.67272E-04 9.82245E-06
 -1      2722 9.74087E-02-3.88833E-01 1.25226E-01 6.02401E-01-7.07914E-04-1.84660E-03
 -1      2723-2.75001E-03-5.73376E-02 2.32500E-02 7.76967E-01 1.68288E-03-6.38387E-04
 -1      2724-1.83947E-02-1.08120E-02 1.25307E-02 6.65834E-01 7.77635E-05 2.15479E-03
 -1      2725 6.57995E-02-2.94875E-01 9.85111E-02 7.19523E-01 8.37071E-04 8.26233E-04
 -1      2726-7.67459E-01 3.73042E+00-1.26027E+00-1.73705E-01-3.19088E-03 1.76221E-02
 -1      2727 7.37055E-01-3.56396E+00 1.21673E+00-3.85809E-01-7.56114E-03 3.65476E-03
 -1      2728-9.54265E-03 4.94736E-04 3.85090E-03 1.39797E-02-2.11658E-05-3.76232E-05
 -1      2729-6.67585E-01 2.12719E+00-6.27596E-01 5.65341E-01 3.11158E-03-2.43163E-03
 -1      2730-5.62347E-01 1.76627E+00-5.15279E-01 5.13562E-01 1.31223E-03-4.02626E-04
 -1      2731-4.65987E-01 1.44552E+00-4.19921E-01 4.69801E-01 4.64852E-04 1.83819E-04
 -1      2732-3.79420E-01 1.15910E+00-3.35101E-01 4.09494E-01 1.42366E-03-1.72233E-03
 -1      2733-2.90773E-01 8.66416E-01-2.47725E-01 3.73504E-01 2.25897E-03-1.69688E-03
 -1      2734-2.26107E-01 6.53840E-01-1.85177E-01 3.23591E-01-5.17068E-04 2.51358E-04
 -1      2735-1.72318E-01 4.65356E-01-1.25558E-01 2.69879E-01 1.05183E-03-1.11192E-03
 -1      2736-1.26058E-01 3.14390E-01-8.02786E-02 2.19062E-01-1.04051E-03-1.46981E-04
 -1      2737-2.91873E-03-2.91487E-02 1.38159E-02 6.55217E-02 1.37391E-04 1.44608E-04
 -1      2738 1.57596E-02-8.71999E-02 2.97254E-02 1.16881E-01-5.54391E-04 2.24623E-05
 -1      2739-8.83681E-02 1.88880E-01-4.30425E-02 1.67469E-01-3.37588E-04-5.84152E-04
 -1      2740 6.27893E-01-2.12920E+00 6.43694E-01 5.59166E-01-8.00756E-04 2.80906E-04
 -1      2741-3.24847E-02 1.61835E-02 7.05859E-03 4.71431E-03-1.30268E-04-1.21762E-04
 -1      2742-8.42725E-01 2.71492E+00-8.05731E-01 6.11322E-01 5.32894E-04-2.28957E-04
 -1      2743 5.20966E-01-1.77550E+00 5.39346E-01 5.10169E-01 9.16980E-04-2.16303E-03
 -1      2744 4.25740E-01-1.44448E+00 4.33626E-01 4.66348E-01 7.19774E-04-4.15242E-04
 -1      2745 3.38238E-01-1.14887E+00 3.44051E-01 4.15471E-01-6.69133E-04 1.05817E-05
 -1      2746 2.57217E-01-9.01644E-01 2.78254E-01 3.66003E-01 1.59717E-04-5.83582E-05
 -1      2747 1.89814E-01-6.72155E-01 2.07572E-01 3.14329E-01-1.70811E-03-1.20022E-04
 -1      2748 1.31291E-01-4.74221E-01 1.47106E-01 2.63479E-01 2.71235E-04-3.65580E-04
 -1      2749 8.29397E-02-3.13458E-01 9.87993E-02 2.16568E-01 2.11530E-04 5.15509E-06
 -1      2750 4.30266E-02-1.80149E-01 5.87739E-02 1.68405E-01-3.51038E-04-5.79848E-04
 -1      2751-6.26716E-02 1.01267E-01-1.64806E-02 1.16560E-01-1.14557E-04 1.19048E-04
 -1      2752-4.68420E-02 4.46334E-02 1.06772E-03 6.42832E-02-1.66388E-05-5.21914E-05
 -1      2753 7.72650E-01-2.60916E+00 7.87776E-01 6.02495E-01 6.70041E-04 1.44664E-03
 -1      2754 1.21261E+00-4.15988E+00 1.26318E+00 6.21910E-01-3.63067E-03-8.43882E-04
 -1      2755-1.07542E+00 4.04115E+00-1.26871E+00 7.69128E-01 4.39824E-03-2.94058E-03
 -1      2756 9.87349E-01-3.33166E+00 1.00716E+00 6.38209E-01-5.43848E-03-9.74402E-04
 -1      2757 1.10262E+00-3.69031E+00 1.11045E+00 6.77005E-01-1.17990E-03 1.37316E-03
 -1      2758-1.12604E+00 3.66096E+00-1.08597E+00 6.90145E-01 3.48309E-03-1.30155E-03
 -1      2759-1.02272E+00 3.29577E+00-9.74418E-01 6.30431E-01 1.76177E-03-2.65615E-03
 -1      2760-1.16308E+00 5.51686E+00-1.87773E+00 6.64600E-01 1.29394E-03 1.40052E-02
 -1      2761 1.26051E+00-5.34802E+00 1.74951E+00 4.13028E-01-4.23430E-03-4.17586E-03
 -1      2762-4.24554E-02 2.66067E-02 6.79829E-03 3.29101E-02 3.18427E-05-1.25196E-04
 -1      2763-5.22957E-01 1.60583E+00-4.62651E-01 3.29091E-01 9.58300E-04 1.27759E-03
 -1      2764-6.32506E-01 1.98400E+00-5.79430E-01 3.76642E-01-2.68434E-05-9.38084E-06
 -1      2765-4.06635E-01 1.23481E+00-3.55711E-01 2.84476E-01 1.07751E-03 1.09886E-03
 -1      2766-2.83677E-01 8.21554E-01-2.30494E-01 2.63418E-01 1.45253E-03 3.29452E-04
 -1      2767-7.71145E-01 2.44413E+00-7.17347E-01 4.19667E-01 1.98185E-03-8.10319E-04
 -1      2768 1.64427E+00-5.46626E+00 1.63836E+00 5.64068E-01-4.73197E-04-1.99170E-03
 -1      2769-2.07445E-01 5.69908E-01-1.55094E-01 2.17758E-01 1.22303E-03 5.94246E-04
 -1      2770-9.35988E-01 3.01467E+00-8.95644E-01 4.51997E-01 9.58956E-04-5.10079E-04
 -1      2771-1.45775E-01 3.65335E-01-9.41052E-02 1.67747E-01 7.82347E-04 3.98953E-05
 -1      2772-2.27383E-03-1.74728E-02 8.41559E-03 3.45275E-02-1.83261E-04-4.06180E-05
 -1      2773 2.05754E-02-8.76956E-02 2.86599E-02 7.59314E-02-1.20085E-04 7.31976E-05
 -1      2774-9.53358E-02 1.98968E-01-4.45320E-02 1.27666E-01 2.78122E-04-1.56508E-04
 -1      2775 4.63140E-02-1.80960E-01 5.78724E-02 1.26914E-01-7.91633E-04-9.16261E-05
 -1      2776 1.03616E-01-3.63199E-01 1.10598E-01 1.63132E-01-4.14385E-04 8.94200E-05
 -1      2777-6.54493E-02 9.71696E-02-1.37995E-02 8.14178E-02 1.65407E-04 2.48044E-04
 -1      2778 1.67441E-01-5.82548E-01 1.78412E-01 2.07015E-01-5.68711E-04 3.99969E-04
 -1      2779 2.46662E-01-8.43954E-01 2.55990E-01 2.44692E-01-9.21233E-04-8.07757E-04
 -1      2780 3.44231E-01-1.16418E+00 3.51364E-01 2.91524E-01-1.19323E-03 6.50237E-04
 -1      2781 4.35170E-01-1.47213E+00 4.44222E-01 3.36233E-01-1.20998E-03-4.83771E-04
 -1      2782 5.54057E-01-1.87093E+00 5.64578E-01 3.85486E-01-9.05801E-04-2.22272E-05
 -1      2783 6.88042E-01-2.31738E+00 6.98067E-01 4.21129E-01-1.41154E-03 8.02543E-04
 -1      2784 8.37199E-01-2.81257E+00 8.47120E-01 4.72731E-01-1.91094E-03-7.26099E-04
 -1      2785 1.09195E+00-3.65285E+00 1.09692E+00 4.76450E-01-1.18873E-03 2.90587E-04
 -1      2786-1.75112E+00 5.71270E+00-1.70068E+00 4.86555E-01 2.77061E-03-9.02644E-04
 -1      2787-1.10950E+00 3.55419E+00-1.04669E+00 4.96272E-01 4.79910E-04 1.89941E-03
 -1      2788 1.05716E+00-3.54165E+00 1.06415E+00 5.93720E-01-3.50259E-03-1.13096E-03
 -1      2789-1.52329E+00 5.04612E+00-1.50913E+00 6.85888E-01 1.66815E-03-2.22262E-03
 -1      2790-1.24442E+00 4.02184E+00-1.18753E+00 5.49939E-01 6.42151E-04 2.35338E-03
 -1      2791 1.33997E+00-4.48575E+00 1.34796E+00 6.13084E-01 7.43001E-04-3.63850E-04
 -1      2792-1.37943E+00 5.80543E+00-1.87791E+00 3.50023E-01-1.43132E-01 1.92305E-02
 -1      2793-1.99278E-03-1.42482E-03 1.42767E-03 3.08165E-03 2.30504E-05-6.63834E-05
 -1      2794-2.26474E-02 3.59094E-02-1.48673E-02-7.20851E-01-9.14638E-03 1.63274E-02
 -1      2795 1.29344E+00-5.67547E+00 1.86388E+00 4.50629E-02 1.21991E-01 3.27640E-02
 -1      2796-5.27619E-02 4.54553E-02 3.06557E-03 4.00240E-02-1.89495E-04-1.35966E-04
 -1      2797-1.44255E+00 7.11275E+00-2.43387E+00 7.15873E-01 5.25800E-03-6.49819E-04
 -1      2798-1.38835E-02 1.47490E-01-4.69859E-02-2.89594E-01 1.80257E-04 6.51224E-03
 -1      2799-1.28325E-02 5.22289E-03 3.27448E-03 4.66854E-03 1.05304E-05 2.60120E-05
 -1      2800-2.51516E-02 1.10166E-02 6.08549E-03 2.72777E-02 3.57223E-05-1.57218E-05
 -1      2801 9.98711E-04-1.22023E-02 4.69861E-03 1.56717E-02-2.56250E-05-6.10493E-05
 -1      2802-6.12563E-01 1.91002E+00-5.56130E-01 2.47177E-01-8.42913E-04-4.71838E-04
 -1      2803 1.63649E-01-3.10376E-01 6.25372E-02 6.66147E-01 8.55674E-06 1.09567E-03
 -1      2804-7.70664E-01 2.43610E+00-7.13308E-01 2.75632E-01 9.41782E-05 1.46315E-04
 -1      2805-4.73661E-01 1.44060E+00-4.13332E-01 2.13667E-01 1.51493E-03-7.48918E-04
 -1      2806-9.53228E-01 3.03003E+00-8.87630E-01 3.16655E-01 2.36822E-04 2.21995E-04
 -1      2807-1.15101E+00 3.70347E+00-1.09394E+00 3.45570E-01-7.02290E-04 2.06847E-03
 -1      2808-3.49101E-01 1.03067E+00-2.92467E-01 1.83796E-01-5.94116E-04-4.78897E-04
 -1      2809 1.09127E+00-5.94271E+00 2.08771E+00 2.38872E+00 9.07049E-02-4.85855E-02
 -1      2810-7.43915E-03-1.85109E-03 3.24169E-03-8.16720E-03-5.34920E-04 2.56878E-05
 -1      2811-2.49870E-01 6.99300E-01-1.93404E-01 1.51484E-01 5.60792E-04-6.99454E-04
 -1      2812-1.68903E-01 4.26939E-01-1.10342E-01 1.18068E-01 3.58014E-05 2.19773E-04
 -1      2813-1.08707E-01 2.28179E-01-5.14494E-02 8.40458E-02 3.74569E-04-3.77363E-04
 -1      2814-1.36655E+00 4.42040E+00-1.30769E+00 3.78015E-01-7.22513E-04 6.72024E-04
 -1      2815-6.96719E-02 9.53109E-02-1.07775E-02 5.04124E-02-9.06528E-05-3.40030E-04
 -1      2816-8.48084E-02 2.05204E-01-5.22706E-02 7.41783E-01 8.57172E-04-3.02617E-04
 -1      2817-6.28611E-02 1.70861E-01-4.46604E-02 7.98860E-01-2.47626E-04-1.18121E-03
 -1      2818 1.20570E-01-4.11943E-01 1.25158E-01 1.14177E-01 2.26685E-04-6.78316E-04
 -1      2819 1.99766E-01-6.73475E-01 2.02995E-01 1.47205E-01-1.80584E-05-1.01759E-04
 -1      2820 3.00065E-01-1.00474E+00 3.00975E-01 1.78859E-01-1.39075E-03-1.20752E-04
 -1      2821 4.18121E-01-1.40161E+00 4.21553E-01 2.09401E-01-4.15313E-04-3.30130E-04
 -1      2822 2.10866E-02-8.02080E-02 2.54916E-02 5.01011E-02-2.95926E-04-5.93000E-05
 -1      2823 5.54327E-01-1.85407E+00 5.56367E-01 2.44359E-01-6.10984E-04-2.11601E-04
 -1      2824 9.98958E-03-4.35037E-02 1.41550E-02 3.61192E-02 1.16806E-05-1.84965E-04
 -1      2825 5.94820E-02-2.08565E-01 6.40046E-02 8.44471E-02-3.57505E-04 3.73902E-05
 -1      2826 7.09934E-01-2.37863E+00 7.15928E-01 2.75944E-01-6.11990E-04-5.56170E-05
 -1      2827 4.21880E-02-1.50076E-01 4.64355E-02 6.92253E-02-9.06402E-05-2.82370E-04
 -1      2828 8.86875E-01-2.97021E+00 8.94397E-01 3.11920E-01-3.04845E-06-1.08718E-03
 -1      2829-2.56964E-02 1.06303E-02 6.65483E-03 1.38337E-01 1.10668E-04 1.69829E-04
 -1      2830 1.08354E+00-3.61978E+00 1.08666E+00 3.41017E-01-1.28681E-03-1.07042E-03
 -1      2831-2.52739E-02 9.53280E-03 6.72057E-03 8.25136E-02 1.22590E-04 7.80639E-05
 -1      2832 1.31004E+00-4.37514E+00 1.31304E+00 3.74607E-01 7.71052E-04 1.32293E-03
 -1      2833-2.28634E-02 2.12439E-03 9.27303E-03 1.94077E-01 1.16111E-04-1.19675E-04
 -1      2834-2.09533E-02-3.02793E-03 1.06966E-02 2.54129E-01-5.54872E-04-6.94347E-04
 -1      2835-1.99738E-02-7.40321E-03 1.22971E-02 3.04316E-01 1.30918E-04-7.28333E-04
 -1      2836-1.67722E-02-9.41243E-03 9.61785E-03 3.66101E-01-7.18799E-04 3.40036E-04
 -1      2837-1.71046E-02-1.70720E-02 1.48988E-02 4.17829E-01-8.46822E-04-1.12250E-03
 -1      2838-8.76695E-03-4.37418E-02 2.29166E-02 4.71465E-01 1.75568E-03-7.12822E-04
 -1      2839-4.46895E-03-5.27808E-02 2.33502E-02 5.28045E-01-1.54606E-03-8.07596E-04
 -1      2840-1.56001E-03-6.36920E-02 2.81086E-02 5.80680E-01-6.58867E-04-7.14606E-04
 -1      2841-1.54648E-02-1.77283E-02 1.41472E-02 6.42498E-01-1.73398E-04-2.15296E-03
 -1      2842-7.35168E-03-4.58379E-02 2.31246E-02 6.93112E-01-3.93034E-04 1.74335E-04
 -1      2843 2.33286E-02-1.49435E-01 5.44444E-02 6.20701E-01-2.49686E-03 9.15870E-04
 -1      2844 1.63137E-02-1.39430E-01 5.55529E-02 5.70880E-01 6.80894E-04-4.26562E-04
 -1      2845 1.20655E+00-4.03244E+00 1.21017E+00 3.61855E-01-2.43854E-04-8.82945E-05
 -1      2846 1.50952E+00-5.05223E+00 1.52102E+00 4.20804E-01-1.56005E-03-2.55412E-03
 -1      2847 1.02957E-02-1.04914E-01 4.09093E-02 5.12204E-01-4.42319E-04 4.63639E-04
 -1      2848-3.42459E-03-5.42511E-02 2.40262E-02 4.54333E-01-1.72233E-03 4.50863E-04
 -1      2849 9.97715E-01-3.33599E+00 1.00155E+00 3.37904E-01-1.20709E-03 1.59924E-04
 -1      2850-1.21038E-02-3.15779E-02 1.87728E-02 3.99262E-01-6.10046E-04-1.50325E-04
 -1      2851-1.87188E-02-1.00350E-02 1.32648E-02 3.44426E-01-6.81126E-04 8.49378E-04
 -1      2852 8.10020E-01-2.71206E+00 8.14753E-01 2.94726E-01-1.14340E-03-3.12283E-04
 -1      2853-2.06642E-02-1.67178E-03 9.38775E-03 2.90560E-01 4.32534E-04 6.59970E-04
 -1      2854-2.22190E-02 9.26015E-04 9.52146E-03 2.34234E-01-4.09928E-04 8.93847E-04
 -1      2855-2.34799E-02 6.23057E-03 7.40949E-03 1.22090E-01-4.90031E-05 2.55716E-05
 -1      2856-2.28432E-02 6.03389E-03 7.10239E-03 1.76952E-01 6.82724E-04-3.69199E-04
 -1      2857 6.41386E-01-2.14986E+00 6.45931E-01 2.64068E-01-6.59921E-04 2.12355E-04
 -1      2858-2.41818E-02 7.32857E-03 7.23567E-03 6.40858E-02 5.98156E-05 1.23962E-05
 -1      2859 4.96134E-01-1.66316E+00 4.99558E-01 2.31142E-01-6.29181E-04-2.98818E-04
 -1      2860 3.64888E-01-1.23450E+00 3.73930E-01 1.99956E-01-1.11485E-03 9.58039E-05
 -1      2861 2.55398E-01-8.60749E-01 2.58832E-01 1.66399E-01-1.00623E-03-6.20527E-04
 -1      2862 2.04895E+00-7.36116E+00 2.26998E+00 5.51728E-01-6.94745E-03-3.29539E-03
 -1      2863 1.64984E-01-5.60028E-01 1.69271E-01 1.35079E-01-4.52464E-04-2.87564E-05
 -1      2864 9.19538E-02-3.18673E-01 9.71510E-02 1.03889E-01-6.09895E-04-3.43470E-04
 -1      2865-7.77164E-01 2.90599E+00-8.39911E-01-5.31847E-01-1.37092E-01-1.00957E-03
 -1      2866-1.40288E-01 3.34745E-01-8.30113E-02 1.05245E-01 7.36917E-04 4.36265E-05
 -1      2867-2.04160E+00 7.49851E+00-2.33637E+00 8.13127E-01 2.02581E-03 5.12354E-03
 -1      2868-2.12541E-01 5.76784E-01-1.56392E-01 1.38444E-01 1.10021E-03-5.89638E-04
 -1      2869 1.43611E+00-4.79224E+00 1.43712E+00 3.91742E-01-8.64322E-05-2.00651E-03
 -1      2870-3.02837E-01 8.77089E-01-2.45977E-01 1.69767E-01 1.86628E-04-5.55587E-04
 -1      2871-9.06388E-02 1.66583E-01-3.21596E-02 6.91310E-02 2.20200E-04-4.05541E-04
 -1      2872-1.14776E-02-2.70854E-03 6.14441E-03 2.88457E-02 1.22327E-04 1.04303E-04
 -1      2873-4.14242E-01 1.24705E+00-3.56201E-01 2.04937E-01 4.83550E-04-1.57732E-04
 -1      2874 1.44277E+00-6.66705E+00 2.23355E+00 4.10454E-01-9.22028E-03 1.18063E-02
 -1      2875-5.48588E-01 1.69603E+00-4.91647E-01 2.32479E-01 5.67117E-04-4.56152E-04
 -1      2876-5.48434E-01 3.07928E+00-1.08901E+00 1.70541E-01 4.66710E-03 3.61202E-03
 -1      2877-1.67122E+00 5.43691E+00-1.61427E+00 4.34821E-01 7.27923E-04 8.77534E-04
 -1      2878-7.66211E-01 2.41491E+00-7.06623E-01 2.27304E-01 4.18337E-04-1.39602E-03
 -1      2879-9.50610E-01 3.02975E+00-8.90221E-01 2.58580E-01 8.05107E-04 3.06958E-04
 -1      2880-1.13359E-02-3.60046E-02 2.05290E-02 6.69541E-01-1.04630E-03 1.88063E-03
 -1      2881-1.15738E+00 3.72376E+00-1.10020E+00 2.92916E-01 9.68597E-04-6.18700E-04
 -1      2882 6.80502E-01-2.83719E+00 8.72681E-01-6.44322E-01 1.50551E-01 7.34311E-03
 -1      2883-1.38814E+00 4.48894E+00-1.32913E+00 3.09630E-01 1.07889E-03-1.54789E-03
 -1      2884 2.14495E+00-7.15974E+00 2.14768E+00 4.48213E-01 2.72382E-03-9.14413E-04
 -1      2885 2.01121E+00-6.70207E+00 2.01019E+00 4.42548E-01-3.80412E-05-3.97020E-04
 -1      2886-2.27409E-01 6.53507E-01-1.82427E-01 3.42639E-01 1.26144E-03-6.24594E-04
 -1      2887 8.33586E-01-3.13535E+00 9.86556E-01 4.67609E-01 1.15138E-03 7.75263E-04
 -1      2888-2.74709E-01 8.15608E-01-2.31439E-01 4.00334E-01-9.63713E-04 9.12426E-04
 -1      2889-1.31777E+00 6.20583E+00-1.98598E+00 1.70288E+00-4.17685E-01 4.12768E-02
 -1      2890-1.68051E-01 4.60316E-01-1.26010E-01 2.87846E-01 9.23206E-04 4.24678E-04
 -1      2891 2.00376E+00-6.68528E+00 2.00666E+00 4.02387E-01 6.67669E-04-1.90900E-04
 -1      2892-3.40282E-01 1.03365E+00-2.96548E-01 4.49605E-01 3.88398E-04 4.28844E-04
 -1      2893-1.25738E-01 3.15835E-01-8.15068E-02 2.35354E-01-8.25425E-04-3.55067E-04
 -1      2894-4.13644E-01 1.27830E+00-3.70852E-01 4.97366E-01 1.25714E-04-9.02340E-04
 -1      2895-4.60868E-02 1.82187E-02 1.22289E-02-2.82368E-03-2.46205E-04-8.95637E-04
 -1      2896-4.99170E-01 1.56283E+00-4.56941E-01 5.52789E-01-1.00252E-03 4.98534E-04
 -1      2897-8.97123E-02 1.98571E-01-4.74478E-02 1.87413E-01-6.10255E-04-1.06877E-04
 -1      2898-1.66445E+00 5.41193E+00-1.60647E+00 3.33863E-01 2.02297E-03-7.51266E-04
 -1      2899-1.84051E+00 6.00311E+00-1.78520E+00 4.02715E-01 2.46170E-03 4.16186E-04
 -1      2900-2.06032E+00 6.73983E+00-2.00485E+00 4.61290E-01-4.77022E-04-1.75284E-03
 -1      2901-5.27287E-01 2.61593E+00-8.95682E-01 6.05898E-01 1.65563E-03 1.89523E-03
 -1      2902-1.96156E+00 6.40133E+00-1.90205E+00 4.41543E-01 6.66057E-05 3.40044E-04
 -1      2903-2.28178E+00 7.58859E+00-2.26832E+00 5.47101E-01 1.04966E-03-5.28011E-03
 -1      2904-6.16648E-01 1.95042E+00-5.70938E-01 6.01821E-01-1.62022E-03 1.63351E-03
 -1      2905 1.84933E+00-6.16934E+00 1.85101E+00 3.56863E-01-1.32423E-03-1.57586E-05
 -1      2906 5.66145E-01-1.92518E+00 5.80853E-01 6.19480E-01 5.84611E-04-1.15492E-03
 -1      2907-6.39811E-02 1.13507E-01-2.20555E-02 1.33991E-01 3.53855E-04-2.65783E-04
 -1      2908-6.67509E-01 5.68580E+00-2.08449E+00 3.07996E+00-4.40010E-01-9.66892E-02
 -1      2909-4.67580E-02 5.18462E-02-2.33413E-03 8.18004E-02 5.70833E-05-2.25362E-04
 -1      2910 1.57533E-02-9.51714E-02 3.40223E-02 1.32355E-01-3.65506E-04 4.11446E-04
 -1      2911-1.43302E-03-3.79227E-02 1.69009E-02 8.14009E-02 9.57604E-05-3.72924E-04
 -1      2912 2.14133E-04-3.65403E-03 1.39359E-03 4.16528E-03 3.02588E-05-1.61011E-04
 -1      2913-2.91780E-01 1.14834E+00-3.68170E-01 7.75513E-01-1.02544E-03-5.03176E-04
 -1      2914 5.95145E-01-2.02325E+00 6.11724E-01 5.95745E-01 2.16232E-03 1.42682E-03
 -1      2915 5.07814E-01-1.73327E+00 5.25860E-01 5.28167E-01 9.26976E-04 5.65394E-04
 -1      2916 4.14870E-01-1.42215E+00 4.31318E-01 4.81682E-01 3.72718E-04 5.10664E-04
 -1      2917 3.31028E-01-1.14474E+00 3.48662E-01 4.28525E-01-3.37544E-04 6.91217E-04
 -1      2918 2.55642E-01-8.90710E-01 2.72579E-01 3.83908E-01-3.71762E-05 1.10670E-03
 -1      2919 1.91718E-01-6.66857E-01 2.01358E-01 3.33293E-01-2.38302E-04 4.54933E-04
 -1      2920 1.27399E-01-4.67862E-01 1.45741E-01 2.82682E-01 9.88446E-04-4.52503E-04
 -1      2921 8.32995E-02-3.17327E-01 1.00408E-01 2.31599E-01 1.69077E-04-1.09617E-03
 -1      2922 4.55224E-02-1.92340E-01 6.27209E-02 1.80805E-01-5.43639E-04 2.33346E-04
 -1      2923 5.47108E-01-2.45300E+00 8.19319E-01 5.09100E-02-2.05583E-03 6.42111E-03
 -1      2924 6.78841E-01-2.30753E+00 6.98334E-01 6.38721E-01-1.98602E-03 1.45285E-04
 -1      2925 5.56055E-01-1.89955E+00 5.76413E-01 5.51996E-01 5.29627E-04 4.57175E-04
 -1      2926 6.35805E-03-6.22704E-02 2.38674E-02 1.04421E-01 4.22988E-05-4.23846E-04
 -1      2927-6.08452E-01 1.92800E+00-5.66700E-01 6.80179E-01 7.97733E-04 1.40200E-04
 -1      2928-6.27924E-02 7.02555E-02-3.13796E-03 3.49870E-02-2.14524E-04-2.74291E-04
 -1      2929-8.10946E-03-1.58306E-02 1.03766E-02 5.27675E-02 1.36686E-04 1.27826E-04
 -1      2930 4.61583E-01-1.57063E+00 4.73943E-01 5.10214E-01 7.81610E-04-4.23131E-04
 -1      2931 3.69815E-01-1.27611E+00 3.89052E-01 4.50694E-01-4.17910E-04-1.28163E-03
 -1      2932 2.89389E-01-1.00468E+00 3.06556E-01 4.01369E-01 2.74724E-04-1.54870E-03
 -1      2933 8.38981E-01-2.79467E+00 8.38113E-01 7.25381E-01-4.89870E-04-9.90565E-04
 -1      2934 2.19350E-01-7.68609E-01 2.35449E-01 3.51190E-01-1.23694E-03-9.25701E-04
 -1      2935 1.54722E-01-5.52523E-01 1.70987E-01 3.06071E-01 5.73080E-04 9.80550E-05
 -1      2936 1.02615E-01-3.83016E-01 1.20262E-01 2.54587E-01 6.93068E-04-4.89983E-04
 -1      2937 6.18448E-02-2.45553E-01 7.90269E-02 2.06154E-01 3.57451E-04 1.16677E-03
 -1      2938 2.74290E-02-1.32380E-01 4.50051E-02 1.56615E-01-5.18849E-04-3.73680E-04
 -1      2939 8.20772E-01-2.69223E+00 8.01809E-01 7.17831E-01 3.60126E-04 7.92948E-05
 -1      2940 3.01553E-01-1.05369E+00 3.23848E-01 7.59063E-01-5.09832E-04-1.23365E-03
 -1      2941 2.87347E-01-1.01668E+00 3.12747E-01 7.07035E-01-2.39126E-04 9.00886E-04
 -1      2942-9.19622E-01 2.95635E+00-8.72866E-01 6.72043E-01 2.37556E-04 1.65124E-04
 -1      2943-7.98167E-01 2.55801E+00-7.53808E-01 7.17220E-01 1.05025E-04 8.43531E-04
 -1      2944 1.45343E+00-6.24516E+00 1.95884E+00 1.14295E+00 3.36017E-01 2.27310E-02
 -1      2945 6.07370E-04-1.01773E-03 1.15882E-04 2.32577E-03 3.88847E-04 3.06718E-04
 -1      2946-4.14032E-05 4.27135E-04-1.25304E-04-7.77964E-04 9.59005E-05-6.57873E-05
 -1      2947-1.91476E-04-2.08848E-04 1.57563E-04-1.98019E-05-4.12942E-05-6.98990E-06
 -1      2948-5.34227E-02 7.48477E-02-8.90508E-03 1.05701E-01 1.79866E-04-2.49974E-04
 -1      2949-7.56243E-02 1.47453E-01-3.07609E-02 1.59380E-01-1.74549E-04 1.66509E-04
 -1      2950-8.10530E-01 2.66489E+00-7.92727E-01 7.41724E-01-3.45189E-04 1.17992E-03
 -1      2951-1.48443E-02 5.88636E-03 3.76580E-03-5.77731E-04-1.85902E-04-1.90660E-04
 -1      2952-4.77663E-02 2.33089E-02 1.07302E-02 1.58005E-02 1.18577E-04-2.34489E-04
 -1      2953-1.06573E-01 2.50144E-01-6.08351E-02 2.09605E-01-1.02513E-03-2.06930E-04
 -1      2954-1.67506E+00 7.58068E+00-2.53998E+00 1.23578E+00-2.31456E-02 3.53650E-02
 -1      2955 7.14888E-01-2.42807E+00 7.33779E-01 6.92846E-01-2.79812E-03 1.32879E-03
 -1      2956 1.90597E+00-6.36208E+00 1.90856E+00 3.84744E-01 1.52812E-05 1.06782E-03
 -1      2957-1.44077E-01 3.79105E-01-1.00803E-01 2.57657E-01 3.69744E-04-6.33705E-04
 -1      2958-2.14227E+00 8.94871E+00-2.95055E+00 9.74551E-01-6.88255E-03 2.35048E-02
 -1      2959-3.84863E-02 2.59985E-02 5.65919E-03 5.29472E-02 5.83475E-05-1.64593E-04
 -1      2960-1.91535E-01 5.35137E-01-1.46699E-01 3.09226E-01 2.13674E-04 5.09561E-04
 -1      2961-2.47840E-01 7.25574E-01-2.05572E-01 3.58846E-01 1.44102E-03-7.90508E-04
 -1      2962-5.26971E-02 3.65103E-02 7.00059E-03 2.25174E-02-4.07753E-05-3.61077E-04
 -1      2963-1.79896E-04 1.58366E-03-5.74954E-04 1.36430E-03 2.96688E-04 9.63074E-05
 -1      2964-1.18987E-04 9.52585E-04-3.52022E-04-1.89390E-05 6.66557E-05-1.86490E-05
 -1      2965 1.72559E+00-7.61038E+00 2.53738E+00 8.39033E-01 4.02296E-02 3.64952E-02
 -1      2966-5.52671E-03 1.20855E-03 1.84734E-03 3.31651E-03-4.41194E-05-1.31692E-05
 -1      2967-2.26925E-01 6.64491E-01-1.87199E-01 4.24067E-01-2.41217E-04 1.12509E-03
 -1      2968-1.72117E+00 5.59744E+00-1.66037E+00 3.39052E-01 1.58185E-03-1.43053E-03
 -1      2969-2.73723E-01 8.14760E-01-2.31126E-01 4.75854E-01-2.24537E-04-2.71923E-04
 -1      2970-3.28655E-01 1.00216E+00-2.87404E-01 5.29548E-01 8.70727E-04-5.95777E-04
 -1      2971-5.29542E-01 1.66965E+00-4.89285E-01 6.68434E-01 7.19978E-06 2.03721E-03
 -1      2972-3.96111E-01 1.22901E+00-3.57231E-01 5.83763E-01-1.40755E-03-8.06145E-04
 -1      2973-1.71540E+00 5.57698E+00-1.65486E+00 2.61593E-01 1.52139E-03 1.30103E-03
 -1      2974-2.32889E-02 1.12195E-02 5.13757E-03 1.33179E-02-6.58646E-05-4.58224E-06
 -1      2975 2.10587E+00-8.40690E+00 2.72812E+00 6.51304E-01-1.01473E-02 4.41105E-02
 -1      2976-1.45807E+00 4.71926E+00-1.39858E+00 2.36163E-01 1.35793E-03 5.38448E-04
 -1      2977-1.21273E+00 3.90076E+00-1.15132E+00 2.09647E-01 7.83985E-04-2.97126E-04
 -1      2978 1.88867E+00-6.30150E+00 1.89128E+00 2.97339E-01-2.09426E-03 1.47208E-05
 -1      2979-9.91111E-01 3.16145E+00-9.30630E-01 1.88783E-01 1.85292E-03-1.82386E-03
 -1      2980-7.90099E-01 2.49197E+00-7.28729E-01 1.64268E-01 8.64584E-04 6.87247E-04
 -1      2981-3.58408E-02 1.90111E-02 7.33325E-03 1.98145E-02-4.75597E-05-6.82344E-05
 -1      2982-6.13641E-01 1.90006E+00-5.50152E-01 1.42091E-01 1.68684E-03 3.87052E-04
 -1      2983-5.17507E-01 1.62417E+00-4.72294E-01 6.26542E-01-3.86145E-04 1.13835E-04
 -1      2984-4.47956E-01 1.35208E+00-3.86676E-01 1.33365E-01 8.21496E-04 5.60662E-04
 -1      2985-3.21133E-01 9.29347E-01-2.60300E-01 1.11048E-01 9.97229E-04 1.15221E-03
 -1      2986 7.08290E-03-2.76308E-02 8.78202E-03 1.78513E-02 2.19207E-05-4.12712E-06
 -1      2987 3.86211E-02-1.32218E-01 4.02160E-02 3.68482E-02-3.00753E-04 1.52809E-04
 -1      2988-2.19533E-01 5.91344E-01-1.59393E-01 8.75837E-02 6.08571E-04-1.86647E-04
 -1      2989 9.03338E-02-3.05523E-01 9.23959E-02 6.77967E-02-5.60061E-04-6.40988E-04
 -1      2990 1.71893E-01-5.76667E-01 1.73540E-01 8.00135E-02-7.03624E-04 2.01512E-04
 -1      2991 2.51271E+00-8.37202E+00 2.51146E+00 2.87744E-01-2.07559E-03-8.55759E-04
 -1      2992-1.39491E-01 3.23996E-01-7.88906E-02 6.85035E-02 4.25814E-04 3.73895E-05
 -1      2993 2.75012E-01-9.18843E-01 2.75435E-01 1.02980E-01-1.01554E-03-3.65268E-04
 -1      2994 4.00397E-01-1.33560E+00 4.00231E-01 1.25432E-01-1.03401E-03 2.74928E-04
 -1      2995-8.65245E-02 1.48055E-01-2.62322E-02 4.19375E-02 3.35952E-04-2.15053E-04
 -1      2996 5.49322E-01-1.83473E+00 5.50438E-01 1.46623E-01-8.23625E-04 1.77434E-03
 -1      2997 7.12559E-01-2.37793E+00 7.13430E-01 1.73873E-01-1.17932E-03-5.73816E-04
 -1      2998 9.06441E-01-3.02449E+00 9.07621E-01 2.00763E-01-1.75627E-03-1.12528E-05
 -1      2999-1.01381E+00 5.97308E+00-1.90061E+00 2.02090E+00-7.42369E-01-9.01136E-02
 -1      3000 1.12090E+00-3.74491E+00 1.12555E+00 2.16495E-01-1.07627E-03 1.20236E-03
 -1      3001 1.36409E+00-4.54979E+00 1.36475E+00 2.39907E-01-1.55839E-03-1.51275E-05
 -1      3002 1.67398E+00-5.58215E+00 1.67422E+00 2.41279E-01-1.13441E-03 1.28362E-03
 -1      3003 2.72650E+00-9.28056E+00 2.81281E+00 2.96954E-01-7.78216E-03 5.93856E-03
 -1      3004 2.75677E+00-9.63102E+00 2.94829E+00 4.69779E-01-1.60921E-02-1.84352E-02
 -1      3005 2.75538E+00-1.02944E+01 3.23577E+00 1.15335E+00-1.32191E-03 2.98534E-02
 -1      3006 2.86401E+00-1.02760E+01 3.19670E+00 5.40810E-01-1.36309E-02 5.02513E-03
 -1      3007 2.06002E+00-7.94186E+00 2.51953E+00 6.26261E-01-1.53692E-02 7.10260E-03
 -1      3008 6.44015E-04-3.66821E-03 1.19486E-03 2.25644E-03 1.33151E-05-1.66300E-04
 -1      3009-2.17514E-05-7.12335E-04 1.95233E-04 1.70609E-03-1.20962E-04 7.25844E-06
 -1      3010-3.61433E-04 9.85047E-04-2.97687E-04-1.12165E-04 5.64056E-05 9.90752E-06
 -1      3011-4.37837E-04 1.00535E-03-3.16832E-04 9.88733E-06 1.23027E-04 4.70134E-05
 -1      3012-1.52601E-04-1.23880E-03 6.84006E-04 1.79293E-03-3.53861E-05-2.38278E-05
 -1      3013 5.82692E-01-5.03376E+00 1.74636E+00 2.88961E+00 5.50764E-01-3.11995E-02
 -1      3014-4.41038E-05 8.15821E-04-3.04248E-04 3.06198E-04 1.27451E-04-3.91970E-05
 -1      3015-3.34157E-01 4.82964E+00-1.76888E+00 3.05454E+00-6.66862E-01-1.35265E-01
 -1      3016-8.63839E-05 1.33898E-03-3.45146E-04 2.33173E-04 3.47473E-04 1.99775E-04
 -1      3017 9.58630E-05-2.80495E-03 6.08266E-05-9.53157E-04 7.78311E-04-9.57551E-04
 -1      3018-1.16898E-02-2.20955E-03 5.23033E-03-1.20515E-02-1.29413E-03 7.59542E-04
 -1      3019-4.72518E-02 1.19809E-02 1.55447E-02 2.54774E-03 3.28152E-04 2.06129E-05
 -1      3020-3.87707E-02 9.11666E-03 1.32451E-02-7.25742E-03-1.11899E-03-6.59919E-04
 -1      3021-2.73304E-02 9.04333E-03 7.67391E-03-9.75315E-03 3.14323E-04-7.44990E-04
 -1      3022-2.74615E+00 9.36482E+00-2.83075E+00 4.37492E-01-6.97024E-03 1.55530E-03
 -1      3023-2.80456E+00 9.77716E+00-2.96970E+00 6.05399E-01-2.80535E-03-3.33819E-03
 -1      3024-2.84836E+00 1.07394E+01-3.38666E+00 1.32972E+00-4.48285E-03 2.93961E-02
 -1      3025-2.95889E+00 1.06585E+01-3.32970E+00 6.78209E-01 3.75337E-03 2.72609E-02
 -1      3026-2.08671E+00 8.19234E+00-2.64677E+00 9.15986E-01-6.97924E-03 1.40263E-02
 -1      3027 2.67463E+00-8.92237E+00 2.67501E+00 2.34734E-01 4.31988E-03 4.05252E-03
 -1      3028 2.74555E+00-9.14918E+00 2.74218E+00 2.45898E-01 1.09452E-02-6.66195E-03
 -1      3029 2.13339E+00-7.30387E+00 2.20930E+00 4.94883E-01 5.83013E-03 1.95037E-03
 -1      3030 2.78775E+00-9.29178E+00 2.78715E+00 1.47730E-01-2.79536E-03-3.45865E-03
 -1      3031 2.85689E+00-9.51577E+00 2.85420E+00 1.46435E-01-1.57575E-03 2.71929E-03
 -1      3032 2.33116E+00-7.77649E+00 2.33245E+00 3.64825E-01 1.06783E-03-7.22753E-04
 -1      3033 2.47004E+00-8.23528E+00 2.47134E+00 2.35409E-01-5.31840E-05-2.05614E-03
 -1      3034 2.53844E+00-8.44953E+00 2.53379E+00 2.36200E-01 2.45911E-04-1.56982E-03
 -1      3035 2.26115E+00-7.52885E+00 2.25871E+00 3.64041E-01-2.87135E-04-1.05524E-03
 -1      3036 2.39742E+00-8.00208E+00 2.40187E+00 2.18078E-01-4.03060E-04-1.21713E-03
 -1      3037 2.47005E+00-8.22287E+00 2.46414E+00 2.13301E-01 4.32157E-03 1.78848E-03
 -1      3038 2.01072E+00-6.69949E+00 2.00770E+00 4.28800E-01-9.83698E-04-2.69333E-03
 -1      3039 2.27302E+00-7.59071E+00 2.28022E+00 1.99644E-01 2.65660E-03-1.78472E-03
 -1      3040 2.34392E+00-7.80541E+00 2.34094E+00 2.05597E-01-6.62282E-04 1.87748E-03
 -1      3041 1.67112E+00-5.56960E+00 1.67310E+00 5.11044E-01 7.49791E-04 3.82136E-03
 -1      3042 2.06294E+00-6.88407E+00 2.06580E+00 3.31785E-01 5.73183E-03 4.46184E-07
 -1      3043 1.62331E+00-5.44332E+00 1.63281E+00 5.01066E-01-1.20452E-03-3.72970E-03
 -1      3044 2.18380E+00-7.28631E+00 2.18647E+00 1.89723E-01 1.07764E-03 1.09530E-03
 -1      3045 2.24947E+00-7.49641E+00 2.24791E+00 1.90282E-01-2.93909E-05 9.31789E-04
 -1      3046 1.87993E+00-6.26773E+00 1.88086E+00 3.74129E-01-2.51428E-03-2.35346E-03
 -1      3047 2.13953E+00-7.14054E+00 2.14210E+00 1.54304E-01-1.21321E-03 3.86359E-04
 -1      3048 2.20331E+00-7.34911E+00 2.20493E+00 1.55327E-01-1.89872E-03 1.84050E-03
 -1      3049 1.86759E+00-6.23649E+00 1.87193E+00 3.31762E-01-8.00389E-04-1.26180E-04
 -1      3050 1.88866E+00-6.30758E+00 1.89332E+00 2.22806E-01 3.42077E-04-8.34421E-04
 -1      3051 1.95104E+00-6.50248E+00 1.94950E+00 2.25359E-01 2.13238E-04-4.95445E-04
 -1      3052 1.69480E+00-5.66529E+00 1.70724E+00 3.56018E-01-4.44647E-05 1.02432E-04
 -1      3053 1.79084E+00-5.97808E+00 1.79336E+00 2.09923E-01 2.80721E-04 1.53867E-03
 -1      3054 1.85197E+00-6.16574E+00 1.84749E+00 2.12396E-01 1.51747E-03-1.21746E-04
 -1      3055 1.46714E+00-4.91289E+00 1.48004E+00 4.11303E-01 9.19992E-05-6.27544E-03
 -1      3056 1.84870E+00-6.17326E+00 1.85305E+00 1.25315E-01-1.59242E-03-1.64147E-03
 -1      3057 1.90812E+00-6.36591E+00 1.91084E+00 1.26144E-01-1.35794E-03 3.81987E-03
 -1      3058 1.55450E+00-5.19606E+00 1.55840E+00 3.17742E-01-1.26030E-05 1.96648E-04
 -1      3059 1.61087E+00-5.38379E+00 1.61665E+00 1.93952E-01 1.46138E-03-1.79037E-04
 -1      3060 1.67027E+00-5.56359E+00 1.66808E+00 1.98017E-01 9.54402E-04 3.58553E-05
 -1      3061 1.49413E+00-4.96780E+00 1.49005E+00 3.09503E-01 7.09743E-05 5.43314E-03
 -1      3062 1.50543E+00-5.02567E+00 1.50841E+00 1.93723E-01 4.80683E-04 4.22936E-04
 -1      3063 1.56137E+00-5.20072E+00 1.55828E+00 1.94705E-01 1.00775E-03 4.14971E-04
 -1      3064 1.25923E+00-4.20284E+00 1.26252E+00 3.68429E-01 1.69809E-05-3.52710E-03
 -1      3065 1.52963E+00-5.10160E+00 1.53013E+00 1.25982E-01-7.32581E-05-2.08428E-03
 -1      3066 1.58312E+00-5.27811E+00 1.58366E+00 1.26447E-01-1.50596E-04 2.14854E-03
 -1      3067 1.28990E+00-4.29830E+00 1.28854E+00 3.01502E-01-1.23696E-03-3.37577E-03
 -1      3068 1.33671E+00-4.46630E+00 1.34062E+00 1.81012E-01 1.83270E-03 1.01535E-03
 -1      3069 1.39155E+00-4.63131E+00 1.38811E+00 1.83935E-01 8.56409E-04-1.02824E-03
 -1      3070 1.21969E+00-4.07745E+00 1.22480E+00 2.91802E-01-2.36600E-03 2.89978E-03
 -1      3071 1.24586E+00-4.15367E+00 1.24644E+00 1.78285E-01-1.49658E-03-1.05362E-03
 -1      3072 1.29258E+00-4.31294E+00 1.29378E+00 1.78971E-01-1.79830E-03 1.17006E-03
 -1      3073 1.03863E+00-3.47437E+00 1.04492E+00 3.40500E-01 1.80607E-04 1.80424E-03
 -1      3074 1.25529E+00-4.19327E+00 1.25932E+00 1.13406E-01-8.63645E-04-7.78151E-04
 -1      3075 1.30521E+00-4.35317E+00 1.30722E+00 1.13949E-01-1.27901E-03 2.10847E-04
 -1      3076 1.06249E+00-3.55015E+00 1.06418E+00 2.78330E-01-2.34904E-04-3.89411E-04
 -1      3077 1.09289E+00-3.65151E+00 1.09631E+00 1.63818E-01 4.94536E-04-6.32342E-04
 -1      3078 1.14197E+00-3.79972E+00 1.13868E+00 1.66041E-01 1.09585E-03-7.77822E-04
 -1      3079 1.00190E+00-3.34969E+00 1.00857E+00 2.63498E-01-6.16920E-04 2.94937E-03
 -1      3080 1.00850E+00-3.37031E+00 1.01126E+00 1.58874E-01 3.63098E-04 1.31120E-03
 -1      3081 1.05442E+00-3.51232E+00 1.05242E+00 1.61544E-01 1.12250E-03 1.75544E-04
 -1      3082 8.45253E-01-2.83733E+00 8.55112E-01 3.07126E-01 3.33790E-04-4.36715E-03
 -1      3083 1.01256E+00-3.37751E+00 1.01333E+00 1.03833E-01-2.18941E-03-2.01854E-03
 -1      3084 1.05591E+00-3.52034E+00 1.05604E+00 1.04203E-01-1.94797E-03 2.06204E-03
 -1      3085 8.59260E-01-2.87388E+00 8.63485E-01 2.49496E-01-4.33524E-04 7.41760E-04
 -1      3086 8.72299E-01-2.91736E+00 8.76151E-01 1.46172E-01 5.19739E-04-2.56367E-04
 -1      3087 9.16055E-01-3.04887E+00 9.14046E-01 1.48496E-01 7.31368E-04-1.43950E-03
 -1      3088 8.08145E-01-2.69334E+00 8.08314E-01 2.39731E-01-1.06429E-04-7.30986E-04
 -1      3089 7.97041E-01-2.66560E+00 8.00520E-01 1.41391E-01 2.83024E-04 4.27078E-04
 -1      3090 8.38173E-01-2.79306E+00 8.36833E-01 1.43779E-01 8.83110E-04 2.54092E-04
 -1      3091 6.73606E-01-2.26257E+00 6.81994E-01 2.73781E-01 3.96344E-04-3.38336E-03
 -1      3092 7.93838E-01-2.64776E+00 7.94345E-01 9.18105E-02-4.09522E-04-1.59667E-03
 -1      3093 8.32707E-01-2.77530E+00 8.32589E-01 9.11752E-02-1.67010E-05 1.50248E-03
 -1      3094 6.79172E-01-2.26863E+00 6.80729E-01 2.18849E-01-1.21397E-03-2.42689E-03
 -1      3095 6.76779E-01-2.26561E+00 6.80384E-01 1.28438E-01 1.32307E-03 7.93965E-04
 -1      3096 7.15745E-01-2.38251E+00 7.13736E-01 1.31003E-01 7.63901E-04-4.17549E-04
 -1      3097 6.34543E-01-2.10870E+00 6.31844E-01 2.12582E-01-9.21403E-04 2.55414E-03
 -1      3098 6.12611E-01-2.04945E+00 6.15601E-01 1.23959E-01-3.62298E-04 6.31862E-04
 -1      3099 6.47361E-01-2.16000E+00 6.48094E-01 1.24637E-01-4.03526E-04 9.35388E-05
 -1      3100 5.23491E-01-1.75589E+00 5.29287E-01 2.39655E-01 1.01330E-03 5.16281E-04
 -1      3101 6.03617E-01-2.02043E+00 6.06622E-01 7.54545E-02-4.34952E-04-6.88176E-04
 -1      3102 6.37509E-01-2.13125E+00 6.40161E-01 7.69405E-02-1.27857E-03 2.33002E-03
 -1      3103 5.24036E-01-1.75331E+00 5.25885E-01 1.89057E-01-5.03506E-04 9.85567E-04
 -1      3104 5.06809E-01-1.69819E+00 5.10147E-01 1.10124E-01 1.10369E-03 6.74070E-04
 -1      3105 5.40733E-01-1.80029E+00 5.39764E-01 1.12870E-01 4.72027E-04-5.62539E-04
 -1      3106 4.82005E-01-1.61401E+00 4.85466E-01 1.77965E-01-9.77989E-04 2.49337E-03
 -1      3107 4.50540E-01-1.50995E+00 4.53989E-01 1.06319E-01-1.67816E-04 2.61699E-04
 -1      3108 4.80320E-01-1.60591E+00 4.82114E-01 1.07383E-01-4.48303E-04 3.47974E-04
 -1      3109 3.88684E-01-1.31319E+00 3.98231E-01 2.05544E-01 1.19235E-04 7.21366E-04
 -1      3110 4.38030E-01-1.46419E+00 4.39699E-01 6.53854E-02-8.33748E-04-1.04562E-03
 -1      3111 4.67301E-01-1.55908E+00 4.67909E-01 6.57572E-02-1.04508E-03 1.73153E-03
 -1      3112 3.84401E-01-1.28860E+00 3.87664E-01 1.62717E-01-1.26186E-03-3.12389E-05
 -1      3113 3.60621E-01-1.20978E+00 3.63430E-01 9.38758E-02 7.49981E-04 6.13233E-04
 -1      3114 3.89227E-01-1.29592E+00 3.88258E-01 9.62598E-02 2.55246E-04-4.21711E-04
 -1      3115 3.51198E-01-1.16670E+00 3.49052E-01 1.53659E-01-1.58126E-03 1.64720E-03
 -1      3116 3.13163E-01-1.05134E+00 3.16126E-01 8.87241E-02-3.25886E-04 8.01443E-04
 -1      3117 3.38164E-01-1.13072E+00 3.39265E-01 9.00231E-02-2.43641E-04 1.81282E-04
 -1      3118 2.76174E-01-9.30367E-01 2.80921E-01 1.73899E-01 1.53937E-04 8.31210E-04
 -1      3119 2.98349E-01-9.97515E-01 2.99065E-01 5.34762E-02-1.41113E-03-5.05488E-05
 -1      3120 3.23042E-01-1.07708E+00 3.23027E-01 5.41447E-02-1.11549E-03 6.68368E-04
 -1      3121 2.65240E-01-8.92275E-01 2.68159E-01 1.34304E-01-4.85258E-04-3.36011E-04
 -1      3122 2.39890E-01-8.03269E-01 2.40758E-01 7.80154E-02 6.59133E-04-3.41134E-04
 -1      3123 2.61881E-01-8.74795E-01 2.61678E-01 7.81001E-02 3.09297E-04 8.32661E-04
 -1      3124 2.36884E-01-7.92680E-01 2.38851E-01 1.24651E-01 3.76747E-04-1.95338E-04
 -1      3125 2.00858E-01-6.73591E-01 2.03196E-01 7.06594E-02-1.92688E-04-8.12429E-04
 -1      3126 2.21121E-01-7.40869E-01 2.23257E-01 7.29811E-02 6.51301E-05 8.28340E-05
 -1      3127 1.82030E-01-6.15404E-01 1.86007E-01 1.42024E-01-7.07189E-04-1.57333E-04
 -1      3128 1.84569E-01-6.18779E-01 1.85771E-01 4.17866E-02-7.13660E-04 2.30024E-04
 -1      3129 2.04680E-01-6.81877E-01 2.04745E-01 4.23646E-02-7.22071E-04-1.53541E-04
 -1      3130 1.69546E-01-5.71292E-01 1.71564E-01 1.07680E-01 5.02595E-05 2.82796E-04
 -1      3131 1.42368E-01-4.79960E-01 1.44440E-01 5.97908E-02-3.51631E-05-1.20607E-04
 -1      3132 1.59887E-01-5.34950E-01 1.60404E-01 6.13493E-02 4.80993E-05-2.00464E-04
 -1      3133 1.44538E-01-4.91229E-01 1.49604E-01 9.65545E-02 8.81522E-05 3.26848E-04
 -1      3134 1.12672E-01-3.80570E-01 1.14556E-01 5.51869E-02 1.26532E-05 3.57809E-04
 -1      3135 1.28419E-01-4.30319E-01 1.28797E-01 5.67172E-02 2.00791E-04 3.34938E-05
 -1      3136 1.06142E-01-3.62756E-01 1.10924E-01 1.09338E-01 1.85386E-04-1.43290E-03
 -1      3137 9.78768E-02-3.26487E-01 9.76043E-02 3.51532E-02-5.08803E-04-6.40321E-04
 -1      3138 1.11655E-01-3.72237E-01 1.11430E-01 3.56650E-02-5.01606E-05 4.33037E-04
 -1      3139 9.09270E-02-3.13225E-01 9.54087E-02 8.62500E-02-2.87093E-04-1.17585E-03
 -1      3140 6.99714E-02-2.38307E-01 7.21049E-02 4.40093E-02-2.37808E-04-2.27517E-04
 -1      3141 8.21378E-02-2.76351E-01 8.29941E-02 4.59199E-02-2.40358E-05 2.08783E-04
 -1      3142 7.46121E-02-2.54705E-01 7.76565E-02 7.67002E-02-4.76449E-04-2.36749E-04
 -1      3143 5.07196E-02-1.72060E-01 5.19223E-02 3.62160E-02 3.33468E-04-1.21431E-04
 -1      3144 6.14392E-02-2.05311E-01 6.15674E-02 3.75516E-02 6.95855E-04-2.66961E-04
 -1      3145 5.09821E-02-1.79044E-01 5.46779E-02 7.76704E-02 1.15774E-04-3.27924E-04
 -1      3146 3.85473E-02-1.31610E-01 3.97748E-02 1.91625E-02-2.66487E-04-1.71204E-04
 -1      3147 4.81456E-02-1.61267E-01 4.85525E-02 1.96557E-02-5.48223E-05 1.06764E-04
 -1      3148 4.12386E-02-1.43444E-01 4.35923E-02 5.31072E-02 1.40358E-04-3.34511E-04
 -1      3149 2.34418E-02-8.22759E-02 2.51177E-02 2.54535E-02-5.76913E-05-3.88986E-04
 -1      3150 3.07849E-02-1.04645E-01 3.14872E-02 2.71161E-02 9.32066E-05 1.77213E-04
 -1      3151 2.92102E-02-1.04651E-01 3.25024E-02 4.36194E-02-3.66704E-04 4.27028E-04
 -1      3152 1.21223E-02-4.47285E-02 1.37846E-02 1.85885E-02 3.00193E-04 2.51182E-04
 -1      3153 1.80618E-02-6.22377E-02 1.87854E-02 2.01531E-02 5.66202E-04-1.32070E-04
 -1      3154 1.52686E-02-6.03726E-02 1.96007E-02 4.39447E-02-1.02916E-04-4.02235E-04
 -1      3155 6.39194E-03-2.32466E-02 7.02252E-03 8.83954E-03-1.22254E-04-2.58203E-05
 -1      3156 1.01129E-02-3.58244E-02 1.07875E-02 9.43492E-03-3.10680E-05 2.55900E-04
 -1      3157 8.51499E-03-3.61329E-02 1.16642E-02 2.64448E-02 7.57077E-05 5.99781E-05
 -1      3158 1.53540E-03-8.26693E-03 2.72768E-03 7.14995E-03 3.03947E-05 3.63699E-05
 -1      3159 3.59291E-03-1.52140E-02 4.82456E-03 9.01354E-03 7.90761E-05 4.22980E-05
 -1      3160 4.06707E-03-1.92094E-02 6.51900E-03 1.74329E-02-2.27620E-04 1.53100E-04
 -1      3161 3.80983E-04-7.07104E-03 2.99275E-03 9.42689E-03 4.51955E-05-1.02718E-04
 -1      3162 1.02028E+00-6.31285E+00 2.30719E+00 3.01661E+00 6.99709E-02-6.20755E-02
 -1      3163 5.90285E-01-5.25036E+00 2.00740E+00 3.00747E+00 1.97272E-01-1.15138E-01
 -1      3164 1.11672E+00-5.85687E+00 1.97602E+00 2.34447E+00 3.19103E-01 1.05566E-01
 -1      3165 1.88705E+00-7.96162E+00 2.61180E+00 2.11809E+00 4.27448E-02 2.14705E-02
 -1      3166 1.28372E+00-6.71843E+00 2.36094E+00 2.26439E+00 1.05784E-02 3.25841E-02
 -1      3167 1.26327E+00-6.36316E+00 2.18058E+00 1.66575E+00 2.91585E-02 2.94126E-02
 -1      3168 2.48917E+00-9.76574E+00 3.16501E+00 1.42517E+00 6.11630E-02-4.21098E-03
 -1      3169 2.08390E+00-8.81084E+00 2.90929E+00 1.94753E+00 2.62526E-03-3.06737E-02
 -1      3170 1.40188E+00-6.13885E+00 1.94293E+00 6.68586E-01 2.58541E-01-2.64346E-02
 -1      3171 1.82926E+00-7.78527E+00 2.55236E+00 1.44881E+00-4.43391E-02-9.41257E-03
 -1      3172 1.50691E+00-6.61656E+00 2.16546E+00 4.17569E-01 4.72559E-02 7.72714E-02
 -1      3173 1.60784E+00-7.20555E+00 2.38298E+00 6.13188E-01 2.77360E-03-5.67915E-03
 -1      3174 2.31329E+00-9.29734E+00 2.99559E+00 1.06417E+00-2.78630E-02-1.59965E-02
 -1      3175 1.74349E+00-7.52209E+00 2.49807E+00 5.46483E-01-1.32140E-02 3.36979E-02
 -1      3176-1.43894E-04 9.80272E-04-3.68529E-04 2.73355E-04 6.53024E-05-2.03430E-06
 -1      3177-4.05415E-04 1.55704E-03-4.95721E-04 5.82368E-05 1.47531E-04 1.19847E-05
 -1      3178-1.94317E-04 2.94829E-04 3.37225E-05-4.87369E-04-5.21570E-05-5.22124E-05
 -1      3179-3.97479E-04 1.27661E-03-4.06296E-04-3.51926E-04 9.07853E-05-4.67118E-05
 -1      3180-6.18237E-05 7.31940E-04-2.88431E-04-4.36464E-04 5.23043E-05-9.53727E-05
 -1      3181 4.76089E-05 6.22605E-04-2.60064E-04-2.51433E-05 1.00560E-04-8.04582E-05
 -1      3182 1.15048E+00-6.19818E+00 2.08435E+00 1.64749E+00 4.88680E-01 2.21634E-02
 -1      3183 1.09175E+00-5.53960E+00 1.51323E+00 3.56777E-01 8.86091E-01 7.14424E-03
 -1      3184 1.32070E+00-6.05561E+00 1.72592E+00 1.05142E+00 9.10568E-01-6.89790E-02
 -1      3185 3.70802E-01-2.33018E+00 6.72169E-01-8.89717E-01 3.40749E-01 1.46365E-01
 -1      3186 7.25832E-01-3.74761E+00 9.41988E-01-6.03739E-01 6.68622E-01 1.51920E-02
 -1      3187 9.81003E-01-4.30318E+00 1.40623E+00-3.14414E-01 1.59901E-01 3.10669E-02
 -1      3188 9.91477E-01-4.86620E+00 1.46119E+00-1.87141E-01 6.68204E-01 8.47051E-02
 -1      3189-1.67859E-01 7.87450E-01-1.43816E-01-1.00585E+00-1.18939E-01 9.77833E-02
 -1      3190 3.41140E-02-8.25510E-01 2.42231E-01-9.35781E-01 2.36038E-01 1.70886E-01
 -1      3191 2.96698E-01-1.40261E+00 4.57290E-01-6.64454E-01 7.99186E-02 2.19025E-02
 -1      3192-7.15942E-01 3.80529E+00-9.85217E-01-4.21053E-01-7.61177E-01 1.40507E-02
 -1      3193-5.46999E-01 2.20530E+00-5.89300E-01-9.36293E-01-3.58361E-01 5.91264E-02
 -1      3194-3.92406E-01 1.49546E+00-4.58038E-01-6.59548E-01-1.07302E-01 2.97412E-02
 -1      3195-1.29991E+00 6.18962E+00-1.61207E+00 1.29517E+00-1.18426E+00-1.03310E-01
 -1      3196-1.11113E+00 5.34827E+00-1.42163E+00 4.93827E-01-1.03673E+00-4.21228E-02
 -1      3197-1.04097E+00 4.35426E+00-1.40150E+00-7.23488E-02-1.48524E-01 1.76546E-02
 -1      3198-1.04991E+00 4.95589E+00-1.46016E+00 3.82689E-02-7.49028E-01-4.84783E-03
 -1      3199-1.43775E+00 6.22018E+00-1.91999E+00 1.02897E+00-2.87941E-01-2.02618E-02
 -1      3200-1.03839E+00 6.07985E+00-1.48517E+00 2.42553E+00-1.34112E+00-4.49193E-01
 -1      3201-1.20382E+00 6.42035E+00-1.36214E+00 1.64996E+00-1.52520E+00-2.49336E-01
 -1      3202-1.17877E+00 6.13660E+00-2.08655E+00 1.80339E+00-5.16118E-01 2.03480E-02
 -1      3203-2.29485E-01 4.95849E+00-1.99602E+00 3.32261E+00-3.45857E-01-1.66332E-01
 -1      3204-5.60365E-01 5.42492E+00-1.77676E+00 2.97189E+00-7.87575E-01-2.60058E-01
 -1      3205-7.86261E-01 5.72694E+00-1.98705E+00 2.57062E+00-5.76742E-01-8.00833E-02
 -1      3206 1.65159E-04-1.52544E-04 4.35165E-05-8.98757E-04-1.16084E-05-1.34794E-04
 -1      3207 1.80745E-04 4.13346E-04-8.48666E-05-4.52052E-04 2.77168E-04-1.56117E-04
 -1      3208-3.45733E-03 7.84787E-04 1.19968E-03 1.60292E-03-1.14462E-04 1.87136E-05
 -1      3209-2.39143E-03-9.81787E-05 9.81059E-04 8.84995E-04-1.69864E-04 7.56387E-05
 -1      3210-9.31045E-04-8.12925E-04 8.24337E-04 1.20590E-03-2.25430E-04 1.60928E-05
 -1      3211-1.66061E-04-4.73925E-04 1.96002E-04-5.24972E-04-3.38045E-05-4.91122E-05
 -1      3212-7.45575E-04-7.87988E-04 6.97004E-04 4.75454E-04-8.59937E-05-5.98961E-06
 -1      3213-3.78998E-03-2.68652E-04 1.61479E-03 3.24873E-03 1.48029E-05-3.57873E-05
 -1      3214-8.37317E-03 3.53434E-03 2.14587E-03 2.02485E-03 4.09966E-05 1.35093E-05
 -1      3215-7.10159E-03 2.65734E-03 1.85607E-03 1.85947E-03 3.07909E-05 2.46385E-04
 -1      3216-9.31334E-03 3.34476E-03 2.60035E-03 4.08336E-03-5.37425E-06-5.92276E-05
 -1      3217-6.18023E-03 8.88799E-04 2.40778E-03-7.86020E-04-3.15565E-04-4.58127E-04
 -1      3218-8.87661E-03 3.25443E-03 2.43352E-03-2.24224E-04-2.99621E-04-2.54393E-04
 -1      3219-1.41519E-02 5.85160E-03 3.55434E-03 2.37580E-03-4.75041E-05-5.63890E-05
 -1      3220 4.45718E-04 3.36502E-04 1.10497E-04 1.97956E-03 7.41701E-04 5.81473E-04
 -1      3221-1.57757E-04-1.50135E-03 3.81046E-04 1.48647E-03-3.32868E-04-1.61348E-05
 -1      3222-1.36445E-03-2.04153E-03 2.05123E-03-1.75094E-03-1.34298E-03 5.01051E-05
 -1      3223-2.63856E-03-2.02711E-03 2.19516E-03-2.09708E-03-5.59152E-04 4.96943E-05
 -1      3224-1.34064E-02 3.03292E-03 4.05382E-03-4.50051E-03-5.20244E-04 1.80206E-04
 -1      3225-8.56432E-05 1.06124E-03-4.89556E-04 3.48719E-04 3.50004E-04-1.57750E-05
 -1      3226 5.01241E-05 9.59544E-04-4.29925E-04 1.24726E-03 1.85306E-04 3.52130E-04
 -1      3227 3.60254E-04 6.72301E-04-5.12230E-04 2.18491E-03 4.01696E-04 3.06403E-04
 -1      3228-1.29560E-03 4.49013E-03-1.32315E-03 1.24062E-03 7.34521E-04-1.91347E-04
 -1      3229-2.25622E-04 1.65974E-03-1.12278E-03 2.15584E-03 6.08399E-04 4.15643E-04
 -1      3230-4.96969E-02 2.36414E-02 1.13611E-02 1.03534E-02-1.45884E-04 8.92061E-06
 -1      3231-4.62680E-02 1.40005E-02 1.43704E-02 9.03534E-03 4.32864E-04 3.62409E-04
 -1      3232-4.68834E-02 2.00190E-02 1.12779E-02 8.95141E-03 1.37586E-04-5.12519E-04
 -1      3233-5.64181E-02 4.47742E-02 5.15834E-03 1.28736E-02-6.34328E-06 1.18439E-04
 -1      3234-5.19276E-02 3.01170E-02 9.50446E-03 1.19269E-02 2.15790E-04-1.18769E-04
 -1      3235-5.02244E-02 2.88813E-02 8.80153E-03 1.99722E-02-3.78283E-04-4.74521E-04
 -1      3236-6.83401E-02 8.35734E-02-6.28232E-03 1.86173E-02-6.17355E-04 1.00872E-04
 -1      3237-6.18327E-02 6.44555E-02-8.99909E-04 1.78233E-02 4.08082E-05-2.41453E-04
 -1      3238-5.77036E-02 5.67848E-02 2.47001E-04 3.80230E-02-2.80784E-04-3.97652E-04
 -1      3239-5.71946E-02 5.06731E-02 2.70219E-03 2.21528E-02-4.22752E-04 1.87323E-04
 -1      3240-5.26899E-02 4.16273E-02 4.81598E-03 3.16253E-02-4.23520E-04-5.90163E-04
 -1      3241-7.89410E-02 1.21232E-01-1.79197E-02 2.75843E-02 5.14801E-05 2.02294E-04
 -1      3242-7.13784E-02 9.73326E-02-1.09355E-02 2.58516E-02 1.53249E-04-2.90892E-04
 -1      3243-6.61075E-02 8.28576E-02-6.88242E-03 4.31173E-02-2.51622E-04-4.83743E-04
 -1      3244-9.63076E-02 1.78112E-01-3.48565E-02 2.22886E-02 5.21887E-04 1.84596E-04
 -1      3245-8.70756E-02 1.47766E-01-2.56578E-02 2.15003E-02 7.82060E-04-5.01618E-05
 -1      3246-7.74498E-02 1.19908E-01-1.83652E-02 4.60370E-02-2.49173E-04-4.71217E-04
 -1      3247-1.09949E-01 2.24063E-01-4.85444E-02 3.84066E-02-2.35123E-04-8.49101E-05
 -1      3248-9.89039E-02 1.89640E-01-3.85352E-02 3.68351E-02 8.00181E-05 5.83239E-04
 -1      3249-8.84934E-02 1.57830E-01-2.99511E-02 5.59277E-02-1.90737E-04 1.78932E-04
 -1      3250-1.32057E-01 2.96697E-01-7.03680E-02 4.57220E-02-3.32736E-04-3.62453E-04
 -1      3251-1.18865E-01 2.57311E-01-5.90579E-02 4.38515E-02 9.05263E-06 6.32626E-06
 -1      3252-9.88481E-02 1.96121E-01-4.21883E-02 7.76464E-02-2.13054E-04-1.14033E-03
 -1      3253-1.61235E-01 3.92974E-01-9.92471E-02 3.58343E-02 4.95895E-04 2.55797E-04
 -1      3254-1.46705E-01 3.47010E-01-8.57883E-02 3.51418E-02 4.25825E-04-5.05327E-04
 -1      3255-1.23866E-01 2.73649E-01-6.40135E-02 7.68421E-02-2.90407E-04-5.14157E-04
 -1      3256-1.77430E-01 4.51700E-01-1.17397E-01 5.77582E-02 2.38159E-04 2.42245E-04
 -1      3257-1.62241E-01 4.01408E-01-1.02452E-01 5.63476E-02 1.14617E-04-1.62043E-04
 -1      3258-1.40803E-01 3.31884E-01-8.12584E-02 8.69429E-02 1.44925E-04 9.61073E-04
 -1      3259-2.10096E-01 5.56984E-01-1.48263E-01 6.36187E-02-3.50965E-04-4.07473E-05
 -1      3260-1.91547E-01 5.01206E-01-1.32420E-01 6.13138E-02-5.51062E-04 3.93031E-04
 -1      3261-1.54200E-01 3.80045E-01-9.71434E-02 1.12548E-01-2.01036E-04 4.32385E-04
 -1      3262-2.54420E-01 7.04818E-01-1.92820E-01 4.63818E-02-4.63614E-05 8.67592E-04
 -1      3263-2.35004E-01 6.40914E-01-1.73777E-01 4.60120E-02 2.76618E-04-7.53860E-04
 -1      3264-1.95248E-01 5.04957E-01-1.33292E-01 1.04781E-01 5.02378E-04 1.46185E-03
 -1      3265-2.72839E-01 7.65564E-01-2.10596E-01 7.54981E-02-4.72032E-04-7.94204E-05
 -1      3266-2.51508E-01 6.99309E-01-1.91763E-01 7.37301E-02 1.46270E-05 1.70313E-04
 -1      3267-2.15341E-01 5.86584E-01-1.59375E-01 1.13994E-01 7.23230E-04-1.42477E-03
 -1      3268-3.14819E-01 9.03221E-01-2.52022E-01 8.08374E-02-4.46988E-04-4.54165E-04
 -1      3269-2.91188E-01 8.31899E-01-2.31462E-01 7.89742E-02-7.13483E-05-3.11102E-04
 -1      3270-2.29708E-01 6.35069E-01-1.74640E-01 1.45758E-01 2.28294E-05-2.44818E-03
 -1      3271-3.73261E-01 1.10185E+00-3.12193E-01 5.80730E-02 9.42248E-04 1.00527E-03
 -1      3272-3.47972E-01 1.02208E+00-2.88897E-01 5.71244E-02 4.28373E-04-2.51120E-04
 -1      3273-2.83924E-01 8.10828E-01-2.26773E-01 1.30348E-01 5.75393E-04 1.38234E-03
 -1      3274-3.91955E-01 1.16193E+00-3.29501E-01 9.30024E-02-4.29120E-04 2.08032E-04
 -1      3275-3.66433E-01 1.07958E+00-3.05488E-01 9.18021E-02-5.45642E-04-2.43415E-04
 -1      3276-3.14833E-01 9.07626E-01-2.52185E-01 1.40864E-01 4.59910E-04 1.34622E-03
 -1      3277-4.41563E-01 1.33156E+00-3.80893E-01 9.83880E-02-6.43156E-05-4.58497E-05
 -1      3278-4.13596E-01 1.24292E+00-3.55269E-01 9.64674E-02-1.00845E-04-9.09271E-05
 -1      3279-3.26594E-01 9.51609E-01-2.69541E-01 1.78685E-01-1.69686E-04-2.44673E-03
 -1      3280-5.20168E-01 1.59231E+00-4.59027E-01 7.06093E-02 1.52692E-03 9.64337E-04
 -1      3281-4.90402E-01 1.49573E+00-4.30088E-01 6.88548E-02 1.33620E-03 6.28594E-04
 -1      3282-3.95363E-01 1.18617E+00-3.40461E-01 1.57276E-01-4.74126E-04 9.40736E-04
 -1      3283-5.34147E-01 1.64055E+00-4.73653E-01 1.11301E-01 3.25833E-04 2.77735E-04
 -1      3284-5.03703E-01 1.54379E+00-4.45578E-01 1.09981E-01 1.55129E-04 1.11146E-03
 -1      3285-4.31767E-01 1.30204E+00-3.71899E-01 1.69750E-01 1.59083E-04 7.54561E-04
 -1      3286-5.97765E-01 1.84962E+00-5.36169E-01 1.14971E-01-2.35354E-04-4.43433E-04
 -1      3287-5.64431E-01 1.74575E+00-5.05585E-01 1.13289E-01-5.45339E-04 7.48558E-04
 -1      3288-4.42170E-01 1.34029E+00-3.85724E-01 2.11620E-01-3.74202E-04 1.07213E-03
 -1      3289-7.03219E-01 2.19655E+00-6.40025E-01 7.44625E-02 1.86056E-03 5.31772E-04
 -1      3290-6.66206E-01 2.08165E+00-6.06049E-01 7.42107E-02 1.58042E-03 2.95354E-04
 -1      3291-5.43481E-01 1.66670E+00-4.81650E-01 1.79033E-01 4.17044E-04 2.36309E-04
 -1      3292-7.08012E-01 2.21341E+00-6.44543E-01 1.27065E-01-3.78175E-04 3.14275E-04
 -1      3293-6.72194E-01 2.09962E+00-6.11427E-01 1.25759E-01-7.76084E-04-4.79925E-04
 -1      3294-5.83486E-01 1.80290E+00-5.20287E-01 1.87494E-01 7.72535E-04 1.56913E-03
 -1      3295-7.76645E-01 2.44635E+00-7.14939E-01 1.31655E-01-2.26085E-04 8.78668E-05
 -1      3296-7.37997E-01 2.32607E+00-6.80373E-01 1.29764E-01-4.94120E-04-1.20293E-04
 -1      3297-5.81710E-01 1.80065E+00-5.24401E-01 2.42981E-01-1.43191E-04-3.21333E-03
 -1      3298-9.04460E-01 2.87368E+00-8.43698E-01 8.64337E-02 1.78237E-03 1.74898E-03
 -1      3299-8.64018E-01 2.74265E+00-8.04227E-01 8.50895E-02 1.22147E-03 5.39033E-04
 -1      3300-6.97542E-01 2.19453E+00-6.42725E-01 2.03566E-01-1.05057E-03 1.40012E-03
 -1      3301-9.33869E-01 2.96911E+00-8.72063E-01 1.19409E-01 8.43254E-04 4.44464E-04
 -1      3302-8.92931E-01 2.83721E+00-8.33344E-01 1.20421E-01 6.40793E-04 6.21171E-04
 -1      3303-7.78144E-01 2.45569E+00-7.17620E-01 1.96876E-01 5.02812E-05 5.69374E-05
 -1      3304-9.81668E-01 3.12294E+00-9.17963E-01 1.49369E-01-1.01409E-03-1.68858E-03
 -1      3305-9.35914E-01 2.98882E+00-8.79269E-01 1.46883E-01-2.03310E-03 1.46358E-03
 -1      3306-7.66414E-01 2.42818E+00-7.11405E-01 2.54753E-01 4.11953E-04 4.99465E-04
 -1      3307-1.13677E+00 3.63881E+00-1.07229E+00 9.73788E-02 1.04733E-03 8.31864E-04
 -1      3308-1.09210E+00 3.49194E+00-1.02795E+00 9.86611E-02 1.19696E-03-2.88348E-03
 -1      3309-8.80063E-01 2.79199E+00-8.20501E-01 2.33913E-01 3.03457E-04-1.07429E-03
 -1      3310-1.16171E+00 3.72513E+00-1.09744E+00 1.36289E-01 4.04356E-04 3.97934E-04
 -1      3311-1.11472E+00 3.57536E+00-1.05411E+00 1.36019E-01 1.55938E-04 8.37418E-05
 -1      3312-9.72418E-01 3.09879E+00-9.11105E-01 2.23199E-01 1.01790E-03-3.01732E-03
 -1      3313-1.21134E+00 3.88721E+00-1.14628E+00 1.67696E-01-1.12042E-03-3.18597E-05
 -1      3314-1.16031E+00 3.73428E+00-1.10314E+00 1.66180E-01-1.45408E-03-1.53357E-04
 -1      3315-9.53115E-01 3.03323E+00-8.89400E-01 2.87036E-01 4.46700E-04-3.32522E-03
 -1      3316-1.39065E+00 4.49098E+00-1.32841E+00 1.10135E-01 1.23853E-03 1.99864E-03
 -1      3317-1.34024E+00 4.32708E+00-1.27998E+00 1.10389E-01 6.81885E-04-1.79496E-03
 -1      3318-1.08573E+00 3.45985E+00-1.01637E+00 2.64671E-01 1.36903E-03 3.73455E-03
 -1      3319-1.41316E+00 4.56745E+00-1.35143E+00 1.52035E-01 1.30806E-03 1.11448E-03
 -1      3320-1.36191E+00 4.40349E+00-1.30435E+00 1.52815E-01 1.06673E-03-3.37361E-04
 -1      3321-1.18155E+00 3.81687E+00-1.12885E+00 2.51834E-01 6.79203E-04-3.17648E-03
 -1      3322-1.46535E+00 4.73705E+00-1.40207E+00 1.83995E-01-1.28217E-03 3.56559E-04
 -1      3323-1.40917E+00 4.57064E+00-1.35454E+00 1.81995E-01-2.47147E-03 1.95172E-03
 -1      3324-1.15338E+00 3.71547E+00-1.09875E+00 3.18195E-01-1.26824E-03 1.85973E-03
 -1      3325-1.67151E+00 5.43349E+00-1.61252E+00 1.22307E-01 1.12405E-03 3.07346E-03
 -1      3326-1.61620E+00 5.25290E+00-1.55869E+00 1.22464E-01 1.19039E-03-1.58535E-03
 -1      3327-1.30750E+00 4.20198E+00-1.24275E+00 2.94331E-01 5.41388E-04 5.46561E-03
 -1      3328-1.69595E+00 5.50207E+00-1.63018E+00 1.64272E-01-3.69096E-05-5.94828E-05
 -1      3329-1.63882E+00 5.32055E+00-1.57759E+00 1.64158E-01-4.78088E-04 3.41629E-04
 -1      3330-1.42206E+00 4.60902E+00-1.36585E+00 2.73246E-01 7.03449E-04-8.68816E-04
 -1      3331-1.74392E+00 5.66151E+00-1.67862E+00 2.01181E-01-1.33152E-03 2.16045E-04
 -1      3332-1.68225E+00 5.47717E+00-1.62639E+00 1.99917E-01-2.07454E-03 4.51987E-05
 -1      3333-1.38097E+00 4.45957E+00-1.31893E+00 3.47039E-01 3.71796E-04-5.07323E-03
 -1      3334-1.97512E+00 6.44482E+00-1.91540E+00 1.38857E-01 1.08708E-03 2.87275E-03
 -1      3335-1.91486E+00 6.24814E+00-1.85667E+00 1.37211E-01-1.17403E-05-1.37020E-03
 -1      3336-1.53772E+00 4.99088E+00-1.47910E+00 3.19205E-01 1.03613E-03 5.70713E-03
 -1      3337-2.01050E+00 6.55780E+00-1.94851E+00 1.73836E-01 1.52896E-03 1.74833E-03
 -1      3338-1.95012E+00 6.36302E+00-1.89243E+00 1.75120E-01 1.18915E-03-8.18933E-04
 -1      3339-1.68591E+00 5.49991E+00-1.63421E+00 3.00264E-01 1.66639E-03-3.29779E-03
 -1      3340-2.10234E+00 6.85334E+00-2.03758E+00 1.85768E-01 7.94177E-04 5.98432E-04
 -1      3341-2.03680E+00 6.65349E+00-1.97977E+00 1.82636E-01-2.67055E-03-1.23823E-03
 -1      3342-1.69187E+00 5.50270E+00-1.63366E+00 3.40215E-01 1.39791E-03 1.97831E-03
 -1      3343-2.14612E+00 7.01104E+00-2.08342E+00 2.30072E-01-3.07563E-03 2.13095E-03
 -1      3344-2.08105E+00 6.80706E+00-2.02571E+00 2.30427E-01-1.52955E-03-1.21206E-03
 -1      3345-1.46167E+00 4.72067E+00-1.39794E+00 4.98340E-01 1.46387E-03 5.93908E-03
 -1      3346-1.86709E+00 6.08735E+00-1.80699E+00 3.01152E-01-4.34334E-03 4.11053E-04
 -1      3347-1.48493E+00 4.81824E+00-1.42494E+00 4.42471E-01 9.10588E-04-1.02614E-03
 -1      3348-2.29632E+00 7.51032E+00-2.23489E+00 2.14671E-01-2.14892E-03-6.86458E-04
 -1      3349-2.23057E+00 7.29722E+00-2.17235E+00 2.13489E-01-6.33061E-04-6.30592E-04
 -1      3350-1.75349E+00 5.71579E+00-1.69836E+00 4.20850E-01 2.98606E-03 3.41156E-03
 -1      3351-2.31700E+00 7.58699E+00-2.25725E+00 2.60255E-01 1.85251E-03 1.22323E-03
 -1      3352-2.25573E+00 7.37255E+00-2.19397E+00 2.58892E-01 1.72764E-03-1.90720E-03
 -1      3353-1.79859E+00 5.86106E+00-1.74170E+00 4.50438E-01 1.73912E-03-1.99003E-03
 -1      3354-2.49169E+00 8.16357E+00-2.42932E+00 2.35510E-01-1.04479E-03 3.65125E-04
 -1      3355-2.42339E+00 7.94158E+00-2.36454E+00 2.32463E-01-2.98248E-03 9.63332E-04
 -1      3356-1.85403E+00 6.05107E+00-1.80245E+00 4.67047E-01 1.39620E-03 4.66825E-04
 -1      3357-2.61710E+00 8.56877E+00-2.55022E+00 2.45649E-01-1.76959E-03 1.49782E-03
 -1      3358-2.54257E+00 8.33490E+00-2.48333E+00 2.38104E-01-2.09313E-03-2.70534E-03
 -1      3359-2.01117E+00 6.56696E+00-1.95472E+00 4.54194E-01 6.13405E-04-3.03752E-03
 -1      3360-2.83188E+00 9.32495E+00-2.77145E+00 2.91284E-01-1.01721E-02-3.89026E-04
 -1      3361-2.74160E+00 9.04954E+00-2.69731E+00 2.77473E-01-4.31082E-04-5.50688E-03
 -1      3362-1.79272E+00 5.91507E+00-1.76111E+00 5.76431E-01-1.05030E-03-8.50818E-03
 -1      3363-2.35487E+00 7.74684E+00-2.31187E+00 3.72969E-01-6.47481E-03 2.18298E-03
 -1      3364-1.89748E+00 6.28358E+00-1.88543E+00 6.09568E-01 1.77824E-03-8.38551E-03
 -1      3365-2.19841E+00 7.55832E+00-2.30621E+00 6.68950E-01 6.84920E-03 5.78732E-03
 -1      3366-2.21852E+00 9.23583E+00-3.04983E+00 1.85401E+00 3.37103E-03-3.25038E-03
 -1      3367-2.42946E+00 9.69872E+00-3.12510E+00 1.29136E+00-1.06312E-02 1.05247E-02
 -1      3368-1.78429E+00 8.11703E+00-2.69154E+00 8.86453E-01-1.33854E-02-3.13568E-03
 -1      3369-1.76136E+00 8.37291E+00-2.85313E+00 2.49901E+00-1.99461E-02-1.51309E-02
 -1      3370-2.21751E+00 9.43652E+00-3.12257E+00 2.22014E+00-3.76045E-02-1.52756E-02
 -1      3371-1.55249E+00 7.48544E+00-2.53475E+00 9.72789E-01 3.01752E-02 1.14517E-02
 -1      3372-9.80888E-01 6.29314E+00-2.26811E+00 2.70076E+00-1.11164E-01 1.46985E-02
 -1      3373-1.55609E+00 7.45617E+00-2.53759E+00 2.66152E+00-5.75456E-02 3.09133E-02
 -1      3374-1.61120E+00 7.45646E+00-2.50076E+00 1.92248E+00 2.75019E-02-2.23723E-03
 -1      3375-1.52544E+00 6.62833E+00-2.17379E+00 7.41464E-01-6.25471E-02 7.66533E-02
 -1      3376-6.29007E-01 5.91063E+00-2.24393E+00 3.48891E+00-2.64957E-01-8.77102E-02
 -1      3377-1.01912E+00 6.20646E+00-2.16963E+00 2.29939E+00-2.85645E-01 4.56310E-03
 -1      3378-2.69714E-01 1.59007E+00-5.66988E-01-6.11961E-02-6.00706E-03 3.99938E-03
 -1      3379 4.39899E-02 1.12349E-01-5.95741E-02-1.34693E-02-1.73668E-03 4.22764E-03
 -1      3380-2.48262E-01 1.58879E+00-5.78158E-01 2.13933E-01 3.61613E-03 2.16613E-03
 -1      3381 2.57053E-01-1.15019E+00 3.90166E-01-1.16387E-01 1.91119E-03 3.83422E-03
 -1      3382 3.14118E-01-1.17765E+00 3.79167E-01 1.55013E-01-8.25581E-04-4.71759E-04
 -1      3383 5.10867E-01-1.71687E+00 5.22671E-01 5.62618E-01-2.04763E-03 3.06909E-03
 -1      3384 1.14857E-01-1.12870E-01 2.05098E-03 4.87081E-01-9.28662E-04 1.56460E-03
 -1      3385 4.37854E-01-1.52716E+00 4.64294E-01 3.74933E-01-1.48564E-03 4.04513E-03
 -1      3386-1.89776E-01 1.14656E+00-4.15993E-01 6.23269E-01 2.02218E-03-4.08269E-03
 -1      3387-2.11045E-01 1.33764E+00-4.76997E-01 4.38099E-01-3.18308E-03-2.64036E-03
 -1      3388-5.54951E-01 2.88265E+00-9.97465E-01 4.06668E-01-6.20539E-03 6.17624E-03
 -1      3389 6.83502E-01-2.79314E+00 8.99400E-01 2.71514E-01-6.94055E-03 6.67003E-03
 -1      3390-9.06799E-01 3.10852E+00-9.39537E-01 7.38797E-01 1.29318E-04-8.54162E-04
 -1      3391-1.18777E-01 5.14908E-01-1.70772E-01 8.00622E-01-3.24893E-03 3.59150E-03
 -1      3392-7.28512E-01 2.46330E+00-7.42682E-01 7.64425E-01 3.46255E-03 1.96025E-03
 -1      3393-1.16274E+00 3.83936E+00-1.14975E+00 7.13662E-01 3.96358E-03-1.78368E-03
 -1      3394-3.82341E-01 1.28687E+00-3.87884E-01 7.87339E-01-7.42925E-04-1.91134E-03
 -1      3395 3.85945E-01-1.31004E+00 3.97542E-01 7.62489E-01-1.90690E-03-3.55801E-04
 -1      3396-9.26116E-03 3.59711E-02-1.11871E-02 8.09212E-01-2.80225E-03-1.66159E-03
 -1      3397 4.39950E-01-1.44923E+00 4.33942E-01 7.68598E-01-4.55773E-03-1.57854E-03
 -1      3398-4.36075E-01 1.42286E+00-4.21464E-01 7.66331E-01 2.18029E-04-4.61084E-04
 -1      3399 2.60893E-01-7.70490E-01 2.17208E-01 7.60893E-01-4.35719E-03 1.90460E-04
 -1      3400 4.38167E-01-1.39232E+00 4.09849E-01 7.67465E-01-6.38096E-03 5.00888E-03
 -1      3401 8.25704E-01-2.74623E+00 8.19904E-01 7.31044E-01-2.27420E-03 2.83224E-03
 -1      3402-3.41132E-02 1.90629E-02 6.49646E-03 3.08684E-02 2.67742E-04-5.97847E-05
 -1      3403-3.31069E-02 1.76323E-02 6.59940E-03 3.97402E-02 2.18281E-04-2.65658E-04
 -1      3404-2.39979E-02 9.39920E-03 6.49775E-03 3.63384E-02 1.66418E-04 8.93598E-05
 -1      3405-4.05305E-02 2.71515E-02 6.23829E-03 4.29665E-02 2.84333E-05-2.10397E-04
 -1      3406-3.06430E-02 1.68575E-02 6.24400E-03 4.92919E-02 1.99248E-04-1.48444E-04
 -1      3407-7.08305E-03-9.79703E-03 7.26082E-03 3.19079E-02-1.20947E-05 1.18167E-04
 -1      3408-1.69771E-02 1.15495E-03 6.74217E-03 3.74156E-02 2.34399E-04 1.73265E-04
 -1      3409-1.20417E-02-5.42739E-03 7.63973E-03 4.08571E-02 1.53795E-04 1.59445E-04
 -1      3410-5.12698E-03-1.74471E-02 9.46034E-03 4.39072E-02-1.85528E-04 1.72041E-04
 -1      3411-1.56373E-02-3.81291E-03 8.51732E-03 4.92772E-02 2.61840E-04-1.53151E-04
 -1      3412-1.82065E-02 3.80334E-03 6.06464E-03 2.83420E-02 1.21248E-04 9.18599E-05
 -1      3413-1.61559E-02-3.99767E-03 8.96231E-03 5.91052E-02 3.56055E-04 3.13853E-04
 -1      3414-2.26669E-02 6.49295E-03 7.07577E-03 5.51202E-02 1.55113E-04 2.01566E-04
 -1      3415-3.17007E-02 1.66443E-02 6.62743E-03 5.84039E-02-3.06768E-05-4.13809E-06
 -1      3416 9.44957E-03-6.15685E-02 2.27846E-02 7.94576E-02 3.44465E-05 6.18711E-05
 -1      3417-1.20954E-02-1.73530E-02 1.20447E-02 9.38055E-02 6.43407E-05-2.19227E-04
 -1      3418-6.15507E-04-4.15235E-02 1.79158E-02 9.32845E-02-1.08719E-03 1.74061E-05
 -1      3419-8.95288E-03-2.55143E-02 1.46653E-02 1.05529E-01 5.41495E-05 2.61702E-04
 -1      3420 1.42061E-02-7.79030E-02 2.61282E-02 9.11446E-02-8.89956E-04-1.57379E-04
 -1      3421-3.59807E-02 3.20999E-02 1.70051E-03 9.28050E-02 2.55043E-04-2.90357E-04
 -1      3422-5.57986E-02 7.34897E-02-7.99614E-03 8.20286E-02 7.81674E-05-2.02012E-04
 -1      3423-4.57907E-02 5.27542E-02-2.78975E-03 9.48690E-02 9.55250E-04-1.21482E-04
 -1      3424-5.96415E-02 8.72837E-02-1.14908E-02 9.51605E-02 3.05456E-04 3.88444E-04
 -1      3425-3.87604E-02 3.97997E-02-2.00752E-04 1.04878E-01 4.30501E-04-4.13837E-05
 -1      3426-3.60105E-02 3.20236E-02 2.18314E-03 8.22149E-02-3.00433E-04-3.32191E-04
 -1      3427-2.47044E-02 8.59525E-03 7.01272E-03 9.42369E-02-1.02326E-04-4.85070E-06
 -1      3428-1.28896E-02-1.53166E-02 1.18291E-02 8.30021E-02-3.53317E-04-6.28315E-04
 -1      3429-8.96275E-03-2.69160E-02 1.55827E-02 1.14196E-01-2.13210E-04-1.68340E-04
 -1      3430-2.39716E-02 7.15816E-03 7.17841E-03 1.13835E-01 1.59902E-04 9.59187E-05
 -1      3431-3.80647E-02 3.91531E-02-8.04478E-04 1.14339E-01-2.65332E-04 2.97982E-04
 -1      3432-7.89338E-02 1.53771E-01-3.28839E-02 1.31650E-01 8.48619E-04 2.05243E-04
 -1      3433-5.98994E-02 1.01308E-01-1.85122E-02 1.46767E-01 1.27004E-03-5.59863E-04
 -1      3434-4.46169E-02 6.29742E-02-8.16877E-03 1.47423E-01 4.20518E-04-4.34372E-04
 -1      3435-8.55998E-02 1.76283E-01-3.86096E-02 1.44265E-01 7.31384E-04-3.13035E-04
 -1      3436-4.95550E-02 7.48853E-02-1.08435E-02 1.60198E-01-5.19564E-04-9.28674E-04
 -1      3437-3.88438E-03-4.59353E-02 2.10632E-02 1.47346E-01-1.66169E-04-5.13682E-04
 -1      3438 1.14896E-02-8.45956E-02 3.19405E-02 1.46331E-01-1.35157E-03-4.64481E-04
 -1      3439 3.13868E-02-1.36998E-01 4.60490E-02 1.31865E-01-5.41102E-04-1.32652E-04
 -1      3440 3.59708E-04-6.08863E-02 2.52120E-02 1.58154E-01 4.35211E-04-9.82351E-04
 -1      3441 3.71545E-02-1.58121E-01 5.15509E-02 1.42817E-01-8.08042E-04-3.79844E-04
 -1      3442-4.50995E-02 6.35791E-02-7.93159E-03 1.36967E-01-1.35273E-04-2.88548E-04
 -1      3443-2.48480E-02 9.87962E-03 6.23637E-03 1.50826E-01 7.71602E-05-6.23195E-04
 -1      3444-4.52881E-03-4.47077E-02 2.06111E-02 1.36182E-01-5.60889E-04 1.67479E-04
 -1      3445 2.92336E-03-6.14029E-02 2.56875E-02 1.66843E-01-2.67875E-04-8.52946E-04
 -1      3446-2.30546E-02 7.17740E-03 7.04149E-03 1.68740E-01 4.41502E-04-1.00252E-03
 -1      3447-4.93866E-02 7.68296E-02-1.21995E-02 1.69655E-01-4.81701E-04 2.45189E-04
 -1      3448-5.73113E-02 1.06329E-01-2.15756E-02 2.01583E-01-6.97069E-04 7.62740E-04
 -1      3449-1.17893E-01 2.80034E-01-7.06291E-02 1.78534E-01 4.03971E-04 2.20584E-04
 -1      3450-8.45668E-02 1.84702E-01-4.34896E-02 1.96546E-01 1.14678E-03-3.00051E-04
 -1      3451-1.26468E-01 3.10766E-01-7.76547E-02 1.89905E-01 1.41571E-04-2.24744E-04
 -1      3452-6.35987E-02 1.23435E-01-2.46099E-02 2.13332E-01-1.90239E-03-1.07052E-03
 -1      3453 7.47228E-02-2.77089E-01 8.59939E-02 1.74586E-01 2.81168E-05-1.02440E-03
 -1      3454 1.18851E-02-9.60807E-02 3.50483E-02 2.01124E-01-3.80035E-04-6.83044E-04
 -1      3455 4.11699E-02-1.81944E-01 5.91930E-02 1.96098E-01 1.62284E-03 7.39865E-05
 -1      3456 8.35897E-02-3.07097E-01 9.48016E-02 1.84554E-01 1.18871E-04 1.17063E-03
 -1      3457 1.82176E-02-1.17362E-01 4.30880E-02 2.12107E-01 1.02920E-03-9.64295E-05
 -1      3458-5.74198E-02 1.01320E-01-1.87558E-02 1.91883E-01-7.99903E-04-4.75323E-04
 -1      3459-2.07044E-02 5.12614E-03 7.15304E-03 2.06256E-01-4.72102E-04-1.18606E-03
 -1      3460 1.20445E-02-9.81132E-02 3.65731E-02 1.88062E-01-4.29239E-04-1.57458E-04
 -1      3461 1.91869E-02-1.21033E-01 4.42106E-02 2.21150E-01 8.29368E-05 1.08849E-03
 -1      3462-2.22113E-02 2.32969E-03 8.51541E-03 2.25008E-01-8.76103E-04 1.42183E-03
 -1      3463-6.28500E-02 1.23484E-01-2.58595E-02 2.21444E-01-1.31186E-03 5.47483E-04
 -1      3464-7.55946E-02 1.61865E-01-3.67515E-02 2.54727E-01 4.09413E-04-2.77196E-04
 -1      3465-1.66308E-01 4.39562E-01-1.18286E-01 2.27838E-01 7.23857E-04-2.75229E-04
 -1      3466-1.14297E-01 2.86549E-01-7.30218E-02 2.50968E-01 3.24817E-03 9.42034E-04
 -1      3467-1.75807E-01 4.77399E-01-1.27620E-01 2.40058E-01 1.20807E-03 9.67554E-04
 -1      3468-8.15347E-02 1.85724E-01-4.41830E-02 2.68779E-01 9.11931E-04 1.92406E-03
 -1      3469 1.24511E-01-4.47145E-01 1.39643E-01 2.20179E-01-5.18464E-04-8.00181E-04
 -1      3470 3.22865E-02-1.60620E-01 5.49980E-02 2.51635E-01-6.15953E-04-6.19809E-04
 -1      3471 7.30456E-02-2.90703E-01 9.28441E-02 2.47130E-01-2.94430E-03 8.18731E-04
 -1      3472 1.35159E-01-4.85002E-01 1.48855E-01 2.34195E-01-3.85935E-04 9.10557E-04
 -1      3473 3.94581E-02-1.86976E-01 6.26763E-02 2.67145E-01-7.07932E-04 1.68193E-03
 -1      3474-7.40607E-02 1.58544E-01-3.48881E-02 2.46149E-01 8.47885E-04-2.18482E-04
 -1      3475-2.18042E-02 3.08186E-04 9.65023E-03 2.63359E-01 3.04003E-04 3.99533E-04
 -1      3476 3.12145E-02-1.61553E-01 5.56482E-02 2.43693E-01-1.27636E-03-4.08410E-04
 -1      3477 4.04626E-02-1.90028E-01 6.44283E-02 2.73744E-01-3.89523E-04 3.47679E-04
 -1      3478-2.14120E-02-3.85245E-05 9.14009E-03 2.83017E-01 2.05312E-04 2.29992E-03
 -1      3479-8.10913E-02 1.86475E-01-4.54189E-02 2.76043E-01 1.23147E-03 3.33546E-04
 -1      3480-9.59834E-02 2.32741E-01-5.93524E-02 3.09980E-01 8.04846E-04-1.13879E-03
 -1      3481-2.25911E-01 6.37606E-01-1.77978E-01 2.77278E-01 1.29270E-03-4.36020E-04
 -1      3482-1.52023E-01 4.07324E-01-1.09786E-01 3.02933E-01 3.58551E-03 2.17546E-05
 -1      3483-2.37717E-01 6.82550E-01-1.89000E-01 2.88752E-01 9.84860E-04 1.16153E-03
 -1      3484-1.01706E-01 2.61633E-01-6.78213E-02 3.19270E-01-6.40424E-05 1.04445E-03
 -1      3485 1.84657E-01-6.53695E-01 2.01055E-01 2.65369E-01 5.34861E-04-1.88193E-03
 -1      3486 5.70145E-02-2.42481E-01 7.86457E-02 3.08504E-01 2.50913E-03 8.61946E-04
 -1      3487 1.13495E-01-4.24411E-01 1.32985E-01 2.98067E-01 3.14380E-03-4.50304E-04
 -1      3488 2.02900E-01-7.01575E-01 2.13664E-01 2.76694E-01 1.64144E-04 9.93169E-04
 -1      3489 6.41189E-02-2.70713E-01 8.99238E-02 3.20322E-01 2.58240E-03-1.58999E-03
 -1      3490-9.55383E-02 2.32467E-01-5.70945E-02 2.97003E-01-5.84791E-04-1.01401E-03
 -1      3491-2.32801E-02-3.85192E-03 1.10416E-02 3.18007E-01 9.13236E-04-2.52115E-03
 -1      3492 5.46032E-02-2.42028E-01 7.84287E-02 2.95948E-01 1.69554E-03-1.18002E-03
 -1      3493 6.81232E-02-2.76007E-01 9.16769E-02 3.26977E-01 1.11606E-03 8.20107E-04
 -1      3494-2.07901E-02-5.94948E-03 1.14703E-02 3.37715E-01 3.17381E-04-5.11680E-04
 -1      3495-1.05472E-01 2.58031E-01-6.63874E-02 3.28683E-01 6.78631E-04-6.06000E-04
 -1      3496 2.66269E-01-9.11469E-01 2.76173E-01 3.13380E-01-7.81044E-04 3.60315E-05
 -1      3497 1.03115E-01-3.87484E-01 1.19657E-01 3.58109E-01 2.93364E-04 1.45454E-03
 -1      3498 1.76655E-01-6.33866E-01 1.95832E-01 3.46571E-01 1.02619E-03 7.48637E-04
 -1      3499 2.82620E-01-9.72425E-01 2.95027E-01 3.26795E-01-6.33942E-04 1.90672E-03
 -1      3500 1.12929E-01-4.30319E-01 1.37199E-01 3.71401E-01-8.08023E-04 8.57885E-04
 -1      3501-1.21096E-01 3.22375E-01-8.63968E-02 3.54447E-01 5.29638E-04 1.10327E-03
 -1      3502-1.09543E-01 2.74631E-01-7.24214E-02 3.64252E-01-1.24496E-03 1.33351E-03
 -1      3503-4.56023E-03-5.19684E-02 2.31560E-02 3.75905E-01-1.50019E-03 2.62054E-03
 -1      3504 8.76523E-02-3.44164E-01 1.06425E-01 3.52321E-01-1.77929E-03 7.29043E-04
 -1      3505 1.03700E-01-3.94961E-01 1.26623E-01 3.76581E-01-2.05405E-03-7.07831E-04
 -1      3506-3.01908E-04-6.74938E-02 2.86868E-02 3.96236E-01-3.33877E-04 2.77089E-03
 -1      3507-1.31020E-01 3.42699E-01-9.22084E-02 3.80181E-01 1.46432E-03-4.06474E-04
 -1      3508-1.17627E-01 3.12666E-01-8.17692E-02 3.73416E-01 2.16485E-03 1.70306E-03
 -1      3509-2.40991E-01 6.90153E-01-1.93510E-01 3.53693E-01 1.54335E-03 9.64011E-04
 -1      3510 3.45127E-01-1.17535E+00 3.56537E-01 3.64214E-01-1.80468E-03 1.27753E-03
 -1      3511 1.48875E-01-5.50498E-01 1.73442E-01 4.11326E-01 9.54403E-04 1.90863E-03
 -1      3512 2.37014E-01-8.40007E-01 2.58378E-01 3.95063E-01-2.44135E-03 1.45066E-03
 -1      3513 3.62371E-01-1.24277E+00 3.75487E-01 3.73388E-01-9.31856E-04 1.17451E-04
 -1      3514 1.63383E-01-5.95725E-01 1.86778E-01 4.24726E-01 2.60408E-05 2.14182E-03
 -1      3515-1.43865E-01 3.98729E-01-1.08368E-01 4.08828E-01 2.43561E-04 7.54598E-04
 -1      3516-1.18463E-01 3.09303E-01-8.16598E-02 4.24653E-01 2.22000E-03 3.87697E-04
 -1      3517 7.63777E-03-1.05211E-01 4.30603E-02 4.28054E-01 1.31992E-03-9.91727E-04
 -1      3518 1.20230E-01-4.55414E-01 1.43701E-01 4.04084E-01 4.84965E-04-3.46541E-04
 -1      3519 1.42123E-01-5.27327E-01 1.65397E-01 4.33457E-01-2.44427E-03 4.59554E-04
 -1      3520 1.81784E-02-1.28353E-01 4.92675E-02 4.48683E-01 5.37897E-04 3.48895E-03
 -1      3521-1.18460E-01 3.04817E-01-8.12677E-02 4.38605E-01-1.09224E-03 2.08759E-03
 -1      3522-9.48569E-02 2.32548E-01-5.62807E-02 4.34589E-01 2.69975E-03 2.97735E-03
 -1      3523-2.49261E-01 7.42979E-01-2.09786E-01 4.14937E-01 1.95846E-04 2.42203E-03
 -1      3524 4.42102E-01-1.50343E+00 4.56537E-01 4.10779E-01-7.85266E-04-7.98674E-04
 -1      3525 1.95984E-01-7.05821E-01 2.18851E-01 4.64477E-01-3.16379E-04-2.69218E-03
 -1      3526 3.05984E-01-1.06342E+00 3.24635E-01 4.48171E-01-3.67206E-03-2.61278E-04
 -1      3527 4.62753E-01-1.57806E+00 4.76524E-01 4.21265E-01-1.46106E-03 9.46145E-04
 -1      3528 2.12439E-01-7.60032E-01 2.34112E-01 4.76633E-01-6.52719E-04 2.00683E-03
 -1      3529-1.71743E-01 4.94293E-01-1.36663E-01 4.62629E-01 2.98660E-03 5.13987E-04
 -1      3530-1.41928E-01 3.93026E-01-1.08050E-01 4.79301E-01 3.08729E-03-1.90569E-03
 -1      3531 2.31461E-02-1.43145E-01 5.19785E-02 4.85665E-01 1.35436E-03-2.82952E-03
 -1      3532 1.62304E-01-5.99290E-01 1.85972E-01 4.51902E-01-8.90971E-04-7.03609E-04
 -1      3533 1.90268E-01-6.84869E-01 2.13437E-01 4.82634E-01-1.94297E-03-8.27811E-05
 -1      3534 3.51733E-02-1.84253E-01 6.37138E-02 5.06067E-01 5.87764E-04 1.59592E-03
 -1      3535-1.34967E-01 3.53834E-01-9.42129E-02 4.93352E-01 8.46117E-04-7.48548E-04
 -1      3536-1.09176E-01 2.81093E-01-7.23232E-02 4.89381E-01 1.42722E-03 8.78274E-04
 -1      3537-3.10517E-01 9.29379E-01-2.64934E-01 4.67223E-01 1.33705E-03-1.26694E-03
 -1      3538 5.52124E-01-1.86273E+00 5.62740E-01 4.57548E-01 3.57903E-04-5.81064E-04
 -1      3539 2.49896E-01-8.77800E-01 2.68009E-01 5.17950E-01 3.30222E-03 2.92108E-03
 -1      3540 3.83544E-01-1.32328E+00 4.01680E-01 4.95132E-01 2.56255E-03-1.29452E-03
 -1      3541 5.75510E-01-1.94850E+00 5.86251E-01 4.66318E-01-6.11066E-04-1.22444E-03
 -1      3542 2.67078E-01-9.34137E-01 2.85586E-01 5.32818E-01 3.42341E-03-3.38385E-03
 -1      3543-2.06718E-01 6.14700E-01-1.74455E-01 5.15421E-01-2.90553E-04 1.78441E-03
 -1      3544-1.70315E-01 4.81196E-01-1.34954E-01 5.28433E-01 1.65970E-03 5.32526E-05
 -1      3545 3.64563E-02-1.81871E-01 6.26688E-02 5.39450E-01 2.27072E-04 2.32668E-03
 -1      3546 2.04611E-01-7.42635E-01 2.28132E-01 5.09022E-01 1.80333E-03 5.60169E-04
 -1      3547 2.38776E-01-8.50947E-01 2.64253E-01 5.40924E-01 1.73393E-03-1.10539E-03
 -1      3548 4.67933E-02-2.29821E-01 7.91772E-02 5.58642E-01 7.83028E-04-2.49955E-03
 -1      3549-1.57796E-01 4.33193E-01-1.16723E-01 5.49271E-01 1.77220E-03-1.43830E-03
 -1      3550-1.23280E-01 3.43450E-01-9.14625E-02 5.39461E-01 1.96449E-03-1.41153E-03
 -1      3551-3.74829E-01 1.14462E+00-3.28804E-01 5.17365E-01 1.24479E-03-1.59556E-03
 -1      3552 6.72124E-01-2.26627E+00 6.86399E-01 5.04339E-01-7.90358E-04-1.89940E-03
 -1      3553 3.05268E-01-1.06709E+00 3.28453E-01 5.72995E-01-1.12207E-03-3.95241E-03
 -1      3554 4.68295E-01-1.59830E+00 4.86439E-01 5.49365E-01-5.69847E-03-1.79347E-03
 -1      3555 6.97710E-01-2.36287E+00 7.11929E-01 5.13776E-01-1.33869E-03 7.46168E-04
 -1      3556 3.21964E-01-1.13867E+00 3.50269E-01 5.78750E-01-9.61332E-04 1.03885E-03
 -1      3557-2.48238E-01 7.50453E-01-2.14291E-01 5.67875E-01-2.15525E-03-1.05549E-03
 -1      3558-2.04299E-01 5.89193E-01-1.68189E-01 5.86751E-01-4.89086E-03 8.27126E-04
 -1      3559 4.93366E-02-2.20956E-01 7.57693E-02 5.96166E-01-2.07001E-03-3.33311E-03
 -1      3560 2.54948E-01-9.02313E-01 2.76828E-01 5.62799E-01-2.58593E-03-1.27098E-03
 -1      3561 2.89897E-01-1.01876E+00 3.15796E-01 5.95684E-01-4.69372E-03 6.72218E-04
 -1      3562 6.55200E-02-2.71489E-01 9.01770E-02 6.13296E-01-3.90947E-03-1.93119E-03
 -1      3563-1.90938E-01 5.38445E-01-1.51033E-01 6.01702E-01-2.72726E-03 1.76478E-03
 -1      3564-1.49776E-01 4.21726E-01-1.16157E-01 5.95634E-01-3.42791E-03-1.61141E-03
 -1      3565-4.53999E-01 1.40280E+00-4.07757E-01 5.71397E-01-3.32388E-03 3.29036E-03
 -1      3566 8.21211E-01-2.77759E+00 8.39801E-01 6.87999E-01 2.30710E-03 2.06801E-03
 -1      3567 6.66974E-01-2.27357E+00 6.85506E-01 7.01640E-01 5.49341E-03-2.80790E-04
 -1      3568 1.51885E-01-5.47973E-01 1.73010E-01 7.75004E-01 1.07006E-03 1.59778E-03
 -1      3569 1.02373E+00-3.43913E+00 1.03748E+00 6.51040E-01-1.66921E-03-3.77020E-03
 -1      3570 3.59076E-01-1.25239E+00 3.78229E-01 7.37522E-01-3.22990E-04 5.13836E-05
 -1      3571-4.98781E-01 1.57861E+00-4.61385E-01 7.11592E-01-2.34321E-03-2.69637E-03
 -1      3572-4.59415E-01 1.45023E+00-4.28303E-01 7.27384E-01 4.90514E-03-3.51050E-03
 -1      3573-4.55831E-02 7.88338E-02-1.41000E-02 7.59198E-01 1.23514E-03-5.72438E-03
 -1      3574 3.16325E-01-1.11851E+00 3.40281E-01 7.18334E-01 1.09806E-03-2.26840E-03
 -1      3575-2.50398E-01 7.56469E-01-2.16121E-01 7.53470E-01 9.19453E-04-1.58593E-03
 -1      3576-3.99517E-01 1.23642E+00-3.59341E-01 7.43534E-01 3.04256E-03 2.27710E-03
 -1      3577-8.64204E-01 2.75851E+00-8.12122E-01 6.99212E-01 2.20821E-03-2.98450E-03
 -1      3578-3.15182E-01 9.64703E-01-2.77904E-01 6.22673E-01 8.06423E-04 1.57684E-04
 -1      3579-3.18456E-01 9.71549E-01-2.81762E-01 6.37550E-01 2.26519E-03-1.42830E-04
 -1      3580-1.73684E-02-1.42140E-02 1.33971E-02 6.54218E-01 1.95323E-04-1.47971E-03
 -1      3581 2.88367E-01-1.01786E+00 3.12394E-01 6.21341E-01-1.01050E-03 1.12545E-04
 -1      3582 2.88701E-01-1.01900E+00 3.14993E-01 6.34857E-01-1.70437E-03-1.33630E-04
 -1      3583 2.78388E-01-9.72861E-01 2.98456E-01 6.46154E-01 7.60181E-04 7.72456E-04
 -1      3584 2.73396E-01-9.65639E-01 2.94786E-01 6.46180E-01-1.38022E-03 4.00307E-03
 -1      3585-1.50746E-02-2.29022E-02 1.68904E-02 6.74004E-01-4.95351E-05 4.21626E-03
 -1      3586-2.68900E-01 7.89698E-01-2.23823E-01 6.49051E-01-8.22388E-04 2.51382E-03
 -1      3587-2.70394E-01 8.09430E-01-2.29345E-01 6.49211E-01 1.12442E-03 3.26481E-03
 -1      3588-5.64162E-01 1.79376E+00-5.24240E-01 6.17864E-01-7.70039E-04 3.65717E-03
 -1      3589 5.76261E-01-1.97661E+00 5.97979E-01 6.10376E-01 1.34925E-03 3.65015E-03
 -1      3590 8.69855E-01-2.91753E+00 8.79377E-01 6.19839E-01-3.66311E-03-3.37917E-03
 -1      3591 3.74230E-01-1.30669E+00 4.01189E-01 6.81207E-01-2.50576E-03-1.65400E-03
 -1      3592 5.59436E-01-1.91744E+00 5.79251E-01 6.66733E-01-3.24948E-03 1.34143E-03
 -1      3593 6.71818E-01-2.27561E+00 6.87672E-01 6.50563E-01-8.55303E-04-6.68506E-04
 -1      3594 1.77398E-01-6.49711E-01 2.04007E-01 7.20715E-01-5.63271E-04 3.23744E-03
 -1      3595 3.34741E-01-1.18254E+00 3.60434E-01 6.68763E-01 2.02327E-03-2.11104E-03
 -1      3596 2.75951E-02-1.66661E-01 5.96398E-02 7.08420E-01 1.83046E-03-2.07590E-03
 -1      3597-2.62417E-01 8.10965E-01-2.33253E-01 6.81095E-01 1.59197E-03 2.88806E-03
 -1      3598-2.30392E-01 6.83326E-01-1.96476E-01 6.96783E-01 2.52631E-03 1.64847E-04
 -1      3599-1.60822E-01 4.54751E-01-1.26641E-01 7.08260E-01-3.35010E-03 1.30075E-04
 -1      3600-2.73158E-01 8.09572E-01-2.29661E-01 7.02694E-01 3.09533E-03 3.95440E-03
 -1      3601-5.67658E-01 1.79286E+00-5.27192E-01 6.80213E-01 3.11386E-04 2.42535E-03
 -1      3602-7.90716E-01 3.35136E+00-1.06718E+00-3.99553E-01-5.72684E-02-1.10575E-02
 -1      3603-1.04859E+00 4.82659E+00-1.60369E+00 1.34560E-01-5.59675E-02-4.67211E-03
 -1      3604-1.23471E+00 5.67229E+00-1.89551E+00 3.94845E-01-3.50527E-02-1.95532E-03
 -1      3605-4.46185E-02 1.16705E-01-2.70668E-02-5.60198E-01-2.28621E-03 7.66728E-04
 -1      3606-3.97640E-01 1.94814E+00-6.65320E-01-2.70912E-01-1.09916E-02 1.03917E-03
 -1      3607-4.00873E-01 1.89347E+00-6.31952E-01-5.07440E-01-2.92468E-02 1.97356E-02
 -1      3608-1.02146E+00 5.09068E+00-1.73621E+00 4.04559E-01 2.35012E-02-1.19125E-02
 -1      3609-1.11316E+00 5.35375E+00-1.81750E+00 3.08369E-01-2.34551E-02-5.80367E-03
 -1      3610-6.44359E-01 3.42306E+00-1.17521E+00-1.30465E-02 7.94419E-04 3.12282E-03
 -1      3611 3.67819E-01-1.76450E+00 5.86580E-01-5.95368E-01-7.25513E-03-4.69792E-03
 -1      3612 3.61373E-01-1.71148E+00 5.89821E-01-3.54536E-01-1.76399E-02 4.90166E-03
 -1      3613 6.83874E-01-3.23573E+00 1.07229E+00-5.61660E-01 4.53969E-02-1.34086E-02
 -1      3614 1.00523E+00-4.70951E+00 1.57285E+00-1.28529E-01 6.09349E-02-5.32594E-03
 -1      3615 1.24998E+00-5.62720E+00 1.86646E+00 1.36706E-01 3.34785E-02 1.52234E-02
 -1      3616 6.44812E-01-3.06077E+00 1.03519E+00-1.70652E-01-9.44459E-03 1.41874E-02
 -1      3617 9.91008E-01-4.54925E+00 1.52589E+00 1.64148E-01 1.02743E-02 1.68693E-02
 -1      3618 1.08414E+00-5.03050E+00 1.70285E+00 1.29517E-02 8.09675E-03 1.82933E-02
 -1      3619-1.15713E-03-2.44499E-03 1.45738E-03 3.74866E-03 1.51114E-04-1.56074E-04
 -1      3620-5.44262E-03-8.73655E-04 2.66683E-03 8.17045E-03 8.22791E-05-3.74870E-05
 -1      3621-4.06200E-03-2.14564E-03 2.75811E-03 9.07348E-03 4.00178E-05 7.21255E-05
 -1      3622-7.87003E-03 1.37531E-03 2.84414E-03 7.95802E-03-6.74694E-05 3.91517E-05
 -1      3623-1.17431E-02 3.49200E-03 3.55467E-03 9.46558E-03-3.80008E-05-6.66512E-05
 -1      3624-1.81801E-02 8.07357E-03 4.23890E-03 9.16108E-03 2.40742E-05-2.35276E-05
 -1      3625-1.64272E-02 5.84020E-03 4.51383E-03 1.38674E-02 1.52581E-05-6.20699E-05
 -1      3626-1.07912E-02-7.36211E-04 4.95200E-03 2.13342E-02 7.71282E-05 9.23189E-05
 -1      3627-1.74041E-02 5.60545E-03 5.06364E-03 2.03693E-02 3.93549E-06 9.84609E-06
 -1      3628-2.40694E-02 1.13031E-02 5.65655E-03 2.04311E-02 3.65545E-05-3.88862E-05
 -1      3629-5.11254E-03-7.43162E-03 5.51665E-03 2.25428E-02 1.73073E-04 1.22449E-04
 -1      3630-4.64595E-03-5.58802E-03 4.25186E-03 1.54688E-02 1.09388E-04-2.26035E-05
 -1      3631-1.15459E+00 3.73934E+00-1.11301E+00 3.83071E-01 2.90549E-03 8.52287E-04
 -1      3632-1.02583E+00 3.29833E+00-9.78995E-01 4.53163E-01 8.33170E-03-3.24008E-03
 -1      3633-8.05853E-01 2.57687E+00-7.62500E-01 5.10762E-01 2.31409E-03-5.32302E-03
 -1      3634-6.66049E-01 2.12266E+00-6.27536E-01 5.28497E-01-2.72890E-03-1.35144E-03
 -1      3635-5.29614E-01 1.66352E+00-4.88881E-01 5.78892E-01 2.09183E-03-6.07606E-03
 -1      3636-1.01147E+00 3.26184E+00-9.65382E-01 4.71147E-01 3.51652E-03 1.28804E-03
 -1      3637-9.90474E-01 3.18537E+00-9.40640E-01 5.01036E-01 1.84158E-03 5.64358E-05
 -1      3638-6.47862E-01 2.04393E+00-5.98622E-01 5.83003E-01 6.46203E-04-2.96959E-03
 -1      3639 5.71706E-03-8.82047E-02 3.51391E-02 6.38018E-01-1.62687E-03-5.03807E-03
 -1      3640-3.19823E-01 9.90093E-01-2.86558E-01 5.99742E-01-1.29640E-03-3.67014E-03
 -1      3641-3.41013E-01 1.05675E+00-3.09177E-01 6.11083E-01 3.87622E-03-5.28500E-03
 -1      3642-9.63701E-01 3.07213E+00-9.03844E-01 3.57555E-01 1.06951E-03-2.01684E-03
 -1      3643-8.58563E-01 2.74226E+00-8.08885E-01 4.13007E-01-8.23589E-04 2.36088E-03
 -1      3644-6.74720E-01 2.11413E+00-6.16851E-01 4.67091E-01-9.68931E-04 2.85104E-03
 -1      3645-5.49553E-01 1.71934E+00-5.02817E-01 4.88820E-01-3.13373E-03-2.13983E-04
 -1      3646-4.37336E-01 1.38036E+00-4.02321E-01 5.21452E-01 6.53908E-04-3.99306E-03
 -1      3647-8.51314E-01 2.72483E+00-8.02941E-01 4.29605E-01-3.22284E-04-1.66135E-03
 -1      3648-8.24325E-01 2.62930E+00-7.76748E-01 4.61064E-01-4.29725E-03 3.13604E-03
 -1      3649-5.38266E-01 1.67058E+00-4.85702E-01 5.36133E-01-1.24094E-03 4.86308E-03
 -1      3650 4.41554E-03-9.86685E-02 4.16971E-02 5.80013E-01 1.32174E-05 1.76180E-03
 -1      3651-2.72417E-01 8.14284E-01-2.29668E-01 5.50107E-01-2.82655E-03-5.18778E-04
 -1      3652-2.82261E-01 8.53648E-01-2.46116E-01 5.58264E-01-1.91368E-03 1.96321E-03
 -1      3653-7.84632E-01 2.50168E+00-7.35685E-01 3.18027E-01 2.57950E-03 2.46459E-03
 -1      3654-7.06507E-01 2.23450E+00-6.56697E-01 3.72181E-01 4.51875E-03-8.27360E-04
 -1      3655-5.51331E-01 1.72501E+00-5.02933E-01 4.23262E-01 8.28799E-04-2.74800E-03
 -1      3656-4.53923E-01 1.39828E+00-4.05814E-01 4.36080E-01 7.61822E-04-2.06618E-03
 -1      3657-3.67512E-01 1.12367E+00-3.24125E-01 4.74308E-01 5.49419E-05-2.91050E-03
 -1      3658-7.08849E-01 2.22926E+00-6.49624E-01 3.91614E-01 2.02985E-03 2.25192E-03
 -1      3659-6.84268E-01 2.14793E+00-6.27615E-01 4.16280E-01-9.02014E-04 2.18340E-03
 -1      3660-4.40807E-01 1.36743E+00-3.97067E-01 4.89407E-01 1.44589E-04 4.35208E-03
 -1      3661 3.32900E-03-7.81355E-02 3.25370E-02 5.22734E-01-1.07703E-04 1.73918E-03
 -1      3662-2.27797E-01 6.71265E-01-1.87303E-01 4.96598E-01-2.65652E-03-8.68684E-04
 -1      3663-2.35161E-01 6.99033E-01-2.00614E-01 5.04421E-01-3.22051E-03 1.48301E-03
 -1      3664-6.42897E-01 2.00381E+00-5.81434E-01 2.81815E-01 2.86419E-03 3.00049E-03
 -1      3665-5.73798E-01 1.78628E+00-5.21196E-01 3.27932E-01 4.00458E-03 1.99325E-04
 -1      3666-4.51386E-01 1.39164E+00-4.00935E-01 3.71072E-01 1.39721E-03 3.88771E-03
 -1      3667-3.74355E-01 1.13240E+00-3.25090E-01 3.81534E-01-1.68736E-03 2.27926E-03
 -1      3668-3.01250E-01 9.06626E-01-2.60656E-01 4.17867E-01 1.70608E-03 1.99351E-03
 -1      3669-5.72133E-01 1.79025E+00-5.23368E-01 3.45975E-01 2.97888E-03 8.10071E-04
 -1      3670-5.55138E-01 1.73437E+00-5.05925E-01 3.74813E-01 2.91952E-03-1.16040E-03
 -1      3671-3.63545E-01 1.09971E+00-3.15648E-01 4.33442E-01 2.32730E-03-3.23283E-03
 -1      3672-5.68322E-03-5.21437E-02 2.28280E-02 4.68243E-01-7.21012E-04 2.18271E-03
 -1      3673-1.88377E-01 5.50481E-01-1.54457E-01 4.38982E-01 1.68013E-03 2.03113E-03
 -1      3674-1.95352E-01 5.58855E-01-1.56516E-01 4.47750E-01 3.68865E-03-2.31602E-03
 -1      3675-4.49257E-01 1.38277E+00-4.00254E-01 3.12474E-01 2.86594E-03 2.92782E-04
 -1      3676-4.18594E-01 1.28080E+00-3.72146E-01 3.07664E-01 4.37659E-03-3.09121E-03
 -1      3677-4.43722E-01 1.36461E+00-3.94628E-01 3.30581E-01 1.48779E-03-2.47281E-04
 -1      3678-2.86396E-01 8.44471E-01-2.38927E-01 3.86133E-01 6.44043E-04-1.91022E-03
 -1      3679-1.72921E-02-2.42501E-02 1.70544E-02 4.11587E-01-1.64089E-04-2.76757E-03
 -1      3680-1.49799E-01 4.18577E-01-1.14018E-01 3.89198E-01-1.35777E-04-2.68388E-03
 -1      3681-1.53600E-01 4.23600E-01-1.17837E-01 4.00412E-01 2.30978E-03-2.29919E-03
 -1      3682-2.69755E-01 7.94339E-01-2.26288E-01 3.71555E-01 2.52730E-03-3.17122E-03
 -1      3683-3.95797E-01 1.21305E+00-3.49723E-01 3.01196E-01 2.87083E-03 2.34129E-04
 -1      3684-3.49061E-01 1.04467E+00-2.98178E-01 2.69105E-01 2.10581E-03 1.05270E-03
 -1      3685-3.20064E-01 9.49638E-01-2.71210E-01 2.65406E-01-3.24296E-04 8.99634E-04
 -1      3686-3.51230E-01 1.04368E+00-2.98002E-01 2.82733E-01 1.13551E-04 1.27757E-03
 -1      3687-2.27104E-01 6.53900E-01-1.84561E-01 3.37000E-01-7.36290E-04 2.71233E-03
 -1      3688-1.62314E-02-9.77183E-03 1.10904E-02 3.56428E-01-5.55231E-04-1.06854E-03
 -1      3689-1.22151E-01 3.19800E-01-8.44856E-02 3.38106E-01-1.98872E-03-6.78965E-04
 -1      3690-1.22176E-01 3.20477E-01-8.82559E-02 3.46984E-01-1.93236E-03 1.10169E-03
 -1      3691-2.08304E-01 5.93675E-01-1.66128E-01 3.19280E-01-5.34381E-04-1.24324E-03
 -1      3692-3.01909E-01 8.88540E-01-2.50326E-01 2.63192E-01-7.68565E-04 1.34558E-03
 -1      3693-2.59329E-01 7.45742E-01-2.07803E-01 2.28873E-01 1.81924E-03 7.83190E-04
 -1      3694-2.37152E-01 6.72759E-01-1.87992E-01 2.23078E-01 2.54070E-03-2.25650E-03
 -1      3695-2.58392E-01 7.41916E-01-2.08974E-01 2.40576E-01 1.80577E-03-8.45194E-04
 -1      3696-1.70008E-01 4.65393E-01-1.26222E-01 2.81682E-01 1.37556E-03-8.40058E-04
 -1      3697-1.96700E-02-4.17219E-03 1.02335E-02 3.01141E-01 4.82622E-04 1.05495E-03
 -1      3698-9.54080E-02 2.31033E-01-5.67187E-02 2.83337E-01 1.72350E-03 6.82333E-04
 -1      3699-9.74831E-02 2.27165E-01-5.61899E-02 2.89454E-01 1.50222E-03-8.91306E-04
 -1      3700-1.60062E-01 4.21165E-01-1.12712E-01 2.66113E-01 1.44144E-03-2.05583E-03
 -1      3701-2.23290E-01 6.30113E-01-1.73781E-01 2.17976E-01 1.46280E-03-3.71413E-04
 -1      3702-1.87339E-01 5.04968E-01-1.36284E-01 1.86753E-01-1.20554E-04-9.09830E-04
 -1      3703-1.69193E-01 4.43227E-01-1.18249E-01 1.77770E-01 1.27403E-03-1.20783E-03
 -1      3704-1.87476E-01 5.05109E-01-1.37509E-01 1.96877E-01 5.91351E-04-1.12149E-03
 -1      3705-1.26483E-01 3.15524E-01-8.11258E-02 2.28785E-01-3.03125E-04-1.20653E-03
 -1      3706-2.11252E-02-2.28035E-04 9.62381E-03 2.46689E-01-6.54580E-04-2.10428E-04
 -1      3707-7.34513E-02 1.58321E-01-3.51215E-02 2.29524E-01-1.62141E-03 5.15315E-05
 -1      3708-7.47717E-02 1.56676E-01-3.58030E-02 2.38157E-01 3.26933E-04-1.53350E-03
 -1      3709-1.15596E-01 2.80681E-01-7.04771E-02 2.16527E-01-9.27692E-04-1.32313E-03
 -1      3710-1.58959E-01 4.15667E-01-1.09112E-01 1.75468E-01-6.74635E-04-5.17043E-04
 -1      3711 3.52273E-03-3.61218E-02 1.38737E-02 5.04719E-02-1.41572E-04-1.14224E-04
 -1      3712 8.85431E-03-5.49991E-02 1.96143E-02 5.86621E-02 2.90171E-04-3.00633E-04
 -1      3713 9.68812E-03-5.93375E-02 2.15929E-02 6.65352E-02-2.08694E-04-2.60826E-04
 -1      3714-2.29976E-03-3.33428E-02 1.53566E-02 7.36324E-02 2.62025E-06-4.50678E-05
 -1      3715 1.01969E-03-3.01521E-02 1.23609E-02 4.53243E-02-1.11840E-04 1.41531E-04
 -1      3716-5.36520E-03-2.19085E-02 1.19147E-02 5.98164E-02 9.35871E-05 1.51407E-04
 -1      3717-2.43834E-02 8.29548E-03 6.88882E-03 7.38315E-02-2.35877E-05-1.32647E-04
 -1      3718-1.39309E-02-1.05041E-02 1.06585E-02 7.53011E-02-1.79984E-04-6.75750E-05
 -1      3719-1.39644E-02-1.11347E-02 1.05832E-02 6.55888E-02 3.44191E-04-1.21494E-06
 -1      3720 2.94397E-02-1.19615E-01 3.82489E-02 9.24386E-02-7.27901E-04-3.38094E-04
 -1      3721 3.78198E-02-1.49223E-01 4.68676E-02 1.01534E-01 2.24837E-04-2.35358E-04
 -1      3722 3.79652E-02-1.53335E-01 4.94930E-02 1.10828E-01 2.16111E-04-1.58025E-04
 -1      3723 1.60481E-02-9.18055E-02 3.16366E-02 1.25932E-01-2.33467E-04 6.50787E-04
 -1      3724 2.51767E-02-1.08492E-01 3.53758E-02 8.83391E-02-5.82911E-04-1.14745E-04
 -1      3725 1.05669E-02-7.53178E-02 2.74133E-02 1.11158E-01-4.79575E-04-1.50171E-04
 -1      3726-2.52132E-02 8.31607E-03 6.96904E-03 1.30736E-01-3.75712E-04 5.98544E-04
 -1      3727-4.46091E-03-3.82887E-02 1.82072E-02 1.28733E-01-1.01675E-04 5.25162E-04
 -1      3728-3.90711E-03-4.10672E-02 1.86931E-02 1.20862E-01-7.36572E-04 2.50395E-05
 -1      3729-1.28121E-01 3.07152E-01-7.62606E-02 1.44088E-01-1.63764E-04-3.10777E-04
 -1      3730-1.15387E-01 2.62972E-01-6.31734E-02 1.37328E-01 1.96732E-04 2.35470E-04
 -1      3731-1.29518E-01 3.11251E-01-7.88654E-02 1.55413E-01-1.24700E-03 2.58963E-04
 -1      3732-8.88947E-02 1.93637E-01-4.50178E-02 1.78026E-01-7.09475E-04-5.26226E-04
 -1      3733-2.27300E-02 4.51290E-03 8.47450E-03 1.86291E-01-8.18171E-05-8.06670E-04
 -1      3734-5.45156E-02 9.66612E-02-1.75557E-02 1.74942E-01-9.50518E-04-8.16503E-04
 -1      3735-5.66110E-02 9.61305E-02-1.74049E-02 1.82839E-01-7.06136E-04-1.36646E-04
 -1      3736-8.25101E-02 1.67859E-01-3.68052E-02 1.64749E-01-2.22712E-04 4.33150E-04
 -1      3737-1.08425E-01 2.40488E-01-5.62859E-02 1.34837E-01 7.72717E-04 4.38887E-04
 -1      3738 9.20006E-01-3.08278E+00 9.28491E-01 4.62405E-01-3.02111E-03-2.28352E-03
 -1      3739 9.65644E-01-3.25118E+00 9.77387E-01 4.70136E-01-3.18441E-03 1.88021E-03
 -1      3740 9.53812E-01-3.20228E+00 9.64908E-01 4.92372E-01-1.85009E-03-3.35518E-04
 -1      3741 6.17292E-01-2.08037E+00 6.27839E-01 5.81085E-01-1.00172E-03-2.82470E-03
 -1      3742 3.06566E-01-1.07574E+00 3.31630E-01 6.12413E-01-4.23510E-03-4.23476E-03
 -1      3743 3.21459E-01-1.13859E+00 3.49342E-01 5.96066E-01-4.01043E-03 1.82637E-03
 -1      3744 5.91390E-01-2.01154E+00 6.09453E-01 5.60939E-01-1.65242E-03 1.58219E-03
 -1      3745 8.80232E-01-2.96783E+00 8.92474E-01 4.65779E-01-1.53420E-03 3.03027E-03
 -1      3746-3.73050E-02 1.63289E-02 9.14166E-03 5.38911E-04-2.68751E-04-6.52638E-04
 -1      3747-2.25428E-02 9.16439E-03 5.73091E-03-2.71786E-03-2.13431E-04-1.72409E-04
 -1      3748-2.39466E-02 1.09278E-02 5.36274E-03 1.59060E-03-8.90813E-05-2.86329E-04
 -1      3749-4.11008E-02 2.07414E-02 8.98158E-03 1.02719E-02 5.32979E-04-2.08610E-04
 -1      3750-1.98304E-02 9.60322E-03 4.48009E-03 6.09274E-03 6.51173E-05-1.26288E-04
 -1      3751-2.77542E-02 1.35721E-02 6.04967E-03 9.21499E-03-2.17088E-05 1.35210E-05
 -1      3752-4.22291E-02 2.18317E-02 8.98398E-03 1.79771E-02 4.93876E-05-4.14234E-04
 -1      3753-3.47351E-02 1.84351E-02 7.15582E-03 1.28092E-02 2.01818E-04 8.77336E-05
 -1      3754-2.99077E-02 1.55168E-02 6.12711E-03 1.65553E-02 1.00898E-05-5.00469E-05
 -1      3755-1.38729E+00 4.47691E+00-1.32402E+00 4.17390E-01 1.59989E-03-2.50031E-03
 -1      3756-1.25427E+00 4.05809E+00-1.20541E+00 4.79163E-01-5.66190E-04 1.10406E-03
 -1      3757-9.76141E-01 3.14413E+00-9.29198E-01 5.52030E-01 1.65882E-03-2.66391E-03
 -1      3758-8.14059E-01 2.58969E+00-7.60609E-01 5.71592E-01-2.70141E-03 1.24960E-03
 -1      3759-6.76790E-01 2.15544E+00-6.36535E-01 6.21441E-01 1.83319E-03-5.04038E-03
 -1      3760-1.03726E+00 3.34922E+00-9.93964E-01 5.72703E-01-5.15576E-04 6.34603E-03
 -1      3761-1.28203E+00 4.15332E+00-1.23154E+00 4.81278E-01 3.86123E-03 1.22037E-03
 -1      3762-8.87793E-01 2.84462E+00-8.37420E-01 6.10404E-01-1.23127E-03 2.98824E-03
 -1      3763-6.86965E-01 2.19876E+00-6.49419E-01 6.38896E-01 8.10951E-04 2.77190E-03
 -1      3764-1.32212E-02-4.32773E-02 2.18032E-02 6.90058E-01 1.02066E-03-2.80199E-03
 -1      3765-4.25504E-01 1.34042E+00-3.92025E-01 6.47972E-01-1.85188E-03-1.71568E-03
 -1      3766-4.27261E-01 1.33269E+00-3.92338E-01 6.60156E-01 2.95508E-03-1.32379E-03
 -1      3767 7.59928E-01-2.55822E+00 7.72067E-01 4.26121E-01 1.14323E-03 1.66560E-03
 -1      3768 8.01601E-01-2.69689E+00 8.11535E-01 4.28356E-01-1.72248E-03 1.63875E-03
 -1      3769 7.93880E-01-2.67171E+00 8.06482E-01 4.40199E-01 2.12576E-03-8.36723E-04
 -1      3770 5.12247E-01-1.75645E+00 5.33297E-01 5.24604E-01-6.71812E-04 1.48873E-03
 -1      3771 2.62307E-01-9.19061E-01 2.84250E-01 5.52178E-01-1.73267E-03-1.25123E-03
 -1      3772 2.67652E-01-9.56876E-01 2.95509E-01 5.43619E-01-9.83403E-04 2.81740E-04
 -1      3773 4.93539E-01-1.67312E+00 5.06203E-01 5.12698E-01 9.80960E-05 5.30079E-05
 -1      3774 7.29424E-01-2.45458E+00 7.37546E-01 4.26941E-01 1.96433E-03-2.01268E-04
 -1      3775 6.17036E-01-2.07862E+00 6.25347E-01 3.80437E-01-1.93232E-03-2.14936E-03
 -1      3776 6.54907E-01-2.20533E+00 6.63121E-01 3.90749E-01 5.51860E-04-1.40275E-03
 -1      3777 6.49423E-01-2.19800E+00 6.64902E-01 4.02955E-01 1.33016E-03-4.84784E-04
 -1      3778 4.22798E-01-1.43699E+00 4.33092E-01 4.75508E-01 1.44206E-03 2.09851E-03
 -1      3779 2.09504E-01-7.53224E-01 2.32402E-01 5.04277E-01 2.83249E-03 9.55583E-04
 -1      3780 2.17178E-01-7.76521E-01 2.34420E-01 4.92617E-01 2.43568E-03-2.65444E-03
 -1      3781 3.97270E-01-1.36170E+00 4.10814E-01 4.64433E-01 1.11619E-03-3.20677E-03
 -1      3782 5.90341E-01-1.99795E+00 6.02394E-01 3.79492E-01-1.33362E-03-7.96354E-05
 -1      3783 4.90039E-01-1.65059E+00 4.96108E-01 3.39013E-01-1.86621E-03-1.70828E-03
 -1      3784 5.23721E-01-1.76523E+00 5.30541E-01 3.49120E-01 1.97286E-04-1.00979E-04
 -1      3785 5.19879E-01-1.76355E+00 5.33731E-01 3.60521E-01 1.00908E-03 2.51139E-05
 -1      3786 3.35894E-01-1.14976E+00 3.45916E-01 4.25713E-01-4.11326E-04 1.91563E-03
 -1      3787 1.65441E-01-5.97063E-01 1.83870E-01 4.46081E-01 1.64371E-04 8.45085E-04
 -1      3788 1.65642E-01-6.04246E-01 1.84236E-01 4.39821E-01-3.15473E-03 4.76126E-04
 -1      3789 3.14859E-01-1.07734E+00 3.24640E-01 4.11165E-01-4.73943E-04-1.87700E-03
 -1      3790 4.66708E-01-1.58083E+00 4.76202E-01 3.37231E-01-9.08227E-04-2.57718E-04
 -1      3791 3.75923E-01-1.28098E+00 3.89600E-01 2.99565E-01 2.92076E-04 5.10284E-04
 -1      3792 4.05015E-01-1.37558E+00 4.16385E-01 3.06059E-01-2.16616E-03 1.04550E-03
 -1      3793 4.04234E-01-1.37005E+00 4.14981E-01 3.17703E-01-1.12316E-03 3.35577E-04
 -1      3794 2.57336E-01-8.95043E-01 2.75390E-01 3.77029E-01 6.67517E-04 2.91173E-03
 -1      3795 1.22256E-01-4.62280E-01 1.49030E-01 3.97296E-01 1.75641E-03 1.45777E-03
 -1      3796 1.23000E-01-4.65666E-01 1.46577E-01 3.88126E-01 1.16006E-03-1.18500E-03
 -1      3797 2.37382E-01-8.34657E-01 2.57012E-01 3.61319E-01-3.04541E-05-1.83269E-03
 -1      3798 3.57774E-01-1.21313E+00 3.66487E-01 2.98805E-01 7.31487E-04 6.73954E-04
 -1      3799 2.77203E-01-9.50216E-01 2.91764E-01 2.58203E-01-2.66886E-03-9.91980E-04
 -1      3800 3.01989E-01-1.03270E+00 3.12845E-01 2.64496E-01-2.82490E-03 9.62303E-04
 -1      3801 3.04138E-01-1.03277E+00 3.11662E-01 2.75608E-01-1.51608E-03-6.30849E-04
 -1      3802 1.92299E-01-6.72414E-01 2.04240E-01 3.24573E-01-5.28885E-04-4.30819E-04
 -1      3803 8.66014E-02-3.43582E-01 1.10102E-01 3.43036E-01-2.16489E-03-8.80440E-04
 -1      3804 8.43618E-02-3.42026E-01 1.09800E-01 3.32688E-01 4.68631E-04-1.22991E-03
 -1      3805 1.71785E-01-6.06279E-01 1.88427E-01 3.13955E-01-6.33910E-04-1.82543E-03
 -1      3806 2.58779E-01-8.94116E-01 2.73167E-01 2.56715E-01 6.80563E-04-2.56989E-04
 -1      3807 1.93308E-01-6.67171E-01 2.03494E-01 2.15757E-01 1.46437E-04 2.90470E-04
 -1      3808 2.15121E-01-7.40341E-01 2.23683E-01 2.21761E-01-2.12465E-03 1.04063E-03
 -1      3809 2.14254E-01-7.33257E-01 2.23039E-01 2.33928E-01 3.48603E-04 7.99359E-04
 -1      3810 1.30793E-01-4.74318E-01 1.47189E-01 2.77241E-01 7.70947E-04 2.06362E-03
 -1      3811 5.72649E-02-2.39749E-01 7.93525E-02 2.87822E-01 1.26897E-03 4.78761E-04
 -1      3812 5.47952E-02-2.37928E-01 7.68407E-02 2.81809E-01-1.42436E-03 9.74606E-04
 -1      3813 1.15476E-01-4.27326E-01 1.33612E-01 2.60838E-01-1.69720E-04 3.00344E-04
 -1      3814 1.78998E-01-6.22852E-01 1.89401E-01 2.14618E-01-1.11667E-03 4.85924E-04
 -1      3815 1.23913E-01-4.38240E-01 1.34169E-01 1.76965E-01 9.31075E-05-7.27332E-04
 -1      3816 1.41368E-01-4.92033E-01 1.50846E-01 1.84344E-01-3.10836E-04 5.68956E-04
 -1      3817 1.41508E-01-4.94512E-01 1.51964E-01 1.94158E-01 5.95247E-04-5.58392E-04
 -1      3818 8.31629E-02-3.16164E-01 1.00237E-01 2.26618E-01 6.94673E-04 2.81079E-04
 -1      3819 3.13591E-02-1.59244E-01 5.54729E-02 2.35341E-01-1.10874E-03 4.22342E-04
 -1      3820 2.98863E-02-1.55128E-01 5.29797E-02 2.27784E-01-3.28762E-04-8.58321E-04
 -1      3821 7.22381E-02-2.77700E-01 8.78304E-02 2.12295E-01 6.01345E-04 2.46969E-04
 -1      3822 1.13665E-01-4.03144E-01 1.23591E-01 1.74090E-01 9.61637E-04 5.70546E-04
 -1      3823 6.68737E-02-2.50284E-01 7.88607E-02 1.35618E-01-1.27086E-03-1.35474E-03
 -1      3824 8.19098E-02-2.93872E-01 9.03195E-02 1.43077E-01-1.17078E-03 2.50514E-04
 -1      3825 8.24425E-02-2.99403E-01 9.33719E-02 1.50426E-01-9.28222E-04-2.94642E-04
 -1      3826 4.40330E-02-1.86198E-01 6.10305E-02 1.76169E-01-5.64195E-04 3.39432E-04
 -1      3827 1.04120E-02-8.91498E-02 3.47479E-02 1.82254E-01 3.52129E-04 1.33828E-04
 -1      3828 1.02815E-02-8.66024E-02 3.22069E-02 1.74276E-01 9.14310E-04-1.01098E-03
 -1      3829 3.54793E-02-1.55607E-01 5.15564E-02 1.63354E-01-2.00513E-04-1.30569E-03
 -1      3830 5.91344E-02-2.27686E-01 7.13941E-02 1.32048E-01-1.75006E-05-7.56337E-04
 -1      3831-8.51944E-02 1.64687E-01-3.41202E-02 1.01935E-01 4.55063E-05-4.04023E-04
 -1      3832-7.68097E-02 1.33996E-01-2.43603E-02 9.30246E-02 9.62781E-05-4.85073E-05
 -1      3833-8.62718E-02 1.70431E-01-3.71640E-02 1.11851E-01 1.00631E-03-8.55169E-04
 -1      3834-6.29260E-02 1.06118E-01-1.92184E-02 1.26877E-01 3.35025E-04-7.69942E-04
 -1      3835-4.25532E-02 5.37798E-02-4.27030E-03 1.20398E-01-1.77846E-04-4.06121E-05
 -1      3836-4.50776E-02 5.64982E-02-5.30583E-03 1.28961E-01-5.11476E-04 5.20598E-04
 -1      3837-5.88079E-02 8.86327E-02-1.27512E-02 1.12149E-01-1.88704E-04 1.66197E-04
 -1      3838-7.20663E-02 1.20710E-01-2.03834E-02 8.97278E-02-4.32681E-04 2.02781E-04
 -1      3839-5.48730E-02 5.71109E-02-1.11673E-03 5.05298E-02-1.48422E-04-3.22280E-04
 -1      3840-4.96797E-02 4.63971E-02 1.89864E-03 5.15547E-02-3.08825E-04-4.38570E-04
 -1      3841-4.56925E-02 3.64070E-02 4.10521E-03 4.69955E-02-2.40244E-04-1.01378E-04
 -1      3842-4.23279E-02 3.46534E-02 3.41158E-03 5.89736E-02-5.48754E-05-4.15884E-04
 -1      3843-5.83759E-02 7.39544E-02-6.59288E-03 6.77584E-02-4.57473E-04-3.20400E-04
 -1      3844-4.65763E-02 4.85398E-02-3.77640E-04 7.34522E-02-1.33253E-04-1.51507E-04
 -1      3845-5.82086E-02 6.93130E-02-4.32899E-03 5.86548E-02-6.41723E-04-7.24159E-04
 -1      3846-3.57250E-02 2.65156E-02 4.27438E-03 6.56841E-02-5.29035E-04-2.15897E-04
 -1      3847-3.64383E-02 2.77078E-02 3.72786E-03 7.35471E-02-9.03509E-05 1.60816E-04
 -1      3848 3.88217E-01-1.33086E+00 4.07177E-01 6.57808E-01 1.55467E-03 1.65356E-03
 -1      3849 3.80836E-01-1.32173E+00 4.01366E-01 6.52183E-01 3.70414E-03-1.32018E-03
 -1      3850 7.24943E-01-2.45936E+00 7.43845E-01 6.30122E-01-3.85782E-04-2.40981E-03
 -1      3851 1.10308E+00-3.69614E+00 1.11228E+00 4.98122E-01 2.59155E-04-7.28046E-04
 -1      3852 1.13963E+00-3.82418E+00 1.15245E+00 5.13160E-01-1.99463E-03-1.86532E-03
 -1      3853 1.09268E+00-3.67421E+00 1.10864E+00 5.38477E-01-4.64520E-03-2.19949E-03
 -1      3854 9.97235E-01-3.35454E+00 1.00775E+00 5.18602E-01 2.44224E-03 5.15947E-04
 -1      3855 6.64218E-01-2.26194E+00 6.84704E-01 6.17924E-01 3.07208E-03-2.70895E-03
 -1      3856 1.03066E+00-3.65205E+00 1.12413E+00 5.51836E-01-1.15863E-03-3.47677E-03
 -1      3857 6.65513E-01-2.23160E+00 6.64885E-01 6.53125E-01-4.95640E-03 8.87846E-04
 -1      3858 4.93566E-01-1.50717E+00 4.34439E-01 7.02092E-01-3.87492E-03-3.96847E-03
 -1      3859 1.01385E+00-3.42091E+00 1.03351E+00 6.69404E-01-1.42474E-04-3.59753E-03
 -1      3860 1.67720E+00-5.66071E+00 1.71231E+00 5.52550E-01-8.27574E-03-7.43386E-03
 -1      3861 1.64392E+00-5.75793E+00 1.76068E+00 5.71690E-01-9.54538E-03 1.61697E-03
 -1      3862 1.41004E+00-5.21896E+00 1.62533E+00 5.35108E-01 1.55929E-03-1.20372E-02
 -1      3863 1.47313E+00-4.91372E+00 1.47422E+00 6.02173E-01-4.51403E-03-1.76732E-03
 -1      3864-1.66148E+00 5.78904E+00-1.77521E+00 6.74297E-01 2.73069E-03 1.43116E-03
 -1      3865-1.30875E+00 4.57866E+00-1.39194E+00 7.30262E-01 2.01426E-03-6.83503E-03
 -1      3866-6.88121E-01 2.59460E+00-8.13499E-01 7.69618E-01 3.74577E-04-5.61218E-03
 -1      3867-4.29796E-01 1.85479E+00-6.03044E-01 7.25929E-01-6.74825E-03-4.69613E-03
 -1      3868-7.93591E-01 3.33832E+00-1.08091E+00 7.07248E-01-4.07231E-03 3.60393E-03
 -1      3869-5.81943E-02 4.18850E-01-1.53187E-01 7.33772E-01-6.41233E-03 2.35726E-03
 -1      3870-1.22517E+00 4.99094E+00-1.61614E+00 7.23352E-01-1.15866E-02-4.17846E-03
 -1      3871-1.54775E+00 5.75679E+00-1.80345E+00 7.64111E-01 6.37260E-03-4.18223E-03
 -1      3872 1.44516E+00-4.84540E+00 1.45738E+00 4.76364E-01-6.44429E-03 2.76880E-03
 -1      3873 1.02280E+00-3.44033E+00 1.03883E+00 6.17123E-01-5.76795E-03-3.69158E-03
 -1      3874 1.41809E+00-4.74049E+00 1.43082E+00 5.07743E-01-9.78106E-03-2.44020E-03
 -1      3875 6.34435E-01-2.16993E+00 6.59797E-01 6.75169E-01-2.42238E-03-1.35147E-03
 -1      3876 1.02597E-01-4.17193E-01 1.33418E-01 7.33183E-01 1.66327E-03-4.49651E-03
 -1      3877 4.53636E-01-1.55749E+00 4.76269E-01 7.00391E-01-5.69564E-03-2.08957E-03
 -1      3878 8.49683E-01-2.89108E+00 8.72264E-01 6.71638E-01-3.51692E-03-1.33300E-03
 -1      3879 1.44409E+00-4.83426E+00 1.45535E+00 5.14313E-01-7.51662E-03 3.18178E-03
 -1      3880 1.31117E+00-4.38817E+00 1.32049E+00 5.58475E-01-6.36696E-03-1.41872E-03
 -1      3881 1.22485E+00-4.09981E+00 1.23149E+00 6.38824E-01-1.80875E-03 4.87571E-03
 -1      3882 1.54928E+00-5.18722E+00 1.55966E+00 5.48257E-01-4.93055E-03-3.69429E-04
 -1      3883 7.00252E-01-2.37214E+00 7.17809E-01 7.19594E-01 1.63024E-03-5.09074E-05
 -1      3884 9.70778E-01-3.24456E+00 9.75126E-01 7.08963E-01 3.12585E-04 3.16062E-03
 -1      3885 5.22615E-01-1.75364E+00 5.34531E-01 7.50566E-01 5.06316E-03 2.35851E-03
 -1      3886 1.18418E-01-4.51277E-01 1.41421E-01 7.82204E-01 2.10427E-03-3.70862E-03
 -1      3887 1.55583E+00-5.18879E+00 1.55590E+00 5.66090E-01-4.77271E-03 1.75319E-03
 -1      3888 1.42785E+00-4.75437E+00 1.42549E+00 5.99130E-01-3.57168E-03-1.49624E-03
 -1      3889-4.30959E-01 1.37821E+00-4.03328E-01 7.57570E-01 1.16004E-03-3.45946E-03
 -1      3890-9.63944E-01 3.10224E+00-9.18123E-01 7.04629E-01 8.41081E-04-4.08033E-03
 -1      3891-5.93982E-01 1.91734E+00-5.67985E-01 7.53962E-01-9.99964E-04 3.19063E-04
 -1      3892-9.65925E-01 3.17264E+00-9.42740E-01 7.25011E-01-3.65574E-04 1.28693E-03
 -1      3893-1.59254E+00 5.19049E+00-1.54090E+00 5.83008E-01 5.91884E-03 2.02528E-03
 -1      3894-1.54602E+00 5.03809E+00-1.49761E+00 5.70867E-01 6.38326E-03-3.39995E-03
 -1      3895-1.43618E+00 4.69770E+00-1.39720E+00 6.19892E-01 3.66179E-03 1.12234E-04
 -1      3896-1.37397E+00 4.47409E+00-1.32679E+00 5.93462E-01 4.85187E-03-1.48255E-04
 -1      3897-3.47004E-01 1.07869E+00-3.11161E-01 7.13531E-01 1.09304E-03-1.86278E-03
 -1      3898-8.17519E-01 2.60284E+00-7.66777E-01 6.61490E-01-1.28540E-04-3.34211E-03
 -1      3899-5.53277E-01 1.74692E+00-5.13395E-01 6.95586E-01 3.18215E-04-1.96754E-03
 -1      3900-9.71044E-01 3.12991E+00-9.23970E-01 6.57515E-01 2.97919E-04-6.16901E-03
 -1      3901-1.43248E+00 4.65313E+00-1.37930E+00 5.18650E-01 3.98758E-03-3.95402E-04
 -1      3902-1.34864E+00 4.37595E+00-1.29938E+00 5.37647E-01 6.39592E-03-3.68229E-03
 -1      3903-1.13776E+00 3.68525E+00-1.09140E+00 5.69695E-01 5.10006E-03 2.17398E-05
 -1      3904-1.38462E+00 4.47771E+00-1.33034E+00 5.45202E-01 6.89427E-03-3.22839E-03
 -1      3905-8.24762E-01 4.22828E+00-1.47904E+00 4.06702E-01-2.95102E-03 8.89705E-03
 -1      3906-1.30027E+00 6.35232E+00-2.14965E+00 7.03320E-01 6.26206E-03 7.86132E-03
 -1      3907-1.66797E+00 7.27311E+00-2.40556E+00 8.44030E-01 2.40794E-02 1.29035E-03
 -1      3908-1.57786E+00 6.49304E+00-2.11057E+00 7.46808E-01 7.70547E-03 1.11395E-02
 -1      3909-8.45282E-01 4.04385E+00-1.38795E+00 6.19636E-01-8.30989E-03 1.55319E-03
 -1      3910 1.04386E+00-4.21969E+00 1.36565E+00 4.45807E-01 3.30494E-04-2.47266E-04
 -1      3911 1.64277E+00-6.35445E+00 2.01297E+00 5.20592E-01-1.01263E-02-7.51348E-03
 -1      3912 1.68402E+00-6.93726E+00 2.25410E+00 5.34955E-01-2.39459E-03 9.18599E-03
 -1      3913 1.33690E+00-6.02796E+00 2.01373E+00 3.94887E-01 2.57208E-02 5.40299E-03
 -1      3914 8.90073E-01-3.86525E+00 1.27400E+00 2.28890E-01-6.26345E-03 7.25610E-04
 -1      3915-4.77715E-02 3.49501E-02 5.40532E-03 3.64709E-02-2.86850E-04-2.90253E-04
 -1      3916-4.77246E-02 3.11496E-02 6.98859E-03 2.86775E-02-1.29976E-04-2.76423E-04
 -1      3917-3.08901E-02 1.52950E-02 6.58213E-03 2.35786E-02 3.39296E-06-2.17422E-04
 -1      3918-3.92053E-02 2.27849E-02 7.03661E-03 2.65071E-02 3.70616E-05-3.15098E-04
 -1      3919-4.50726E-02 2.58983E-02 8.46771E-03 2.38718E-02 1.65416E-04-3.84444E-04
 -1      3920-5.71396E-01 1.76417E+00-5.09777E-01 2.86545E-01 1.80983E-03-6.73105E-04
 -1      3921-3.97761E-01 1.20866E+00-3.45996E-01 3.64724E-01 5.04359E-04 2.28930E-03
 -1      3922-6.56394E-01 2.04717E+00-5.95436E-01 2.55316E-01 2.93992E-03 1.63849E-03
 -1      3923-7.07687E-01 2.21775E+00-6.46807E-01 3.26895E-01 2.32542E-03-3.50265E-03
 -1      3924-4.81153E-01 1.50270E+00-4.36575E-01 4.13150E-01 1.13692E-03 2.57115E-03
 -1      3925-8.08180E-01 2.56995E+00-7.55364E-01 2.92378E-01 5.20743E-03-7.63822E-04
 -1      3926-4.41787E-01 1.34386E+00-3.84854E-01 2.49248E-01 3.27354E-03 2.39627E-03
 -1      3927-3.16123E-01 9.43893E-01-2.69121E-01 3.13821E-01 6.62755E-04-4.95296E-04
 -1      3928-5.09974E-01 1.56791E+00-4.53298E-01 2.19534E-01 2.39832E-03 1.26571E-03
 -1      3929-3.27035E-01 9.79034E-01-2.81742E-01 3.26309E-01-2.22623E-04 2.46623E-03
 -1      3930-4.77120E-01 1.45693E+00-4.21391E-01 2.61575E-01 2.44990E-03 1.03398E-03
 -1      3931-3.18701E-01 9.33057E-01-2.63338E-01 2.20091E-01 1.46375E-03-7.98520E-04
 -1      3932-3.66241E-01 1.08552E+00-3.08423E-01 2.01297E-01 2.35468E-03 9.06506E-04
 -1      3933-3.47218E-01 1.02614E+00-2.91470E-01 2.31092E-01 1.73075E-03 2.16085E-03
 -1      3934-8.62353E-01 2.75087E+00-8.06371E-01 3.68068E-01 2.93383E-03 3.54015E-03
 -1      3935-5.87618E-01 1.85671E+00-5.44505E-01 4.59448E-01-7.86914E-04-3.57147E-03
 -1      3936-9.92037E-01 3.17128E+00-9.34060E-01 3.21230E-01 1.84336E-03-6.16212E-04
 -1      3937 1.88412E+00-6.30129E+00 1.89268E+00 5.09047E-01-4.19811E-03 2.16090E-03
 -1      3938 1.23414E+00-4.08001E+00 1.22056E+00 6.47931E-01-2.49977E-03-6.44682E-05
 -1      3939 2.07996E+00-6.92080E+00 2.07550E+00 4.38289E-01-4.76528E-03-1.91222E-03
 -1      3940 1.24092E+00-4.12737E+00 1.23389E+00 6.55247E-01-3.22808E-03 3.73047E-04
 -1      3941 1.83389E+00-6.09598E+00 1.82583E+00 5.07119E-01-4.60035E-03-5.00941E-03
 -1      3942-2.29910E-01 6.39907E-01-1.75398E-01 1.80754E-01 1.19356E-03-8.05916E-04
 -1      3943-2.65999E-01 7.50764E-01-2.07867E-01 1.66722E-01 2.20898E-03 1.92829E-04
 -1      3944-2.54209E-01 7.16595E-01-1.98776E-01 1.93471E-01 2.29253E-03 1.10430E-03
 -1      3945-1.04463E+00 3.36132E+00-9.93534E-01 3.98757E-01 2.65719E-03 4.71315E-03
 -1      3946-7.11276E-01 2.27877E+00-6.75859E-01 5.03296E-01-1.14309E-03-9.73559E-04
 -1      3947-1.19904E+00 3.86490E+00-1.14674E+00 3.52820E-01 4.32681E-03 2.74760E-04
 -1      3948-1.57704E-01 3.99468E-01-1.03312E-01 1.42180E-01 6.52801E-04 1.41222E-03
 -1      3949-1.82747E-01 4.77986E-01-1.26691E-01 1.29833E-01 1.71814E-03-1.47597E-04
 -1      3950-1.78746E-01 4.66207E-01-1.24059E-01 1.52913E-01 1.58645E-03-1.31549E-03
 -1      3951-6.67491E-04-1.53748E-02 6.74879E-03 2.47906E-02-2.38491E-04 1.42685E-04
 -1      3952 2.65648E-03-2.27113E-02 8.64722E-03 2.67207E-02-3.11522E-04-8.18861E-05
 -1      3953 3.82589E-03-2.99572E-02 1.11155E-02 3.58868E-02-4.55573E-04 5.82757E-05
 -1      3954 2.16648E-02-8.63392E-02 2.71594E-02 6.15319E-02-1.21706E-04-2.01579E-05
 -1      3955 2.99640E-02-1.10119E-01 3.44177E-02 5.68647E-02-4.13936E-04-2.91871E-04
 -1      3956 3.11162E-02-1.17303E-01 3.74299E-02 7.23212E-02-2.77483E-04-8.25252E-04
 -1      3957-1.03337E-01 2.15487E-01-4.79104E-02 1.04217E-01 5.28001E-04-6.88963E-04
 -1      3958-1.17842E-01 2.61894E-01-6.17654E-02 1.00136E-01 1.77674E-04-4.64699E-04
 -1      3959-1.15782E-01 2.64405E-01-6.39145E-02 1.14912E-01 9.93946E-04 4.91151E-04
 -1      3960 5.32124E-02-1.98181E-01 6.20091E-02 1.05048E-01-6.91300E-04-9.89143E-04
 -1      3961 6.78629E-02-2.41182E-01 7.49935E-02 9.85720E-02-1.38914E-03-9.91431E-04
 -1      3962 6.86286E-02-2.46117E-01 7.64478E-02 1.15239E-01-9.72158E-04-1.27935E-03
 -1      3963 1.12897E-01-3.92963E-01 1.19073E-01 1.38292E-01-6.01208E-04-4.73623E-04
 -1      3964 1.38219E-01-4.68964E-01 1.41920E-01 1.24416E-01-1.25443E-03-3.06920E-04
 -1      3965 1.32997E-01-4.57303E-01 1.39021E-01 1.47906E-01-7.85442E-04-1.03476E-04
 -1      3966-6.83381E-02 9.78899E-02-1.23008E-02 6.40712E-02 1.29869E-04 2.27187E-04
 -1      3967-7.54240E-02 1.21742E-01-2.01025E-02 6.26993E-02-1.97180E-04 1.82439E-04
 -1      3968-7.72642E-02 1.29680E-01-2.28558E-02 7.48517E-02 2.61273E-04 2.73611E-04
 -1      3969 1.85018E-01-6.33669E-01 1.91812E-01 1.74121E-01-8.46644E-04 2.54964E-04
 -1      3970 2.20472E-01-7.50593E-01 2.27384E-01 1.55994E-01-1.38914E-03 6.72273E-04
 -1      3971 2.09896E-01-7.13217E-01 2.17133E-01 1.85389E-01-1.21399E-03 1.15614E-03
 -1      3972 2.74757E-01-9.32014E-01 2.79955E-01 2.12164E-01-2.13356E-03 1.29566E-03
 -1      3973 3.24867E-01-1.08988E+00 3.27704E-01 1.88324E-01-1.20946E-03 2.46587E-04
 -1      3974 3.01523E-01-1.03107E+00 3.14592E-01 2.19842E-01-1.54616E-03-1.51302E-03
 -1      3975 3.82825E-01-1.28970E+00 3.88472E-01 2.48953E-01-2.28605E-03-9.21683E-04
 -1      3976 4.48868E-01-1.50011E+00 4.50709E-01 2.22563E-01-2.72996E-03 7.39907E-04
 -1      3977 4.19117E-01-1.40596E+00 4.23240E-01 2.59549E-01-2.05574E-03 2.27726E-03
 -1      3978 4.94004E-01-1.66921E+00 5.01079E-01 2.88348E-01-2.29937E-03 1.16737E-03
 -1      3979 5.73235E-01-1.92821E+00 5.79155E-01 2.59739E-01-3.33979E-03 8.49393E-04
 -1      3980 5.37892E-01-1.80098E+00 5.41504E-01 3.00850E-01-2.62064E-03 1.37475E-03
 -1      3981 6.33039E-01-2.13044E+00 6.40734E-01 3.25023E-01-1.14983E-03-1.20364E-03
 -1      3982 7.30303E-01-2.44717E+00 7.36033E-01 2.96492E-01 1.11721E-04-2.11238E-04
 -1      3983 6.80976E-01-2.28297E+00 6.88103E-01 3.36482E-01-2.47510E-03 7.99809E-04
 -1      3984 7.88433E-01-2.65158E+00 7.98958E-01 3.64593E-01-1.20889E-03-1.07186E-03
 -1      3985 9.06639E-01-3.02874E+00 9.10968E-01 3.27294E-01-3.50333E-03-1.17134E-03
 -1      3986 8.40731E-01-2.81719E+00 8.46861E-01 3.76685E-01-1.77675E-03-3.23385E-03
 -1      3987 9.61581E-01-3.22820E+00 9.71282E-01 4.01643E-01-2.82302E-03-3.36225E-03
 -1      3988 1.10104E+00-3.68146E+00 1.10631E+00 3.62381E-01-4.72565E-03-7.19450E-04
 -1      3989 1.01864E+00-3.40910E+00 1.02456E+00 4.14551E-01-3.11851E-03 2.41116E-03
 -1      3990 8.43725E-01-2.83760E+00 8.52246E-01 5.38901E-01-1.01033E-03 3.15082E-03
 -1      3991 1.19762E+00-4.01868E+00 1.20655E+00 4.26350E-01-2.09219E-03 3.78784E-03
 -1      3992 1.38427E+00-4.62123E+00 1.38601E+00 3.68176E-01-3.75954E-03 2.25975E-03
 -1      3993 1.26182E+00-4.21187E+00 1.26414E+00 4.37556E-01-1.81241E-03 3.08935E-03
 -1      3994 8.32052E-01-2.79112E+00 8.41260E-01 5.53523E-01 3.09527E-03 3.23577E-03
 -1      3995-1.33400E+00 4.33644E+00-1.28634E+00 5.73833E-01 2.31132E-04-2.49896E-03
 -1      3996-1.27512E+00 4.13497E+00-1.23003E+00 6.04802E-01 4.88815E-03-1.40505E-03
 -1      3997-1.24297E+00 3.99814E+00-1.17763E+00 4.35357E-01 3.10193E-03-9.80493E-04
 -1      3998-8.61350E-01 2.74548E+00-8.06015E-01 5.51664E-01 4.12352E-04 4.37041E-03
 -1      3999-1.41293E+00 4.55817E+00-1.34920E+00 3.88156E-01 4.46228E-03-7.51703E-05
 -1      4000 1.28818E+00-4.31013E+00 1.29572E+00 5.03240E-01-4.41966E-03-4.23112E-03
 -1      4001 1.47556E+00-4.91800E+00 1.47699E+00 4.59273E-01-9.27367E-03-2.83116E-04
 -1      4002-9.25254E-01 2.98514E+00-8.81369E-01 6.11585E-01 1.31215E-03 4.05909E-03
 -1      4003 7.76651E-02-3.11182E-01 1.02027E-01-9.18217E-02 1.84645E-03 1.76241E-04
 -1      4004-8.39980E-02 5.51509E-01-2.01030E-01 2.90482E-01-8.22813E-04-7.41654E-04
 -1      4005-1.76316E-01 6.73033E-01-2.12442E-01 1.73833E-01-1.03903E-03 1.43671E-04
 -1      4006 4.06090E-02-3.78705E-01 1.44696E-01-2.22629E-01 2.43057E-03 3.05743E-04
 -1      4007 7.29528E-02-2.49027E-01 7.79146E-02-1.79737E-02 2.87472E-03 4.49810E-04
 -1      4008 5.49874E-02 4.48589E-01-2.21617E-01 4.15577E-01-8.43793E-04-9.85996E-04
 -1      4009-2.28061E-01 7.74667E-01-2.34682E-01 1.31092E-02-3.44869E-04 6.35292E-05
 -1      4010-5.91844E-02-3.99997E-01 1.93719E-01-3.95842E-01 2.04335E-03 1.50675E-03
 -1      4011 2.61198E-01 3.75536E-01-3.32190E-01 5.53420E-01-3.23213E-03 8.90090E-04
 -1      4012 6.68323E-02-2.31708E-01 7.19789E-02 3.63723E-02 1.13349E-03-5.27931E-04
 -1      4013-2.24948E-01 8.30369E-01-2.60474E-01-1.73552E-01-1.16486E-03 2.46497E-04
 -1      4014-2.52261E-01-3.21833E-01 2.42091E-01-5.11751E-01 8.17248E-04 1.04187E-03
 -1      4015 5.36724E-02-2.62144E-01 9.02407E-02 1.06256E-01 6.08145E-04 9.83590E-05
 -1      4016-4.84110E-01-1.63488E-01 2.78942E-01-5.68795E-01-1.31462E-04-4.45511E-04
 -1      4017-1.46149E-01 8.10184E-01-2.90795E-01-3.64965E-01-1.05574E-03 5.89348E-04
 -1      4018 1.98488E-02-3.14009E-01 1.26356E-01 2.17785E-01 1.29314E-03-2.42229E-03
 -1      4019-6.99587E-01 6.65826E-03 3.05499E-01-5.15808E-01-1.59856E-03-1.79030E-03
 -1      4020-6.05961E-03 7.13711E-01-3.14453E-01-5.33850E-01-6.58963E-04 1.57875E-03
 -1      4021-6.47890E-02-3.56775E-01 1.92716E-01 3.65416E-01-7.72377E-04 9.89355E-04
 -1      4022-8.83296E-01 2.10170E-01 2.71653E-01-3.60645E-01 1.74974E-03-1.51345E-02
 -1      4023 2.05713E-01 4.99837E-01-2.81848E-01-6.69066E-01 7.27803E-03-1.24844E-02
 -1      4024-2.87140E-01-4.15496E-01 3.68844E-01 6.33654E-01-1.17566E-03 1.58228E-03
 -1      4025-1.32189E-01 6.09810E-01-2.05709E-01 2.37035E-01-8.99955E-04-4.03145E-04
 -1      4026 6.92965E-02-3.51742E-01 1.22408E-01-1.51987E-01 1.79626E-03 1.98294E-04
 -1      4027 7.54476E-02-2.76006E-01 8.89692E-02-4.69890E-02 8.56955E-04-1.09250E-03
 -1      4028-1.54081E-02 4.93250E-01-2.05095E-01 3.70396E-01-4.28760E-03-1.56517E-03
 -1      4029-2.05767E-01 7.20167E-01-2.20616E-01 9.33636E-02-2.64400E-04-3.83387E-04
 -1      4030 1.21039E-03-3.97656E-01 1.70740E-01-3.05933E-01 2.50463E-03 9.04939E-04
 -1      4031 1.53067E-01 4.04585E-01-2.58994E-01 4.94862E-01-2.85855E-03 6.55241E-04
 -1      4032 6.94553E-02-2.34123E-01 7.28309E-02 1.15391E-02 5.96202E-04-3.85141E-04
 -1      4033-1.50396E-01-3.59163E-01 2.15947E-01-4.55849E-01 1.16796E-03 1.25910E-03
 -1      4034-2.36385E-01 8.17578E-01-2.48335E-01-7.72566E-02-2.01930E-03 3.31279E-04
 -1      4035 6.29376E-02-2.46187E-01 7.99234E-02 7.16257E-02 2.87334E-04-6.51929E-04
 -1      4036 6.01758E-01 4.68396E-01-5.90258E-01 9.55293E-01 5.37199E-03 3.63309E-03
 -1      4037-1.88594E-01 8.30528E-01-2.76999E-01-2.65214E-01-1.35747E-03 2.07156E-05
 -1      4038-3.66741E-01-2.44919E-01 2.60726E-01-5.52346E-01 7.11366E-05 5.36117E-04
 -1      4039 3.70346E-02-2.86038E-01 1.06115E-01 1.59000E-01 6.07160E-04 2.57203E-04
 -1      4040-5.95692E-01-7.82104E-02 2.93188E-01-5.52400E-01-8.84079E-04-8.18006E-04
 -1      4041-8.58184E-02 7.72131E-01-3.04281E-01-4.49694E-01-2.94289E-04 3.29020E-04
 -1      4042-8.09914E-01 1.10708E-01 3.08534E-01-4.55061E-01-1.20860E-03-1.32511E-03
 -1      4043-1.51762E-02-3.40729E-01 1.53584E-01 2.97612E-01 1.37346E-04-8.51254E-04
 -1      4044 9.77708E-02 6.16584E-01-3.11953E-01-6.03739E-01 4.16877E-04-3.09372E-03
 -1      4045-1.76495E-01-3.78743E-01 2.60670E-01 5.07119E-01-9.62877E-04 1.21850E-03
 -1      4046-8.95094E-01 2.76008E-01 1.91030E-01-2.85497E-01 4.65524E-03 5.31517E-02
 -1      4047 2.85850E-01 3.70825E-01-2.05339E-01-6.88783E-01-4.05480E-02 4.70950E-02
 -1      4048-5.92677E-01-6.53753E-01 6.69259E-01 1.13544E+00-6.58342E-04 8.42417E-04
 -1      4049-8.86895E-01 3.19534E-01 1.12250E-01-2.36078E-01-1.01314E-02-5.25189E-02
 -1      4050 3.11339E-01 3.01696E-01-1.20849E-01-6.97538E-01 3.81343E-02-3.69840E-02
 -1      4051 7.81301E-01 5.39219E-01-6.82880E-01 1.18867E+00-2.20826E-01-2.31978E-01
 -1      4052 7.88192E-01 5.54898E-01-6.87492E-01 1.30421E+00 2.21342E-01 2.32776E-01
 -1      4053-7.38154E-01-7.69021E-01 7.50897E-01 1.34815E+00 2.15008E-01-1.69035E-01
 -1      4054-7.37875E-01-7.70597E-01 7.51935E-01 1.34888E+00-2.13357E-01 1.69632E-01
 -1      4055-8.83322E-01 1.85161E-01 2.98600E-01-3.77252E-01-6.98859E-03 6.90151E-03
 -1      4056 1.97011E-01 5.33713E-01-3.25333E-01-6.62431E-01 9.57669E-04-1.94930E-03
 -1      4057-8.56720E-01-1.38993E+00 9.92907E-01 1.97892E+00-2.01591E-01 1.92303E-01
 -1      4058-8.38978E-01-1.04446E+00 8.49504E-01 1.62598E+00-3.58794E-01 2.24916E-01
 -1      4059-1.17584E+00-2.32314E-01 5.90992E-01 1.27288E+00-4.16153E-01 5.89590E-01
 -1      4060-8.04256E-01-3.19509E-01 2.27752E-01 1.19218E+00-9.33688E-01 1.02807E+00
 -1      4061-8.86528E-01-5.02311E-01 5.43497E-01 1.43074E+00-3.82952E-01 4.12988E-01
 -1      4062-6.87523E-01-5.29207E-01 5.40824E-01 1.11953E+00-2.92453E-01 2.81943E-01
 -1      4063-6.14502E-01-4.85031E-01 5.40744E-01 1.00767E+00-1.11998E-01 1.41241E-01
 -1      4064-8.56280E-01-1.38913E+00 9.91598E-01 1.97905E+00 2.03133E-01-1.92073E-01
 -1      4065-8.38653E-01-1.04364E+00 8.48665E-01 1.62399E+00 3.61344E-01-2.25687E-01
 -1      4066-8.18047E-01-2.98668E-01 2.38344E-01 1.18589E+00 9.39195E-01-1.01646E+00
 -1      4067-1.18279E+00-2.39035E-01 5.88047E-01 1.27928E+00 4.14440E-01-5.87440E-01
 -1      4068-8.82204E-01-4.98415E-01 5.39853E-01 1.42455E+00 3.83762E-01-4.14146E-01
 -1      4069-6.87091E-01-5.26578E-01 5.38845E-01 1.11782E+00 2.92689E-01-2.82651E-01
 -1      4070-6.14678E-01-4.83425E-01 5.40144E-01 1.00689E+00 1.12024E-01-1.40789E-01
 -1      4071 8.92855E-01 3.63720E-01-3.08097E-01 1.16815E+00 9.99866E-01 9.91159E-01
 -1      4072 1.06245E+00 2.14670E-01-4.98312E-01 1.23851E+00 4.85099E-01 5.73190E-01
 -1      4073 8.73631E-01 4.63883E-01-5.52163E-01 1.23636E+00 3.89341E-01 4.25659E-01
 -1      4074 7.08574E-01 3.44970E-01-5.20781E-01 1.02500E+00 1.60485E-01 2.25447E-01
 -1      4075 9.60560E-01 7.40424E-01-7.58887E-01 1.59321E+00 4.59936E-01 4.17765E-01
 -1      4076 9.69243E-01 1.09703E+00-9.55755E-01 1.90390E+00 8.51608E-02 1.27232E-01
 -1      4077 1.03440E+00 2.07496E-01-4.90930E-01 1.24107E+00-4.69647E-01-5.79910E-01
 -1      4078 9.07926E-01 3.28084E-01-2.76967E-01 1.19772E+00-1.01792E+00-1.02829E+00
 -1      4079 8.45972E-01 4.29207E-01-5.18998E-01 1.25109E+00-3.89062E-01-4.65757E-01
 -1      4080 7.44824E-01 3.33046E-01-5.41068E-01 1.02732E+00-1.98791E-01-2.37059E-01
 -1      4081 1.01186E+00 8.52108E-01-7.91922E-01 1.54510E+00-4.07902E-01-3.70151E-01
 -1      4082 9.92419E-01 1.07734E+00-9.43494E-01 1.77294E+00-1.28350E-01-1.47275E-01
 -1      4083 2.95047E-01 3.71265E-01-6.01513E-02-7.49797E-01 2.61919E-02-3.78393E-02
 -1      4084 3.16400E-01 3.71293E-01-1.04582E-01-7.41922E-01 8.04492E-02-1.18449E-01
 -1      4085 3.13001E-01 3.77110E-01-2.58903E-01-6.80383E-01 2.05246E-02-1.53970E-02
 -1      4086 2.78480E-01 3.78167E-01-1.02814E-01-7.29702E-01-3.83501E-02 4.62746E-02
 -1      4087 3.14763E-01 3.90686E-01-1.65487E-01-7.31395E-01-8.09086E-02 1.17308E-01
 -1      4088 3.20915E-01 3.92686E-01-2.97429E-01-6.74840E-01-3.27008E-03 2.27207E-02
 -1      4089-9.19340E-01 2.37364E-01 2.66278E-01-2.88548E-01 4.96148E-04 1.98852E-02
 -1      4090-9.45621E-01 2.91334E-01 1.56200E-01-2.89701E-01-1.96498E-03 1.30778E-01
 -1      4091-9.14367E-01 3.09111E-01 9.61621E-02-2.97286E-01 4.34505E-03 5.33474E-02
 -1      4092-9.40039E-01 3.24528E-01 5.59221E-02-2.90934E-01-6.25194E-04-4.49221E-02
 -1      4093-9.45369E-01 3.11147E-01 9.74013E-02-2.79560E-01-1.37851E-03-1.35457E-01
 -1      4094-9.04589E-01 2.56515E-01 2.44204E-01-2.60062E-01-6.37971E-03-2.61049E-02
 -1      4095-6.69876E-01-6.87888E-01 7.11687E-01 1.23995E+00 1.21401E-01-1.11976E-01
 -1      4096-7.46386E-01-1.20925E+00 9.56756E-01 1.81176E+00-5.42327E-05 3.15756E-04
 -1      4097-6.69629E-01-6.89027E-01 7.12531E-01 1.24031E+00-1.21082E-01 1.12883E-01
 -1      4098-6.28550E-01-2.32854E-01-6.68882E-02 9.00341E-01-1.18033E+00 9.56047E-01
 -1      4099-4.19291E-01-3.36173E-01-1.09628E-01 7.91072E-01-1.09434E+00 9.66898E-01
 -1      4100-3.54614E-01 1.62236E-01-4.16458E-01 3.10700E-01-6.11886E-01 4.24595E-01
 -1      4101 4.45862E-02-2.15365E-01-3.80450E-01 1.38854E-01-7.62055E-01 2.17034E-01
 -1      4102-8.73742E-02 5.52753E-02-2.64222E-01-2.20139E-02-3.13094E-01-1.13065E-01
 -1      4103 3.05694E-02-7.25567E-02-1.96829E-01-1.20614E-01-3.11528E-01-2.87605E-01
 -1      4104-8.94676E-02 1.01188E-01 6.13362E-02-1.16173E-01 2.43833E-01-3.22152E-01
 -1      4105-5.39834E-02 5.36511E-02 1.32433E-01-1.38250E-01 2.46256E-01-3.16997E-01
 -1      4106-4.60620E-02-6.16921E-02 3.85897E-01 4.65670E-02 4.94056E-01 1.44947E-01
 -1      4107-8.99889E-02 1.55379E-01 4.10210E-01 3.88109E-02 7.66209E-01 2.32948E-01
 -1      4108 7.73907E-02 1.44907E-01 4.56680E-01 4.98176E-01 1.11157E+00 6.94224E-01
 -1      4109 2.37662E-01 2.91977E-01 2.59947E-01 5.06564E-01 1.13122E+00 7.63391E-01
 -1      4110 7.31378E-01 1.31252E-02 1.74222E-02 9.96696E-01 9.23270E-01 1.13723E+00
 -1      4111-6.34386E-01-2.56507E-01-7.35655E-02 9.34704E-01 1.19559E+00-9.82163E-01
 -1      4112-3.50405E-01 1.41501E-01-4.36623E-01 3.16098E-01 6.41276E-01-4.20270E-01
 -1      4113-4.15616E-01-3.28369E-01-1.30221E-01 7.87479E-01 1.14575E+00-9.82956E-01
 -1      4114-7.33759E-02 4.65931E-02-2.76032E-01-9.58034E-03 3.18289E-01 1.16995E-01
 -1      4115 5.92537E-02-2.36740E-01-4.02017E-01 1.32177E-01 8.14212E-01-2.00974E-01
 -1      4116-9.49572E-02 8.97264E-02 7.17557E-02-1.22885E-01-2.39286E-01 3.33439E-01
 -1      4117 2.61545E-02-8.37091E-02-1.91933E-01-1.00626E-01 3.20956E-01 2.83942E-01
 -1      4118-3.06311E-02-1.04810E-01 4.13999E-01 6.84517E-02-4.95527E-01-1.24325E-01
 -1      4119-4.76253E-02 4.56782E-02 1.42037E-01-1.41653E-01-2.60779E-01 3.33605E-01
 -1      4120 8.81731E-02 1.29307E-01 4.75943E-01 4.75318E-01-1.12739E+00-6.76099E-01
 -1      4121-8.94488E-02 1.05462E-01 4.40733E-01 5.07023E-02-7.47729E-01-2.13592E-01
 -1      4122 7.21432E-01-1.69380E-02 2.82422E-02 9.82807E-01-9.09628E-01-1.15038E+00
 -1      4123 2.09200E-01 3.08525E-01 2.78602E-01 5.01570E-01-1.15479E+00-7.49132E-01
 -1      4124 3.00619E-01 3.49255E-01-4.47435E-02-7.48943E-01 6.79524E-03 4.13941E-03
 -1      4125 3.01763E-01 3.14818E-01-1.43348E-01-6.89370E-01-3.69261E-03 9.33814E-03
 -1      4126 1.31635E-01 5.78875E-01-3.08399E-01-6.09739E-01 2.72987E-03-2.28528E-03
 -1      4127 2.36166E-01 4.95293E-01-3.38354E-01-6.68169E-01-1.59186E-02-2.70568E-02
 -1      4128 2.41516E-01 4.52247E-01-2.69620E-01-6.74778E-01-2.36793E-02 2.78200E-02
 -1      4129-4.87256E-02 7.40900E-01-3.02640E-01-4.91776E-01 6.56857E-03-3.26762E-03
 -1      4130 2.82764E-02 6.73129E-01-3.10187E-01-5.57860E-01 6.36994E-03-5.61441E-03
 -1      4131 8.47732E-02 6.22797E-01-3.10414E-01-5.88484E-01 6.68721E-03-1.02203E-02
 -1      4132 4.45083E-02 6.64852E-01-3.13178E-01-5.67768E-01 1.30736E-03-1.55368E-03
 -1      4133 1.38419E-01 5.72572E-01-3.07910E-01-6.24262E-01-6.28560E-04 1.42937E-03
 -1      4134-1.23443E-01 7.90008E-01-2.90667E-01-4.12153E-01 4.61633E-03-3.37530E-03
 -1      4135-1.73993E-01 8.22628E-01-2.81314E-01-3.18359E-01 3.97210E-03-2.74576E-03
 -1      4136-9.11117E-02 7.71606E-01-2.97081E-01-4.53698E-01 4.31067E-03-2.61761E-03
 -1      4137-1.15003E-01 7.94728E-01-2.99830E-01-4.05510E-01-7.78964E-04 7.14281E-04
 -1      4138-4.70723E-02 7.43792E-01-3.08628E-01-4.95128E-01-2.34870E-04 4.71963E-04
 -1      4139-2.37069E-01 8.30999E-01-2.55054E-01-1.27204E-01 6.00216E-03 2.63279E-04
 -1      4140-2.17514E-01 8.34922E-01-2.66468E-01-2.28270E-01 6.67185E-03-5.67790E-04
 -1      4141-1.97553E-01 8.32505E-01-2.74192E-01-2.70411E-01 3.92506E-03-2.04204E-03
 -1      4142-2.04196E-01 8.34733E-01-2.70913E-01-2.18370E-01-9.86474E-04-4.55877E-04
 -1      4143-1.64989E-01 8.18346E-01-2.82262E-01-3.15171E-01-1.29234E-03 2.57360E-04
 -1      4144-2.35907E-01 7.97779E-01-2.40742E-01-3.47655E-02 5.48393E-03-4.24245E-04
 -1      4145-2.20827E-01 7.55325E-01-2.29381E-01 5.81230E-02 7.25936E-03-1.45685E-03
 -1      4146-2.38933E-01 8.17254E-01-2.48309E-01-8.00046E-02 4.43570E-03-5.34089E-05
 -1      4147-2.31943E-01 7.99836E-01-2.43243E-01-2.88095E-02-2.61257E-03 5.66403E-04
 -1      4148-2.36755E-01 8.31877E-01-2.52655E-01-1.25345E-01-1.74667E-03 4.11962E-04
 -1      4149-1.57610E-01 6.48494E-01-2.10702E-01 2.03664E-01 7.53044E-03 7.50728E-04
 -1      4150-1.99078E-01 7.06353E-01-2.18595E-01 1.34887E-01 6.79897E-03 1.49279E-03
 -1      4151-2.09413E-01 7.25726E-01-2.24186E-01 9.45742E-02 7.03219E-03 1.06859E-04
 -1      4152-1.94893E-01 6.97389E-01-2.14208E-01 1.34227E-01-1.76642E-03-1.02847E-04
 -1      4153-2.12540E-01 7.48207E-01-2.26096E-01 5.87504E-02-4.27544E-04-1.48286E-03
 -1      4154-1.14729E-01 5.88939E-01-2.04806E-01 2.63825E-01 9.89114E-03 2.85894E-03
 -1      4155-6.22843E-02 5.44003E-01-2.05935E-01 3.27454E-01 9.50987E-03 2.88317E-03
 -1      4156-1.38999E-01 6.20337E-01-2.08095E-01 2.35081E-01 9.33592E-03 2.74647E-03
 -1      4157-1.08875E-01 5.78061E-01-2.02184E-01 2.65897E-01-9.97647E-04-7.00402E-04
 -1      4158-1.50607E-01 6.43115E-01-2.10926E-01 2.08074E-01-1.05029E-03 6.21288E-05
 -1      4159 8.69728E-02 4.41765E-01-2.30527E-01 4.64794E-01 9.77075E-03 4.38281E-03
 -1      4160 3.57506E-03 4.88095E-01-2.14591E-01 3.81573E-01 1.19423E-02 3.57665E-03
 -1      4161-3.18103E-02 5.18501E-01-2.09597E-01 3.59596E-01 1.02192E-02 7.02012E-03
 -1      4162-5.54330E-02 5.25914E-01-2.04559E-01 3.25680E-01-7.43256E-04-7.73299E-04
 -1      4163 2.24983E-02 4.72481E-01-2.12778E-01 3.93184E-01-4.23585E-04-1.62456E-03
 -1      4164 1.93702E-01 3.93876E-01-2.76714E-01 5.30136E-01-3.21112E-04 1.99437E-03
 -1      4165 3.21708E-01 3.58471E-01-3.31978E-01 6.12185E-01-2.52791E-02-2.40117E-02
 -1      4166 1.36519E-01 4.09047E-01-2.46242E-01 4.92679E-01 4.38676E-03 8.50573E-03
 -1      4167 1.10266E-01 4.21982E-01-2.39588E-01 4.55143E-01-3.26609E-03 1.95362E-04
 -1      4168 2.00823E-01 3.95483E-01-2.89309E-01 5.22475E-01-4.18387E-03-3.79100E-04
 -1      4169 5.64925E-01 4.01778E-01-4.91971E-01 8.81271E-01-8.57743E-02-1.35626E-01
 -1      4170 4.76419E-01 3.97409E-01-4.43373E-01 7.67061E-01-3.97656E-02-3.90065E-02
 -1      4171 3.85848E-01 4.36254E-01-4.54558E-01 7.09294E-01-7.21881E-03 2.74162E-03
 -1      4172 6.78974E-01 4.90065E-01-6.36486E-01 1.07817E+00-1.05350E-01-1.15795E-01
 -1      4173-3.75806E-01-3.80850E-01 3.78091E-01 6.96496E-01 4.70713E-02-4.14517E-02
 -1      4174-2.25967E-01-3.86971E-01 2.93634E-01 5.53180E-01 3.24186E-03-9.28124E-03
 -1      4175-5.33572E-01-4.70690E-01 5.13866E-01 8.76581E-01 7.70072E-02-6.51090E-02
 -1      4176-4.15801E-01-5.19694E-01 5.03491E-01 8.18952E-01-7.73825E-04 1.38290E-03
 -1      4177-1.17350E-01-3.68940E-01 2.17966E-01 4.30910E-01-3.87363E-03 1.75902E-03
 -1      4178-3.95667E-02-3.57197E-01 1.75128E-01 3.27466E-01-8.53475E-03 4.58633E-04
 -1      4179-1.78578E-01-3.82028E-01 2.50818E-01 4.96166E-01 4.22929E-04 2.90323E-03
 -1      4180-1.12175E-01-3.66593E-01 2.26896E-01 4.29842E-01-5.41333E-04-3.00826E-04
 -1      4181-2.17843E-01-4.04613E-01 3.09321E-01 5.63510E-01-1.47593E-03 1.98670E-03
 -1      4182 3.35562E-02-3.08300E-01 1.16734E-01 1.85637E-01-3.06273E-03 1.50741E-04
 -1      4183 8.61441E-03-3.41295E-01 1.42871E-01 2.58898E-01-4.65024E-03 2.33043E-03
 -1      4184-1.33205E-02-3.52719E-01 1.59025E-01 2.95130E-01-5.08328E-03 3.69973E-03
 -1      4185 6.42735E-03-3.30789E-01 1.40220E-01 2.61541E-01 1.36045E-03-3.10258E-03
 -1      4186-3.38212E-02-3.49901E-01 1.71513E-01 3.21501E-01-5.77247E-04 1.12249E-03
 -1      4187 5.86737E-02-2.53099E-01 8.46177E-02 8.52242E-02-8.39241E-04-5.27778E-04
 -1      4188 5.42772E-02-2.78903E-01 9.88450E-02 1.30288E-01-1.88897E-03 6.81198E-04
 -1      4189 4.26701E-02-2.92660E-01 1.06710E-01 1.62511E-01-9.85373E-04 2.04398E-03
 -1      4190 5.02751E-02-2.77489E-01 9.80014E-02 1.32245E-01 1.39256E-03 9.03191E-06
 -1      4191 2.64448E-02-2.98275E-01 1.16540E-01 1.85962E-01 1.26667E-03-2.22530E-03
 -1      4192 6.67368E-02-2.30525E-01 7.17397E-02 2.35869E-02-1.32389E-03-3.94716E-04
 -1      4193 6.69137E-02-2.40781E-01 7.54495E-02 5.15504E-02-2.19361E-05-1.76750E-04
 -1      4194 6.39450E-02-2.46355E-01 7.99060E-02 6.87793E-02-2.07776E-04-1.55521E-04
 -1      4195 6.79761E-02-2.40471E-01 7.58570E-02 5.46013E-02 6.79884E-04-5.84167E-04
 -1      4196 5.39401E-02-2.50599E-01 8.53730E-02 8.70659E-02 3.96891E-04-3.11013E-04
 -1      4197 7.81474E-02-2.60987E-01 8.01273E-02-3.12583E-02-3.54376E-03 2.30301E-04
 -1      4198 6.94804E-02-2.37772E-01 7.30256E-02-2.14645E-03-2.69482E-03-7.44032E-04
 -1      4199 7.00036E-02-2.34633E-01 7.24049E-02 1.03922E-02-2.31881E-03-3.54159E-05
 -1      4200 7.06091E-02-2.39257E-01 7.44843E-02-1.33192E-04 9.51692E-04-4.61729E-04
 -1      4201 6.87917E-02-2.31789E-01 7.21170E-02 2.39197E-02 1.31787E-03 2.12062E-05
 -1      4202 7.51703E-02-2.90037E-01 9.36524E-02-6.98509E-02-4.56229E-03-1.86771E-03
 -1      4203 7.67938E-02-3.32031E-01 1.11354E-01-1.24200E-01-6.48029E-03-9.11758E-04
 -1      4204 7.89256E-02-2.78912E-01 8.75598E-02-4.98987E-02-5.32846E-03-1.43398E-04
 -1      4205 7.28214E-02-2.93326E-01 9.64318E-02-6.55047E-02 1.42357E-03-3.52553E-04
 -1      4206 7.77005E-02-2.64380E-01 8.42007E-02-3.22909E-02 3.08301E-03-6.38311E-04
 -1      4207 2.92990E-02-3.92249E-01 1.57573E-01-2.69066E-01-7.27323E-03-3.57537E-03
 -1      4208 5.55744E-02-3.65240E-01 1.32827E-01-1.88147E-01-6.36725E-03-4.34862E-03
 -1      4209 6.98452E-02-3.50924E-01 1.21639E-01-1.56266E-01-8.33170E-03-2.55460E-03
 -1      4210 8.35546E-02-3.34921E-01 1.10347E-01-1.22141E-01 1.90748E-03 2.60464E-04
 -1      4211 4.73870E-02-3.66327E-01 1.34713E-01-1.81869E-01 2.24313E-03 1.74668E-04
 -1      4212-2.62833E-02-4.04841E-01 1.83242E-01-3.48534E-01-5.06721E-03-4.99288E-03
 -1      4213-1.01631E-01-3.87665E-01 2.08895E-01-4.39839E-01-6.60157E-03-1.85392E-03
 -1      4214 2.05942E-03-3.98419E-01 1.70743E-01-3.06299E-01-7.12616E-03-4.94893E-03
 -1      4215 2.79696E-02-3.89831E-01 1.55741E-01-2.64901E-01 2.50784E-03 3.57283E-04
 -1      4216-2.60314E-02-4.07293E-01 1.83290E-01-3.45584E-01 2.30220E-03 1.28585E-03
 -1      4217-1.99335E-01-3.50738E-01 2.32758E-01-4.90519E-01-3.47299E-03-7.70787E-03
 -1      4218-3.07323E-01-2.82679E-01 2.53183E-01-5.46471E-01-2.66075E-03-4.06845E-03
 -1      4219-1.48139E-01-3.65704E-01 2.20204E-01-4.67781E-01-8.23684E-03-5.42268E-03
 -1      4220-9.57042E-02-3.85396E-01 2.02546E-01-4.45678E-01 1.69277E-03 1.57986E-03
 -1      4221-2.03282E-01-3.52561E-01 2.30364E-01-4.72999E-01 1.05382E-03 1.10143E-03
 -1      4222-5.37653E-01-1.19887E-01 2.84206E-01-5.74285E-01-3.72995E-03-3.27835E-03
 -1      4223-4.25749E-01-2.06315E-01 2.71494E-01-5.75355E-01-2.91818E-03-1.69197E-03
 -1      4224-3.66231E-01-2.41974E-01 2.62509E-01-5.62076E-01-1.60363E-03-3.80278E-03
 -1      4225-3.05985E-01-2.86479E-01 2.50871E-01-5.34499E-01 3.73455E-04 7.11985E-04
 -1      4226-4.25874E-01-2.15124E-01 2.70942E-01-5.64467E-01 8.28322E-05 1.37837E-04
 -1      4227-6.42744E-01-3.67477E-02 2.96890E-01-5.40903E-01-2.81043E-03-5.36147E-03
 -1      4228-7.28093E-01 4.20134E-02 3.00578E-01-4.92302E-01-1.10312E-03-5.88739E-03
 -1      4229-5.87725E-01-7.86244E-02 2.90535E-01-5.58973E-01-1.72176E-03-5.17203E-03
 -1      4230-5.45088E-01-1.21714E-01 2.85838E-01-5.62407E-01-4.07938E-04-7.51732E-04
 -1      4231-6.48624E-01-3.80468E-02 2.99116E-01-5.33739E-01-1.21941E-03-1.17079E-03
 -1      4232-8.16486E-01 1.29981E-01 2.96774E-01-4.23872E-01-2.55697E-03-2.98131E-04
 -1      4233-8.68325E-01 1.85940E-01 3.00801E-01-3.44638E-01 1.11520E-02-2.16457E-04
 -1      4234-7.77937E-01 9.12305E-02 3.00451E-01-4.56636E-01 7.10237E-05-9.79838E-03
 -1      4235-7.48414E-01 5.51475E-02 3.04603E-01-4.79791E-01-1.81343E-03-2.61208E-03
 -1      4236-8.46172E-01 1.48221E-01 3.01564E-01-4.18066E-01-2.84035E-03-1.35356E-03
 -1      4237-8.83447E-01 2.27505E-01 2.44656E-01-3.34502E-01-2.10786E-03 2.99080E-02
 -1      4238-9.35961E-01 3.35175E-01 4.20409E-02-2.79265E-01-7.59765E-03-1.87429E-03
 -1      4239-8.83228E-01 3.07143E-01 1.33870E-01-2.44984E-01-2.89759E-03 6.78052E-03
 -1      4240 1.43689E-01 5.71193E-01-3.00461E-01-6.17843E-01-4.03628E-03-4.81906E-03
 -1      4241 2.49414E-01 4.75129E-01-2.97705E-01-6.66842E-01 1.52891E-02-3.82857E-03
 -1      4242 2.56907E-01 3.98527E-01-2.06966E-01-6.79825E-01 2.10098E-02-1.85247E-02
 -1      4243 2.81888E-02 6.73644E-01-3.09557E-01-5.56634E-01-7.87849E-03 7.78398E-03
 -1      4244-4.94770E-02 7.42432E-01-3.03370E-01-4.92610E-01-7.49712E-03 4.06260E-03
 -1      4245 8.26612E-02 6.25278E-01-3.10831E-01-5.89153E-01-8.19954E-03 7.52445E-03
 -1      4246 1.48008E-01 5.61963E-01-2.96007E-01-6.29375E-01-1.37427E-03-4.63796E-03
 -1      4247-1.74125E-01 8.23454E-01-2.81509E-01-3.17566E-01-5.84900E-03 3.71143E-03
 -1      4248-1.23268E-01 7.90712E-01-2.90933E-01-4.12668E-01-6.61612E-03 3.99959E-03
 -1      4249-9.05399E-02 7.71966E-01-2.97306E-01-4.54315E-01-5.44576E-03 3.40049E-03
 -1      4250-2.16540E-01 8.33603E-01-2.66026E-01-2.28063E-01-8.10581E-03 8.22464E-04
 -1      4251-2.38500E-01 8.31346E-01-2.53978E-01-1.28307E-01-7.37819E-03 4.46952E-05
 -1      4252-1.97624E-01 8.32735E-01-2.74320E-01-2.69259E-01-5.99314E-03 2.50377E-03
 -1      4253-2.17094E-01 7.53644E-01-2.31383E-01 6.64211E-02-6.22587E-03 1.40587E-03
 -1      4254-2.35698E-01 7.96748E-01-2.42019E-01-3.07551E-02-6.60313E-03 1.22687E-04
 -1      4255-2.39303E-01 8.17092E-01-2.47919E-01-7.87661E-02-5.93915E-03-7.80938E-05
 -1      4256-1.99834E-01 7.11256E-01-2.18773E-01 1.39548E-01-7.15198E-03-1.03656E-03
 -1      4257-1.57477E-01 6.48904E-01-2.10595E-01 2.03656E-01-9.00573E-03-1.04987E-03
 -1      4258-2.06005E-01 7.24157E-01-2.22625E-01 1.01887E-01-5.47670E-03-1.84163E-03
 -1      4259-6.23859E-02 5.44438E-01-2.06880E-01 3.27483E-01-1.06314E-02-3.54833E-03
 -1      4260-1.14783E-01 5.89483E-01-2.05124E-01 2.63632E-01-1.12262E-02-3.63464E-03
 -1      4261-1.39270E-01 6.20833E-01-2.08048E-01 2.35201E-01-1.05819E-02-3.37964E-03
 -1      4262 2.86793E-03 4.92275E-01-2.16480E-01 3.80569E-01-1.23561E-02-3.62939E-03
 -1      4263 8.40758E-02 4.34061E-01-2.33037E-01 4.48694E-01-1.34756E-02-5.02009E-03
 -1      4264-3.13277E-02 5.20258E-01-2.11345E-01 3.59371E-01-1.15950E-02-7.05132E-03
 -1      4265 3.28612E-01 3.53156E-01-3.30510E-01 6.15591E-01 2.12705E-02 2.60335E-02
 -1      4266 2.06681E-01 3.77626E-01-2.78778E-01 5.35306E-01 3.20933E-03 3.43272E-03
 -1      4267 1.41970E-01 4.11526E-01-2.50119E-01 5.11540E-01-5.78734E-03-2.91273E-03
 -1      4268 5.65589E-01 3.90781E-01-4.91925E-01 8.68858E-01 8.02990E-02 1.57161E-01
 -1      4269 4.73174E-01 4.02398E-01-4.44673E-01 7.65572E-01 3.85874E-02 4.14921E-02
 -1      4270 6.78911E-01 4.91656E-01-6.56505E-01 1.07966E+00 1.26696E-01 1.12973E-01
 -1      4271-2.25651E-01-3.87488E-01 2.94091E-01 5.53720E-01-4.20720E-03 1.05550E-02
 -1      4272-3.76027E-01-3.81664E-01 3.78447E-01 6.96939E-01-4.80604E-02 4.28772E-02
 -1      4273-5.33602E-01-4.71078E-01 5.14229E-01 8.77417E-01-7.74715E-02 6.59690E-02
 -1      4274-4.27927E-02-3.58097E-01 1.74031E-01 3.31570E-01 5.90167E-03 1.77616E-04
 -1      4275-1.16602E-01-3.69347E-01 2.17050E-01 4.30915E-01 3.04487E-03-4.71759E-04
 -1      4276-1.78645E-01-3.83403E-01 2.52099E-01 4.97188E-01-1.44282E-03-1.81910E-03
 -1      4277 7.38474E-03-3.32118E-01 1.42737E-01 2.58547E-01 4.24530E-03-1.03267E-03
 -1      4278 3.29912E-02-3.05527E-01 1.17298E-01 1.84119E-01 3.08147E-03-1.88304E-04
 -1      4279-1.89473E-02-3.44997E-01 1.56624E-01 3.03713E-01 3.43836E-03-2.86281E-03
 -1      4280 5.37903E-02-2.83000E-01 9.89742E-02 1.31064E-01 2.21039E-03-4.05341E-04
 -1      4281 5.93340E-02-2.53345E-01 8.41797E-02 8.41565E-02 1.49008E-03 7.34611E-04
 -1      4282 4.58295E-02-2.96766E-01 1.08247E-01 1.58693E-01 1.97577E-03-1.09914E-03
 -1      4283 6.66534E-02-2.40099E-01 7.49577E-02 5.18071E-02 1.07989E-03-4.66328E-04
 -1      4284 6.82112E-02-2.30273E-01 7.08999E-02 2.65902E-02 2.67436E-03-1.11681E-03
 -1      4285 6.38363E-02-2.46572E-01 7.95703E-02 6.84995E-02 3.53557E-04-3.41224E-04
 -1      4286 7.24215E-02-2.41681E-01 7.48265E-02 1.64912E-04 3.43201E-03 5.05284E-04
 -1      4287 7.69301E-02-2.62543E-01 8.15277E-02-3.32970E-02 7.36190E-03 6.43186E-04
 -1      4288 6.94226E-02-2.30516E-01 7.14913E-02 1.50042E-02 2.64652E-03-6.96989E-04
 -1      4289 7.67512E-02-3.29827E-01 1.10778E-01-1.23478E-01 9.05405E-03 1.71598E-03
 -1      4290 7.40646E-02-2.87923E-01 9.30111E-02-6.87563E-02 6.32515E-03 1.73213E-03
 -1      4291 7.52587E-02-2.71169E-01 8.68747E-02-4.81778E-02 6.18221E-03-9.24793E-05
 -1      4292 5.44013E-02-3.63107E-01 1.32563E-01-1.87121E-01 9.27900E-03 4.86125E-03
 -1      4293 2.82954E-02-3.89164E-01 1.56954E-01-2.66675E-01 1.04031E-02 4.34595E-03
 -1      4294 6.89019E-02-3.48859E-01 1.21329E-01-1.55500E-01 1.08463E-02 2.97791E-03
 -1      4295-1.00939E-01-3.85794E-01 2.07475E-01-4.37871E-01 9.23779E-03 3.69729E-03
 -1      4296-2.58126E-02-4.02405E-01 1.82190E-01-3.46474E-01 7.81133E-03 6.97318E-03
 -1      4297 1.50797E-03-3.95959E-01 1.70142E-01-3.03856E-01 1.03258E-02 6.42717E-03
 -1      4298-3.05811E-01-2.81570E-01 2.51718E-01-5.44411E-01 3.69965E-03 5.28619E-03
 -1      4299-1.98716E-01-3.48765E-01 2.31248E-01-4.88454E-01 5.09262E-03 9.23118E-03
 -1      4300-1.47398E-01-3.63290E-01 2.18525E-01-4.65832E-01 1.03368E-02 7.12459E-03
 -1      4301-4.24881E-01-2.04795E-01 2.70197E-01-5.72919E-01 3.14923E-03 1.69268E-03
 -1      4302-5.35587E-01-1.19627E-01 2.82932E-01-5.72524E-01 3.52259E-03 2.51882E-03
 -1      4303-3.64986E-01-2.40664E-01 2.61400E-01-5.60097E-01 1.97793E-03 4.52757E-03
 -1      4304-7.27854E-01 4.12240E-02 3.00433E-01-4.93771E-01-9.25351E-04 3.47514E-03
 -1      4305-6.40648E-01-3.70983E-02 2.95436E-01-5.40415E-01 1.19721E-03 3.49668E-03
 -1      4306-5.85067E-01-7.86982E-02 2.89286E-01-5.57464E-01 8.78251E-04 4.29014E-03
 -1      4307-8.21975E-01 1.36184E-01 2.88257E-01-4.14418E-01 3.37652E-03-8.24619E-03
 -1      4308-9.00247E-01 2.08959E-01 2.86652E-01-3.31561E-01-1.52113E-02-1.44647E-02
 -1      4309-7.75890E-01 9.28959E-02 2.99544E-01-4.59230E-01-1.54986E-03 6.67941E-03
 -1      4310-8.45822E-01 1.59805E-01 2.87769E-01-4.09655E-01 2.11458E-03-5.01536E-03
 -1      4311-8.80809E-01 2.62457E-01 1.95222E-01-2.98400E-01-7.73247E-03-2.99085E-02
 -1      4312 8.52638E-01 8.70719E-01-8.83925E-01 1.49775E+00-1.89766E-02 9.01807E-03
 -1      4313-8.71396E-01 1.98310E-01 2.64907E-01-3.63670E-01-7.40904E-03-3.22163E-03
 -1      4314-8.83697E-01 2.38447E-01 2.20004E-01-3.19268E-01 4.86295E-03 1.30134E-02
 -1      4315 1.92782E-01 5.15482E-01-2.75176E-01-6.60551E-01 3.67634E-03 7.84483E-04
 -1      4316 2.42630E-01 4.39682E-01-2.33947E-01-6.74438E-01-9.47406E-03 9.25809E-03
 -1      4317-4.60348E-04 8.64861E-05 1.46745E-04 1.43457E-04-1.90613E-06 3.59230E-06
 -1      4318-4.63510E-04 7.77613E-05 1.53527E-04 2.27269E-04-5.03589E-06 5.64723E-06
 -1      4319-4.95650E-04 1.31691E-04 1.29465E-04-1.60646E-04 1.08721E-05 1.97277E-05
 -1      4320-1.37257E-05-7.38474E-05 4.08562E-05-7.21496E-05-2.00509E-05-1.87437E-05
 -1      4321-3.98722E-04 1.33401E-03-2.98404E-04-3.59586E-04 3.80799E-06 2.31639E-05
 -1      4322-4.12908E-05 2.73849E-04-1.02613E-04 1.37426E-04-2.64141E-05-8.58694E-06
 -1      4323-3.94751E-04 1.32772E-03-2.97482E-04-3.54074E-04-2.68699E-06-2.12160E-05
 -1      4324-8.99646E-05 5.53094E-04-1.67362E-04 2.95113E-04-4.04317E-05-3.62176E-05
 -1      4325-4.15282E-05 3.36048E-04-1.12352E-04-1.92901E-04-1.98929E-05 1.12269E-05
 -1      4326-5.19910E-04 1.56170E-04 9.12344E-05-2.75441E-04-7.41651E-06-5.46610E-06
 -1      4327 2.16572E-06 1.00230E-04-4.89141E-05-8.42779E-05-2.18955E-05 1.05772E-05
 -1      4328-1.67426E-05 1.37025E-04-5.53438E-05-9.47466E-05 3.68145E-05-1.30776E-05
 -1      4329-2.85357E-04 8.28126E-04-1.85595E-04-2.22547E-04-4.92299E-05 2.48082E-05
 -1      4330 2.04348E-05 6.96927E-05-3.54579E-05 9.53604E-05-3.24609E-05-2.15472E-05
 -1      4331-4.14638E-04 7.79063E-05 1.41023E-04-1.33805E-04-1.28885E-06-1.85921E-05
 -1      4332-7.76042E-04 2.48772E-04 1.80682E-04-2.40661E-04-1.23392E-05 3.05986E-06
 -1      4333-5.32923E-04 1.14811E-04 1.40551E-04-2.60414E-04 3.33931E-06-3.32459E-06
 -1      4334-3.97991E-04-2.01876E-05 1.21829E-04 4.58306E-04-3.70993E-05-5.46176E-06
 -1      4335-8.44621E-05-1.36303E-04 8.01961E-05 1.99794E-04 2.26045E-05-2.12283E-05
 -1      4336-2.78056E-04-5.36388E-05 9.72616E-05-3.66232E-04 2.61860E-05-4.28409E-06
 -1      4337-5.77814E-05-1.15858E-04 7.16981E-05 1.50323E-04-1.23351E-05 1.41107E-05
 -1      4338-3.96542E-05-6.56702E-05 4.22425E-05 9.99121E-05 1.91184E-05-1.54148E-05
 -1      4339-4.58491E-05 2.14328E-04-7.16699E-05-1.11736E-04-3.20557E-05 4.66640E-06
 -1      4340-2.07673E-04 8.87789E-04-2.53113E-04-2.89422E-04-1.12624E-05 1.65364E-06
 -1      4341 9.95375E-05 1.12792E-03-2.21775E-04-1.39969E-03-7.22910E-07-3.62071E-07
 -1      4342-2.10392E-04 9.23742E-04-2.86363E-04-3.31540E-04 3.56215E-05 1.63548E-05
 -1      4343-2.03879E-04 9.12698E-04-2.85718E-04-3.39916E-04-2.92377E-05-2.28149E-05
 -1      4344-5.11383E-04 1.12478E-04 1.34704E-04 2.20031E-04 7.33772E-06-8.37133E-06
 -1      4345 2.42872E-05-2.13593E-05-1.06545E-05-6.05609E-06 9.81529E-06-2.87640E-06
 -1      4346 1.85736E-05 4.95475E-05-2.53997E-05 7.00468E-05 2.51265E-05 1.86229E-05
 -1      4347-2.18118E-05-8.47738E-05 4.23633E-05 8.96647E-05-5.18520E-06 4.65415E-06
 -1      4348-2.06830E-04 8.77359E-04-2.54913E-04 2.18991E-04-7.92894E-06 4.82586E-06
 -1      4349 2.38527E-05-5.55133E-05 1.34025E-05-2.51956E-05 2.23796E-07 2.10548E-06
 -1      4350-8.95731E-04 3.78016E-04 1.04546E-04-3.78324E-05-4.30527E-06-5.37674E-06
 -1      4351-1.93883E-04 8.17830E-04-2.49843E-04 2.67361E-04 2.68754E-05-1.00057E-05
 -1      4352-4.24879E-05-1.88679E-04 7.71866E-05 2.15395E-04-2.24200E-06-1.11960E-05
 -1      4353-2.84568E-04 9.09592E-04-2.24246E-04 2.70855E-04-3.70362E-05 2.89028E-06
 -1      4354-2.26310E-04 9.25805E-04-2.95480E-04 2.20596E-04-2.42576E-05 2.66350E-05
 -1      4355-8.63814E-04 3.32601E-04 1.50641E-04 1.29774E-04-6.71007E-06 4.21700E-06
 -1      4356-7.52473E-05-1.79696E-04 5.99454E-05-2.80101E-04 6.06141E-06 7.08588E-07
 -1      4357-3.07990E-04-3.69128E-05 1.03842E-04-3.76423E-04-2.90247E-05-2.20648E-06
 -1      4358-4.48107E-06-5.94733E-05 2.00456E-05 8.28312E-05-2.90150E-05 2.37342E-05
 -1      4359 1.69538E-05-5.65931E-05 8.54290E-06 4.29539E-05 3.37550E-05-2.18538E-05
 -1      4360-4.18319E-04 7.90857E-05 1.61797E-04-1.62210E-04-6.20041E-06 1.25895E-05
 -1      4361-2.72404E-05 1.86833E-04-5.75358E-05 1.34842E-04 4.71385E-07-4.59684E-07
 -1      4362-4.37294E-04 6.36412E-05 1.35266E-04-2.06812E-04-9.97324E-07 5.92120E-06
 -1      4363-1.35257E-05 1.46928E-04-5.93435E-05-1.02561E-04 1.27282E-05 2.47213E-06
 -1      4364-1.07982E-04-1.92811E-04 7.76774E-05 3.27743E-04-3.24487E-06-5.90432E-07
 -1      4365-5.44636E-04 1.53299E-04 1.19330E-04 1.79392E-04-1.54665E-06 6.11839E-06
 -1      4366-3.78463E-05-1.63870E-04 5.82857E-05-2.13642E-04-1.07115E-05-1.00327E-05
 -1      4367-4.05286E-04 9.90391E-04-1.50255E-04 2.25233E-06 4.12732E-06-5.17296E-06
 -1      4368-4.70183E-04 6.14790E-05 1.15049E-04 3.98426E-04 1.04597E-05-1.72508E-06
 -1      4369-8.94902E-04 3.59459E-04 1.53475E-04 8.82761E-05 3.26812E-05 1.36940E-05
 -1      4370-4.60030E-04 1.56739E-03-3.18179E-04 7.84530E-04-1.60273E-05 8.97489E-06
 -1      4371-6.27605E-05 3.76692E-04-1.12100E-04-2.03088E-04 1.72757E-05-2.54975E-05
 -1      4372-3.41792E-05 2.93358E-04-1.07379E-04-1.48154E-04-2.25278E-05 7.98427E-06
 -1      4373 3.78235E-05 1.15575E-03-2.61922E-04 1.29979E-03 6.29493E-07 8.86669E-06
 -1      4374-3.77751E-04 1.33231E-03-3.16553E-04 4.31417E-04 2.83933E-05-2.26789E-05
 -1      4375-5.51152E-05 2.81482E-04-1.03231E-04 1.31808E-04 2.55628E-05 3.08614E-06
 -1      4376-8.08162E-05 4.82703E-04-1.37043E-04 2.50128E-04 6.88834E-06 1.16528E-05
 -1      4377-2.87556E-04 7.92296E-04-1.43030E-04-2.41698E-04-1.25513E-05 3.41617E-06
 -1      4378 2.81277E-04 9.25421E-04-4.02356E-04 1.29635E-03 6.10437E-05-9.64994E-06
 -1      4379 3.13120E-04 1.02019E-03-4.21408E-04-1.38363E-03 6.49705E-06 3.20438E-05
 -1      4380 2.98500E-04 9.90558E-04-4.24418E-04-1.35303E-03-3.08976E-05-3.20793E-05
 -1      4381-3.75102E-04 9.63807E-04-1.73597E-04-1.90633E-05 3.47228E-05-1.06977E-05
 -1      4382-3.14457E-05-8.24971E-05 4.56269E-05-9.76269E-05 1.64761E-05 1.67172E-05
 -1      4383-1.21571E-04 5.45640E-04-1.57539E-04 2.16439E-04 3.69332E-05 2.79918E-05
 -1      4384 3.55143E-04 8.36413E-04-2.83350E-04 1.19953E-03 6.95418E-06 4.29097E-06
 -1      4385 3.16364E-04 8.03481E-04-3.00754E-04 1.11631E-03-5.15118E-05-1.92977E-05
 -1      4386 3.78877E-04 5.09099E-05-3.90363E-05 3.99794E-04-4.26742E-05 1.94720E-04
 -1      4387 3.82198E-04 2.52629E-04-2.22665E-04 6.37503E-04-4.79885E-05 1.62112E-05
 -1      4388 2.02935E-04 1.02659E-03-4.45212E-04 1.07540E-03-4.24135E-06 2.09948E-05
 -1      4389 4.39316E-04 4.41154E-04-3.24369E-04 8.41822E-04-2.12093E-05 1.89592E-05
 -1      4390 1.10616E-04 1.08184E-03-3.56642E-04 9.84913E-04-3.39822E-05 6.12025E-07
 -1      4391-1.83028E-04 1.45096E-03-4.32337E-04 9.34708E-04-3.81009E-05-2.78468E-05
 -1      4392-3.47455E-04 1.43007E-03-2.73591E-04 1.05559E-03 6.34818E-05-1.43282E-05
 -1      4393 2.18390E-04 8.51340E-04-2.87573E-04 1.10202E-03 6.45468E-05-5.03903E-06
 -1      4394 3.97935E-04 2.47245E-04-2.15552E-04 6.33831E-04 4.75389E-05-1.36949E-05
 -1      4395 3.76388E-04 4.79552E-05-3.65706E-05 3.97372E-04 3.89406E-05-1.93887E-04
 -1      4396 3.56172E-04 4.61104E-04-2.92971E-04 8.27621E-04 4.13527E-05-3.97187E-05
 -1      4397 4.30007E-04 6.82280E-04-3.44081E-04 1.09973E-03 6.59210E-05-5.60687E-05
 -1      4398 3.74698E-04 7.51643E-04-4.46584E-04 1.03163E-03-2.18558E-05-1.81978E-06
 -1      4399 1.36087E-04 1.04906E-03-3.24150E-04 1.28997E-03 4.02935E-05-1.15980E-05
 -1      4400 4.31713E-04 1.62691E-04-1.45455E-04-5.90201E-04 4.69217E-06-7.75437E-05
 -1      4401 4.81564E-04-2.64980E-04 2.43467E-04 2.64118E-06-1.66844E-04-5.08110E-04
 -1      4402 3.57973E-04 5.29004E-04-3.13021E-04-9.09864E-04-1.34055E-05-7.61218E-05
 -1      4403 4.41392E-04 7.05011E-04-3.47288E-04-1.13999E-03-2.52713E-05-1.04966E-04
 -1      4404 4.06839E-04 8.03945E-04-4.76415E-04-1.09688E-03 3.78513E-05-1.05791E-05
 -1      4405 3.30837E-04 8.54623E-04-2.55195E-04-1.25423E-03 2.68867E-07-1.04733E-06
 -1      4406 2.02499E-04 8.82692E-04-2.59082E-04-1.15854E-03-5.42006E-05-1.97690E-05
 -1      4407 1.26406E-04 1.10936E-03-3.02366E-04-1.36141E-03-6.10890E-06-3.07749E-05
 -1      4408 4.66590E-04-2.60188E-04 2.51154E-04-1.42881E-05 1.77145E-04 4.97408E-04
 -1      4409 4.20625E-04 1.70440E-04-1.57983E-04-5.94845E-04-1.18939E-06 7.51021E-05
 -1      4410 3.81097E-04 5.32474E-04-3.33797E-04-9.49736E-04 1.72788E-05 6.10612E-05
 -1      4411 3.90064E-04 8.23165E-04-4.54084E-04-1.02377E-03-6.43723E-05-4.15309E-06
 -1      4412 4.52518E-04 7.38664E-04-3.85417E-04-1.13550E-03 1.39811E-05 1.02342E-04
 -1      4413 2.05688E-04 8.78975E-04-2.57345E-04-1.15856E-03 4.93591E-05 1.65244E-05
 -1      4414 1.26131E-04 1.10825E-03-3.00422E-04-1.36598E-03 1.19147E-05 2.89449E-05
 -1      4415-3.50755E-05 4.27177E-04-1.63436E-04 2.35307E-04-3.89071E-05 2.83694E-06
 -1      4416-3.29806E-04 9.15212E-04-2.51088E-04 1.84398E-04-5.48749E-05-3.78358E-05
 -1      4417-3.84164E-04 1.12847E-03-3.01319E-04-1.72865E-04-1.72033E-05-2.72667E-05
 -1      4418-2.01718E-04 9.11770E-04-3.08297E-04-3.40844E-04-3.12209E-05-2.84447E-06
 -1      4419-2.84012E-04 8.13313E-04-1.80308E-04 1.57024E-04-4.55359E-05-2.42803E-05
 -1      4420-3.26657E-04 1.03851E-03-2.40681E-04-1.63445E-04-1.78774E-05-7.25673E-06
 -1      4421-3.60115E-04 1.07165E-03-2.40586E-04-2.08269E-04 4.96088E-05 1.44425E-06
 -1      4422-3.72761E-04 1.14707E-03-3.04043E-04-1.59460E-04 1.61339E-05 2.79038E-05
 -1      4423-3.23074E-04 8.51239E-04-1.77100E-04 1.14924E-04 4.92875E-05 2.21299E-05
 -1      4424-3.15196E-04 9.24673E-04-2.42879E-04 1.56331E-04 4.88453E-05 3.64775E-05
 -1      4425-6.53996E-05 4.05830E-04-1.49383E-04 2.05244E-04 2.75149E-05-6.40764E-06
 -1      4426-2.08197E-04 9.13096E-04-3.08272E-04-3.35615E-04 3.36262E-05-6.74892E-07
 -1      4427-2.42097E-04-2.43360E-04 2.08721E-04-6.90359E-04 1.03411E-04 3.00099E-04
 -1      4428-6.06215E-05-1.67536E-04 2.05636E-04-2.26932E-04 5.61243E-05 2.74928E-04
 -1      4429-2.32870E-03 5.44319E-04 5.84171E-04-1.23161E-03 2.31316E-05 1.99916E-04
 -1      4430-9.82068E-04-4.59366E-05 4.20296E-04-8.23175E-04 2.27208E-04 2.12289E-04
 -1      4431-3.77617E-03 1.22179E-03 7.93943E-04 9.53655E-04 3.42404E-05 2.20708E-04
 -1      4432-3.10220E-03 9.96600E-04 7.39318E-04 2.02130E-04-9.63981E-05 7.14655E-05
 -1      4433-1.92128E-03 6.40056E-05 5.86151E-04 9.33240E-04 5.07262E-04 4.91552E-05
 -1      4434-6.43282E-04-2.15720E-04 5.14007E-04 7.51855E-04 1.09277E-04-6.24880E-04
 -1      4435-1.04844E-03-2.49369E-04 3.23874E-04 1.04455E-03 4.83208E-04-3.13846E-04
 -1      4436-5.83223E-05-1.68746E-04 2.05760E-04-2.28397E-04-5.79860E-05-2.78513E-04
 -1      4437-2.43124E-04-2.43911E-04 2.11383E-04-6.93825E-04-1.03095E-04-3.07031E-04
 -1      4438-9.78685E-04-4.18951E-05 4.19075E-04-8.24914E-04-2.24276E-04-2.21071E-04
 -1      4439-2.30971E-03 5.12035E-04 5.98488E-04-1.24678E-03-3.10809E-05-2.17901E-04
 -1      4440-3.07444E-03 9.74127E-04 7.64271E-04 1.88335E-04 1.03913E-04-1.08413E-04
 -1      4441-3.77230E-03 1.23441E-03 7.50780E-04 9.24662E-04-5.62505E-05-2.58009E-04
 -1      4442-1.92900E-03 6.90288E-05 5.90786E-04 9.33641E-04-5.16320E-04-3.82480E-05
 -1      4443-1.05823E-03-2.49192E-04 3.31906E-04 1.05562E-03-4.84447E-04 3.25125E-04
 -1      4444-6.56106E-04-2.15364E-04 5.22974E-04 7.56720E-04-1.11618E-04 6.26819E-04
 -1      4445-2.02573E-05 2.19532E-04-8.51473E-05 1.28328E-04-3.46462E-05-9.76356E-06
 -1      4446-6.45769E-05 3.29843E-04-1.13872E-04 1.74023E-04-2.44888E-05-2.06649E-05
 -1      4447-6.37687E-05 3.60455E-04-1.28499E-04 2.11632E-04-5.24794E-05-5.89552E-06
 -1      4448-4.59225E-06 3.94996E-06-2.75689E-06-1.14072E-05-3.52020E-05-2.12359E-05
 -1      4449 2.18287E-05 9.23211E-05-5.14360E-05 1.28757E-04-2.86360E-05-2.51067E-05
 -1      4450-1.81281E-05 1.89791E-04-6.79507E-05 1.23455E-04-2.69229E-05-1.20909E-05
 -1      4451-8.30905E-05-8.27709E-05 7.55457E-05-1.78409E-04-2.85159E-05-2.61679E-05
 -1      4452-2.41372E-05-4.87179E-05 3.25299E-05-5.50485E-05-1.65735E-05-3.02628E-05
 -1      4453 6.28919E-06-1.47906E-05 3.06593E-06-8.01859E-06-2.63985E-05-2.05822E-05
 -1      4454-4.92949E-04 1.06855E-04 1.46934E-04-2.71114E-04-8.51298E-06-3.73073E-05
 -1      4455-2.48389E-04-9.07588E-05 1.27205E-04-3.31924E-04-1.63730E-05-2.26857E-05
 -1      4456-1.23881E-04-4.93876E-05 6.20541E-05-2.01873E-04-3.76807E-05-2.21174E-05
 -1      4457-4.67163E-04 8.58674E-05 1.66956E-04-2.06186E-04-1.01328E-05-8.56688E-06
 -1      4458-4.70182E-04 9.73514E-05 1.59465E-04-1.44829E-04-1.11289E-05-5.54953E-06
 -1      4459-4.77863E-04 1.06813E-04 1.30629E-04-2.17116E-04-1.65524E-05-2.23386E-05
 -1      4460-8.18995E-04 2.47993E-04 2.12753E-04 7.37275E-05 1.91489E-05 1.88749E-05
 -1      4461-7.21877E-04 2.18724E-04 1.90349E-04-2.94649E-04 2.52493E-05 1.77654E-05
 -1      4462-4.57784E-04 1.18196E-04 1.53352E-04-2.03247E-04-1.09383E-05 1.23104E-06
 -1      4463-5.24155E-04 1.01934E-04 1.82350E-04 2.37893E-04-2.35907E-05 1.18714E-06
 -1      4464-4.63647E-04 1.06428E-04 1.60069E-04 1.65107E-04-9.65487E-06 7.97919E-06
 -1      4465-6.22924E-04 1.91464E-04 1.38129E-04 2.17769E-04-2.38053E-05 5.23132E-05
 -1      4466-8.22793E-04 2.56291E-04 1.93927E-04 2.45820E-04 1.66317E-05-1.03697E-05
 -1      4467-8.09223E-04 3.24958E-04 1.71603E-04-5.35519E-05 1.79560E-06-1.15748E-05
 -1      4468-5.51237E-04 1.12218E-04 1.62315E-04 3.03163E-04-7.81253E-06 2.26106E-05
 -1      4469-2.59551E-04-1.52749E-04 1.49002E-04 4.40283E-04 4.36402E-06 5.46685E-06
 -1      4470-4.26228E-04 9.91888E-05 1.47573E-04 1.56793E-04 6.09525E-06 1.68051E-07
 -1      4471-5.42641E-04 1.42974E-04 1.46601E-04 1.81137E-04-8.11592E-06 2.25194E-05
 -1      4472-5.30784E-04 1.22339E-04 1.13552E-04 3.23566E-04-2.21183E-05-1.87812E-05
 -1      4473-1.02476E-04-1.66143E-04 1.14959E-04 2.61559E-04-2.83328E-05 5.98564E-06
 -1      4474-6.43294E-05-8.84907E-05 6.58606E-05 1.27487E-04-1.11447E-05 2.34131E-05
 -1      4475-1.18406E-04-1.57852E-04 9.52620E-05 2.99947E-04-2.50977E-05 6.15954E-07
 -1      4476-3.11368E-05-5.98219E-05 3.67539E-05 1.00407E-04-3.02050E-05 1.65493E-05
 -1      4477 3.34948E-05-6.40801E-05 7.54879E-06 5.19180E-06-2.52789E-05 2.05213E-05
 -1      4478-4.44189E-05-7.52840E-05 4.85647E-05 1.08821E-04-2.23263E-05 2.04833E-05
 -1      4479-4.21710E-07 1.17660E-04-4.70811E-05-8.72884E-05-4.01186E-05 8.28981E-06
 -1      4480-5.76855E-05 2.56646E-04-8.95041E-05-1.51225E-04-1.49255E-05 9.46835E-06
 -1      4481 1.65645E-05 5.26342E-05-2.98670E-05-8.25006E-05-3.55722E-05 7.11868E-06
 -1      4482-2.43093E-05 1.64388E-04-5.90939E-05-8.71139E-05-2.97115E-05 1.61277E-05
 -1      4483 1.83219E-05-1.04943E-05-1.05919E-05-1.13270E-05-2.82832E-05 1.54930E-05
 -1      4484-9.52893E-05 4.47101E-04-1.43345E-04-1.08308E-04-5.41778E-05-3.20107E-06
 -1      4485-3.20590E-04 8.99550E-04-2.21413E-04-1.42548E-04-5.85934E-05 2.95937E-05
 -1      4486-2.70037E-05 3.00235E-04-1.07162E-04-1.73459E-04-2.16302E-05 1.10806E-05
 -1      4487-1.45373E-04 4.99537E-04-1.47406E-04-1.88143E-04-3.06165E-05 3.27088E-05
 -1      4488-4.77684E-05 2.37542E-04-8.70982E-05-1.19187E-04-3.33907E-05 2.13355E-06
 -1      4489-3.40138E-04 1.03179E-03-2.61333E-04 1.04836E-04-3.29252E-05 5.25636E-06
 -1      4490-1.95054E-04 8.48023E-04-2.83314E-04 2.77210E-04-4.55803E-05-1.63298E-05
 -1      4491-3.37502E-04 9.18942E-04-2.06315E-04-1.37731E-07-5.61715E-05 1.57786E-05
 -1      4492-1.78562E-04 8.53169E-04-2.94489E-04 2.51168E-04-3.65673E-05-1.77441E-07
 -1      4493-2.78698E-04 1.19946E-03-3.92930E-04 6.16792E-04-8.81985E-05 1.19312E-05
 -1      4494-2.00317E-04 8.24372E-04-2.64659E-04 2.48140E-04 5.55150E-06 6.81098E-06
 -1      4495-3.71094E-04 1.24102E-03-2.96637E-04 4.19567E-04-1.95436E-05 3.89410E-05
 -1      4496-1.38064E-04 1.33215E-03-4.38595E-04-1.26917E-03-1.51407E-05-1.45444E-05
 -1      4497-2.04577E-04 9.82979E-04-3.30705E-04-3.21778E-04-2.17036E-05 1.56858E-05
 -1      4498-4.18537E-04 1.57446E-03-3.86770E-04-6.46965E-04-6.03599E-05-4.34819E-05
 -1      4499-7.51875E-05 1.30590E-03-3.59650E-04-9.07826E-04-1.13402E-05-2.61649E-05
 -1      4500-2.52707E-04 9.65958E-04-3.09558E-04-2.98077E-04-2.62832E-05 2.15504E-05
 -1      4501-3.31097E-04 1.05859E-03-2.06585E-04-2.43989E-04-1.83701E-05 9.82640E-07
 -1      4502-3.12879E-04 1.03451E-03-2.13455E-04-1.37108E-04-1.62310E-05 1.00685E-05
 -1      4503-2.35202E-04 7.78683E-04-1.65944E-04 1.03746E-04 5.63663E-06-5.55701E-06
 -1      4504-2.22224E-04 7.69041E-04-1.52638E-04 9.98753E-05 3.36060E-06 7.01509E-06
 -1      4505-8.44481E-05 5.59035E-04-1.49851E-04 2.96970E-04-1.58849E-06-1.82062E-05
 -1      4506-2.01873E-04 9.48127E-04-2.67001E-04-3.29104E-04-3.61325E-05-3.29598E-06
 -1      4507-1.96427E-04 8.80848E-04-2.56527E-04-3.11112E-04 3.36075E-05 1.04869E-07
 -1      4508-9.15010E-05 5.42942E-04-1.53663E-04 2.57088E-04 2.40794E-05 2.90938E-05
 -1      4509-2.03351E-05 2.15277E-04-8.31080E-05 1.34752E-04 3.70568E-05 5.50554E-06
 -1      4510-7.21371E-05 3.46938E-04-1.18686E-04 1.57235E-04 3.19684E-05 8.30748E-06
 -1      4511-9.52387E-05 3.53044E-04-1.23547E-04 1.56782E-04 2.86066E-05-1.82266E-06
 -1      4512 1.91655E-05-1.58798E-05-3.61338E-06-7.29266E-06 2.64622E-05 1.51396E-05
 -1      4513 1.84237E-05 8.00169E-05-4.07425E-05 1.16642E-04 2.97913E-05 2.51927E-05
 -1      4514-1.31626E-05 1.70867E-04-6.34485E-05 1.16312E-04 2.07373E-05 4.38283E-06
 -1      4515-9.95642E-05-1.02917E-04 8.06041E-05-2.25593E-04 2.80746E-05 1.96649E-05
 -1      4516-2.48355E-05-7.28071E-05 3.59407E-05-7.61660E-05 1.47451E-05 2.52536E-05
 -1      4517 2.44136E-06-4.22170E-05 1.52049E-05-2.60728E-05 2.28381E-05 1.77412E-05
 -1      4518-4.45762E-04 7.33914E-05 1.35027E-04-2.79671E-04-1.22761E-06 6.03282E-06
 -1      4519-1.49811E-04-1.51792E-04 1.12993E-04-3.38905E-04-8.52215E-06-6.53741E-06
 -1      4520-7.39119E-05-1.02283E-04 6.39984E-05-2.07584E-04 1.74138E-05 4.28809E-06
 -1      4521-4.89230E-04 1.01388E-04 1.87467E-04-2.18389E-04 1.97506E-05-2.20654E-06
 -1      4522-4.46530E-04 9.29983E-05 1.62780E-04-1.64380E-04 6.87581E-06 1.31971E-05
 -1      4523-5.42176E-04 1.40164E-04 1.47893E-04-1.84676E-04 1.17830E-05 2.50417E-05
 -1      4524-4.60456E-04 9.57798E-05 1.21843E-04-2.69661E-04 3.21630E-05 1.50448E-05
 -1      4525-4.11016E-04 9.41918E-05 1.51042E-04-1.48818E-04-1.59824E-06 1.24235E-05
 -1      4526-8.36222E-04 2.79181E-04 2.00960E-04-1.69869E-04-6.02971E-06 1.79697E-07
 -1      4527-7.78611E-04 2.57379E-04 1.87660E-04 2.36562E-04-1.72055E-05 1.54089E-05
 -1      4528-6.11297E-04 1.41176E-04 1.80077E-04-2.76406E-04 1.93252E-05 1.16110E-06
 -1      4529-4.27363E-04 9.48619E-05 1.54461E-04-1.92281E-04-5.98525E-06 1.87898E-05
 -1      4530-7.54097E-04 2.64711E-04 1.29910E-04-1.62144E-04 3.47393E-05 3.67871E-05
 -1      4531-4.99602E-04 9.73351E-05 1.73288E-04 2.08079E-04 1.53847E-05-3.90023E-06
 -1      4532-4.84703E-04 1.08034E-04 1.59915E-04 1.48352E-04 8.42459E-06 1.87687E-06
 -1      4533-5.46908E-04 1.47593E-04 1.49434E-04 2.23800E-04 1.00779E-05 8.79207E-06
 -1      4534-3.26160E-04-4.77160E-05 1.42991E-04 4.21557E-04 1.21255E-05-1.80423E-05
 -1      4535-5.71995E-04 1.38170E-04 1.65080E-04 2.74261E-04 2.76225E-07-2.57509E-05
 -1      4536-4.92674E-04 1.16186E-04 1.24841E-04 2.17893E-04-1.52039E-05 3.50896E-05
 -1      4537-6.24487E-05-9.00258E-05 6.61587E-05 1.30261E-04 1.28399E-05-2.33744E-05
 -1      4538-1.39819E-04-1.73523E-04 1.16904E-04 3.11067E-04 4.02683E-05-9.59249E-06
 -1      4539-2.78100E-04-6.56686E-05 1.05676E-04 3.08789E-04 2.27734E-05-6.14603E-06
 -1      4540-2.32791E-05-5.86232E-05 3.38255E-05 8.53400E-05 2.82822E-05-1.87178E-05
 -1      4541 2.57677E-05-4.99961E-05 2.59254E-07-9.60602E-06 2.67392E-05-2.81141E-05
 -1      4542-5.59367E-05-6.56197E-05 5.01996E-05 1.15312E-04 2.39064E-05-2.10248E-05
 -1      4543-5.73629E-05-8.26621E-05 6.18664E-05 1.26782E-04 1.60882E-05-1.94069E-05
 -1      4544-1.57300E-05-5.63215E-05 2.62322E-05 7.26359E-05 2.43947E-05-1.97109E-05
 -1      4545 9.04595E-06 9.06230E-05-3.99127E-05-7.68915E-05 4.33836E-05-1.02203E-05
 -1      4546-4.49420E-05 2.43804E-04-8.31153E-05-1.20633E-04 3.22917E-05-8.05112E-06
 -1      4547 1.71777E-05 2.66519E-05-1.95200E-05-4.58743E-05 3.56202E-05-2.13073E-05
 -1      4548-3.53489E-05 2.99495E-04-1.09825E-04-1.82028E-04 3.03787E-05-1.08615E-06
 -1      4549-2.54684E-04 7.37320E-04-1.89615E-04-1.28426E-04 5.20181E-05-2.99494E-05
 -1      4550-3.11058E-05 2.42768E-04-8.94404E-05-1.29651E-04 1.52929E-05-6.61043E-06
 -1      4551-3.28635E-04 9.94314E-04-2.71681E-04 1.42496E-04 2.32074E-05-2.25531E-05
 -1      4552-1.92242E-04 8.30616E-04-2.80294E-04 2.81557E-04 3.91982E-05-1.70605E-06
 -1      4553-2.95986E-04 9.16515E-04-2.04573E-04 1.82541E-04-5.04822E-06-2.45973E-05
 -1      4554-3.06804E-04 9.59630E-04-2.29950E-04-3.05905E-05 3.95605E-05 1.37443E-05
 -1      4555-2.39214E-04 6.75312E-04-1.40539E-04-1.64986E-04 4.85767E-05-5.31016E-05
 -1      4556-1.53649E-04 8.70008E-04-3.11437E-04 3.42002E-04 3.40733E-05 2.05043E-05
 -1      4557-2.52189E-04 1.33392E-03-4.04368E-04 7.49170E-04 7.75067E-05-4.56138E-06
 -1      4558-2.43140E-04 9.03503E-04-2.83832E-04 2.58041E-04 3.46497E-05 7.42146E-06
 -1      4559-2.10540E-05 1.30563E-03-4.61930E-04 1.20649E-03 1.43135E-05-9.12193E-06
 -1      4560-9.13245E-05 1.23034E-03-3.80199E-04 9.24350E-04 4.09464E-05 9.71402E-06
 -1      4561-1.30973E-04 1.32203E-03-4.43065E-04-1.28095E-03 2.75117E-06 1.65988E-05
 -1      4562-2.04704E-04 9.83114E-04-3.31597E-04-3.23159E-04 2.51510E-05-1.68410E-05
 -1      4563-4.20106E-04 1.58224E-03-3.88517E-04-6.51876E-04 5.90468E-05 4.40253E-05
 -1      4564-7.19477E-05 1.29754E-03-3.59179E-04-9.12283E-04 1.27429E-05 2.67209E-05
 -1      4565-2.54442E-04 9.68330E-04-3.11025E-04-2.93253E-04 3.01409E-05-2.19618E-05
 -1      4566-4.23678E-04 1.14323E-04 1.24261E-04 1.43329E-04-5.65445E-06 1.46772E-05
 -1      4567-4.16692E-04 7.34679E-05 1.41272E-04 1.72330E-04-3.22692E-06-3.56073E-06
 -1      4568-5.07131E-04 1.29195E-04 1.31245E-04 1.65825E-04 1.86539E-06-3.08447E-05
 -1      4569-7.36985E-04 2.72882E-04 1.33308E-04 2.13324E-04 4.17286E-05-2.76278E-05
 -1      4570-5.01475E-04 9.68275E-05 1.01825E-04 3.04707E-04-2.48616E-07 5.93107E-06
 -1      4571-4.99406E-04 1.02069E-04 1.45210E-04 2.26367E-04 1.80069E-05-2.40961E-05
 -1      4572-7.08668E-04 2.31760E-04 1.30249E-04 1.42183E-04-5.81902E-06-3.33067E-06
 -1      4573-3.38906E-04-1.73469E-05 8.97825E-05-2.86351E-04 4.67167E-06-1.62541E-06
 -1      4574-5.27122E-04 1.53827E-04 9.88520E-05-2.21342E-04 2.10574E-06 2.14103E-05
 -1      4575-2.94541E-04-3.80350E-06 6.86665E-05-3.29746E-04-2.12733E-06 1.24443E-06
 -1      4576-4.35747E-04 1.24710E-04 1.12971E-04-1.46933E-04 1.78619E-06-9.84731E-06
 -1      4577-3.92037E-04 8.77749E-05 1.23385E-04-1.36849E-04 1.70454E-06 1.01877E-05
 -1      4578-4.19785E-04 8.26164E-05 1.40418E-04-1.70086E-04 5.59786E-06 6.23843E-06
 -1      4579-4.34396E-04 7.98171E-05 1.32140E-04-2.20917E-04 4.34787E-06-5.74847E-06
 -1      4580-1.75540E-04-1.34282E-04 8.34081E-05-3.52327E-04 5.64324E-05 9.31449E-06
 -1      4581 2.38905E-05-2.30642E-06-5.25688E-06 3.22072E-05-1.33608E-05-2.95384E-05
 -1      4582 9.22437E-06-6.54355E-05 2.44452E-05-5.21631E-05-2.47501E-05-1.60117E-06
 -1      4583-9.01048E-06-9.61738E-05 4.06126E-05-1.04595E-04-8.90562E-06-6.92317E-06
 -1      4584-2.70969E-05-1.24789E-04 5.36961E-05-1.24404E-04-5.58915E-06-2.45365E-05
 -1      4585-1.14741E-04-1.13020E-04 7.13337E-05-3.09324E-04-4.13899E-05-6.60221E-07
 -1      4586-2.84389E-04 9.33872E-04-2.70908E-04-2.60568E-04-4.23920E-06 2.05380E-05
 -1      4587-2.82894E-04 9.30604E-04-2.75092E-04-2.61413E-04-8.23786E-07-1.82952E-05
 -1      4588-4.60403E-04 1.38183E-03-2.75634E-04-3.60641E-04 1.51235E-06 1.25703E-06
 -1      4589-3.04609E-04 1.42849E-03-2.32707E-04-8.79154E-04 6.25752E-05-1.58881E-05
 -1      4590-3.05007E-04 1.43248E-03-2.32381E-04-8.87224E-04-6.33336E-05 1.60496E-05
 -1      4591-6.04589E-05 3.09934E-04-1.15463E-04 1.48271E-04-1.07852E-05 8.90410E-06
 -1      4592-3.85054E-05 2.34380E-04-7.68904E-05 1.27264E-04-1.69383E-05-1.29951E-05
 -1      4593-9.54288E-07 1.22019E-04-4.60721E-05 1.21687E-04-2.28170E-05-3.92018E-06
 -1      4594-5.29283E-05 2.76337E-04-9.78222E-05 1.24807E-04 2.91176E-06 7.69131E-07
 -1      4595-2.81804E-05 2.11716E-04-9.00538E-05-1.12965E-04 6.81682E-06 3.23936E-06
 -1      4596-1.80498E-05 1.94411E-04-7.37939E-05-1.11523E-04-2.42376E-05 4.58270E-06
 -1      4597-9.56166E-06 1.33094E-04-5.25541E-05-9.38175E-05-6.79684E-06-2.84087E-06
 -1      4598-2.14496E-05 1.93419E-04-8.13810E-05-1.05238E-04-2.29643E-05 1.09120E-05
 -1      4599-2.25777E-05 2.99559E-04-1.05425E-04-1.76460E-04-2.03578E-05-1.65426E-06
 -1      4600-2.97588E-05 2.33455E-04-8.67199E-05-1.35040E-04 1.15170E-05-1.18150E-06
 -1      4601-5.35438E-05 4.33951E-04-1.25801E-04-2.27605E-04 1.25787E-06-1.66050E-05
 -1      4602-2.19700E-04 6.56353E-04-1.32808E-04-2.03945E-04-4.46780E-05 1.75384E-05
 -1      4603-2.49276E-04 6.96607E-04-1.25674E-04-1.29741E-04 7.64474E-06-1.69060E-05
 -1      4604-1.61242E-04 5.87803E-04-1.27399E-04-2.43840E-04-1.83883E-05 2.35293E-05
 -1      4605-3.57072E-04 8.87885E-04-1.52495E-04-1.78421E-04-1.84224E-05-3.11178E-05
 -1      4606-1.47550E-04 5.47622E-04-1.36524E-04-2.14999E-04-1.57017E-05 2.74323E-05
 -1      4607-4.55873E-04 9.76250E-05 9.77521E-05-3.38744E-04-2.26450E-05 6.60207E-06
 -1      4608-4.75432E-04 1.38597E-04 1.18342E-04-1.63926E-04-1.20396E-06-2.83146E-05
 -1      4609-3.98537E-04 6.99462E-05 1.39200E-04-1.48332E-04 5.38884E-06-1.29682E-05
 -1      4610-2.72986E-04-2.74786E-05 7.51482E-05-2.96396E-04-2.55733E-05 7.65297E-07
 -1      4611-6.35692E-05-2.00491E-04 6.02136E-05-2.63729E-04 1.71986E-05 1.10456E-05
 -1      4612 7.36801E-06-2.44043E-05-1.73163E-07 6.93205E-06-1.85237E-05 8.81510E-06
 -1      4613 1.35041E-06-5.38067E-05 8.43501E-06 6.21763E-05-1.03908E-06-6.67370E-06
 -1      4614 1.36316E-05 2.22457E-05-2.55284E-05-5.77952E-05 2.98433E-06 1.53644E-05
 -1      4615 1.25962E-05 6.36536E-05-3.62546E-05-6.84010E-05 1.22245E-05-7.94613E-06
 -1      4616-9.53534E-06-6.75229E-05 3.19151E-05 8.43848E-05-1.40815E-05 1.79014E-05
 -1      4617 2.82216E-05-4.89644E-05-2.47400E-06 1.50929E-05 2.61427E-05-7.53535E-06
 -1      4618 1.06961E-05 5.74144E-05-3.62510E-05-5.62589E-05 2.41710E-05-1.62804E-05
 -1      4619-1.02334E-05 1.42306E-04-6.13521E-05-1.03930E-04 2.23605E-05-1.08554E-06
 -1      4620-2.84595E-04 8.61791E-04-1.86865E-04-2.72954E-04-2.62510E-05 1.23072E-05
 -1      4621-3.51284E-04 9.30038E-04-1.63237E-04 1.29399E-05-2.64706E-05-5.93416E-06
 -1      4622 3.07545E-05 4.03812E-05-2.87070E-05 6.81642E-05 1.65867E-07-3.75998E-07
 -1      4623-6.26130E-04 1.61029E-04 1.56305E-04-2.40199E-04-4.58240E-05-3.45937E-05
 -1      4624-6.81435E-04 1.96559E-04 1.34408E-04-7.00441E-05 2.10904E-06 6.07775E-06
 -1      4625-6.43746E-04 2.03521E-04 1.17946E-04-1.98360E-04 2.67538E-05 4.26412E-05
 -1      4626-7.33328E-04 2.64879E-04 1.21180E-04-2.01598E-04-2.72890E-05-5.08880E-05
 -1      4627-8.40666E-04 3.84055E-04 1.28539E-04 1.57320E-05 9.04121E-06-6.76388E-06
 -1      4628-7.17333E-05-1.54046E-04 8.32240E-05 2.01556E-04 2.21668E-06 2.28609E-05
 -1      4629-2.38438E-04-1.22215E-04 9.28902E-05 4.27527E-04-5.44436E-05 3.25805E-06
 -1      4630-3.90331E-04-1.52385E-06 9.20677E-05 3.40291E-04-1.11803E-05-4.61635E-06
 -1      4631-4.80591E-05-1.06155E-04 6.59655E-05 1.35117E-04 1.66095E-05-6.64847E-06
 -1      4632-7.14148E-05-1.82507E-04 8.99230E-05 2.20007E-04 2.11507E-05-2.83017E-05
 -1      4633-2.26910E-04-7.98948E-05 8.16604E-05 2.97110E-04 5.30456E-06-1.93913E-05
 -1      4634-4.53865E-05-1.16871E-04 6.25070E-05-1.45285E-04 1.36953E-06 2.01978E-05
 -1      4635-3.85419E-05-9.52451E-05 5.52840E-05 1.14644E-04-1.91674E-05 5.71982E-06
 -1      4636-2.27642E-05-1.34172E-04 5.51367E-05 1.64922E-04 3.64597E-06-1.16979E-05
 -1      4637-2.55981E-05-8.00381E-05 3.98172E-05 8.69947E-05 9.18499E-06-7.43331E-06
 -1      4638-8.13054E-06-5.37288E-05 1.60497E-05 5.95170E-05 1.47310E-05-1.37292E-05
 -1      4639-3.01042E-05-1.12065E-04 5.43980E-05 1.37660E-04 1.23387E-05 7.26831E-06
 -1      4640-7.41742E-04 2.45280E-04 1.19247E-04 1.66714E-04-4.68995E-06 1.30056E-06
 -1      4641-8.63549E-04 3.67647E-04 1.24783E-04 2.16956E-05 5.59303E-06-1.45075E-06
 -1      4642 1.35547E-05-6.40203E-06 3.53641E-06 2.28432E-05 1.26380E-05 2.56259E-05
 -1      4643 7.82837E-07 1.13704E-04-4.16955E-05 1.14577E-04 2.15106E-05-1.13819E-06
 -1      4644 1.98078E-06-6.97539E-05 2.57583E-05-6.44429E-05 1.99107E-05 4.03993E-06
 -1      4645-4.28517E-05 2.32992E-04-7.39616E-05 1.28752E-04 1.77531E-05 1.66774E-05
 -1      4646-8.19780E-05-1.69553E-04 6.87181E-05 2.62152E-04-3.15389E-05 6.76350E-06
 -1      4647-1.64750E-04 7.61151E-04-2.48193E-04 2.49487E-04 2.50280E-06 3.89344E-06
 -1      4648-2.28018E-04 7.97043E-04-2.11247E-04 2.53999E-04 1.50626E-06 3.76448E-06
 -1      4649-3.23847E-04 9.27681E-04-1.84130E-04 2.14156E-04 6.83484E-05 1.73843E-05
 -1      4650-2.89759E-04 1.06732E-03-2.77512E-04 2.43769E-04 3.45905E-05-5.11139E-05
 -1      4651-1.86124E-04 7.54440E-04-2.33841E-04 2.52162E-04-1.66721E-05-4.63972E-07
 -1      4652-2.36300E-04 9.49258E-04-2.76834E-04 2.24624E-04 1.43478E-07 1.41986E-06
 -1      4653-3.69066E-04 9.65629E-04-1.81820E-04 2.06235E-04-3.18384E-05-1.46546E-05
 -1      4654-3.47471E-04 1.23184E-03-2.65116E-04 3.63323E-04-4.80824E-05 2.66367E-05
 -1      4655-3.57463E-04 1.27854E-03-2.75987E-04 5.86632E-04-8.04270E-06 6.29394E-06
 -1      4656-3.44389E-04 1.40415E-03-2.58330E-04 8.74568E-04-7.25128E-05 9.49670E-06
 -1      4657 2.98827E-06-1.01815E-04 3.47205E-05-1.12595E-04 4.51709E-06-1.14018E-07
 -1      4658-4.18262E-04 9.50904E-04-1.70261E-04-1.99305E-05 3.28564E-05-2.12526E-05
 -1      4659-2.83592E-04-6.68297E-05 8.22074E-05 3.82325E-04 7.10199E-06-5.56968E-07
 -1      4660-6.14869E-05 3.05511E-04-1.10795E-04 1.41086E-04 1.87589E-05-1.87055E-06
 -1      4661-1.17786E+00 7.64375E+00-2.71423E+00 3.98099E+00-2.90175E-03 1.30360E-02
 -1      4662-1.81920E-01 4.68003E+00-1.61970E+00 3.78825E+00-4.74504E-03-7.34821E-03
 -1      4663 5.51475E-01 3.00697E+00-1.23694E+00 3.34389E+00-2.44400E-02-2.64652E-02
 -1      4664-3.34014E+00 1.23757E+01-3.80602E+00 2.54410E+00-4.31220E-03-1.89029E-03
 -1      4665-2.34993E+00 1.03981E+01-3.40408E+00 3.74576E+00 1.96923E-03 4.94620E-04
 -1      4666 7.51016E-01 2.43878E+00-1.18530E+00 3.06688E+00 2.72377E-01 2.45305E-01
 -1      4667 7.16437E-01 2.68338E+00-1.29663E+00 2.96474E+00-3.32972E-01-3.26639E-01
 -1      4668-3.82954E+00 1.30207E+01-3.85891E+00 1.18139E+00-2.20725E-02 2.24219E-03
 -1      4669-3.82934E+00 1.30261E+01-3.86187E+00 1.19177E+00 2.55412E-02-2.14207E-03
 -1      4670 6.72828E-01 2.26788E+00-1.03058E+00 2.71658E+00 4.54651E-01 4.41795E-01
 -1      4671 5.68973E-01 3.17548E+00-1.55076E+00 3.42723E+00 2.79241E-01 1.85778E-01
 -1      4672 1.07728E+00 2.29175E+00-1.24784E+00 2.93970E+00 1.39573E-01 6.18277E-02
 -1      4673-3.70329E+00 1.29321E+01-3.89659E+00 1.47987E+00-8.61657E-03 2.93892E-03
 -1      4674-3.85677E+00 1.28393E+01-3.78859E+00 7.02454E-01-7.80966E-02-3.06286E-02
 -1      4675-3.81093E+00 1.27455E+01-3.76492E+00 8.29193E-01-1.59332E-02-4.48469E-03
 -1      4676 4.58614E-01 3.30352E+00-1.60820E+00 3.47700E+00-3.14350E-01-2.42566E-01
 -1      4677 8.09946E-01 2.29445E+00-1.15537E+00 2.56167E+00-4.44137E-01-3.35894E-01
 -1      4678 1.14284E+00 2.33070E+00-1.25979E+00 2.97526E+00-1.03593E-01-1.44759E-01
 -1      4679-3.86008E+00 1.28473E+01-3.78882E+00 7.07475E-01 8.00202E-02 3.20033E-02
 -1      4680-3.70014E+00 1.29312E+01-3.89867E+00 1.48387E+00 1.28193E-02-4.50273E-03
 -1      4681-3.81079E+00 1.27509E+01-3.76681E+00 8.34335E-01 2.13849E-02 3.62611E-03
 -1      4682-3.13966E+00 1.19068E+01-3.72890E+00 2.94054E+00 6.73146E-02-1.54121E-02
 -1      4683-3.44279E+00 1.26389E+01-3.87181E+00 2.16576E+00-4.32372E-03-5.02205E-02
 -1      4684-3.63988E+00 1.29816E+01-3.88977E+00 1.84424E+00-1.08276E-02 9.95226E-03
 -1      4685-2.02810E+00 9.74552E+00-3.26916E+00 3.82521E+00 7.25935E-02 6.26189E-02
 -1      4686-2.71004E+00 1.11052E+01-3.53267E+00 3.58543E+00 2.43338E-02-3.55667E-03
 -1      4687-2.92989E+00 1.16246E+01-3.59966E+00 3.32176E+00-5.56918E-03 1.40300E-02
 -1      4688-7.87976E-01 6.85724E+00-2.53330E+00 4.10432E+00 1.51483E-01 6.25917E-02
 -1      4689-1.49988E+00 8.24164E+00-2.88737E+00 3.98071E+00 8.53727E-02-3.32868E-02
 -1      4690-1.75297E+00 9.10465E+00-3.06547E+00 3.88954E+00-1.53429E-03 1.90867E-04
 -1      4691 2.65759E-01 4.17460E+00-1.71260E+00 3.76140E+00 2.20477E-01 1.10284E-01
 -1      4692-3.36028E-01 5.38702E+00-2.02958E+00 3.95482E+00 1.30549E-01 1.62302E-02
 -1      4693-5.89545E-01 6.30083E+00-2.23357E+00 4.02401E+00-1.74914E-03 2.95351E-03
 -1      4694 5.60409E-01 3.39396E+00-1.47322E+00 3.61470E+00 1.86543E-01 2.18455E-01
 -1      4695 3.39233E-01 3.73028E+00-1.35480E+00 3.61779E+00-6.84939E-03 1.66541E-03
 -1      4696 6.32206E-01 2.73999E+00-1.23629E+00 3.19974E+00 1.09977E-01 1.25682E-01
 -1      4697-3.44806E+00 1.26375E+01-3.86784E+00 2.17094E+00 8.74084E-03 4.42393E-02
 -1      4698-3.14421E+00 1.19212E+01-3.73771E+00 2.92921E+00-7.80789E-02 4.82301E-03
 -1      4699-3.63987E+00 1.29822E+01-3.88841E+00 1.85108E+00 1.45515E-02-9.67278E-03
 -1      4700-2.71680E+00 1.11122E+01-3.54062E+00 3.58256E+00-2.43530E-02 1.02881E-02
 -1      4701-2.03800E+00 9.74334E+00-3.26062E+00 3.83680E+00-6.17718E-02-6.57280E-02
 -1      4702-1.49366E+00 8.26114E+00-2.91875E+00 3.97153E+00-6.00266E-02 2.62557E-02
 -1      4703-7.80826E-01 6.86436E+00-2.55269E+00 4.07662E+00-1.40777E-01-6.82724E-02
 -1      4704-3.24522E-01 5.37768E+00-2.05116E+00 3.96114E+00-1.40092E-01-4.04755E-02
 -1      4705 2.62199E-01 4.21066E+00-1.74211E+00 3.77612E+00-2.13447E-01-1.08709E-01
 -1      4706 5.72141E-01 3.38290E+00-1.47545E+00 3.60426E+00-2.12441E-01-2.29113E-01
 -1      4707 5.88804E-01 2.81240E+00-1.23644E+00 3.18345E+00-1.46415E-01-2.28731E-01
 -1      4708 9.56575E-01 2.60891E+00-1.30199E+00 3.06334E+00-1.59184E-03-5.56976E-02
 -1      4709-3.83681E+00 1.30214E+01-3.84718E+00 1.24082E+00 1.41452E-03-2.87187E-04
 -1      4710-3.11635E-01 8.91648E-01-2.49605E-01 1.38528E-03 3.55172E-06 1.73167E-04
 -1      4711-4.70095E-02 1.11098E-02 1.51239E-02 3.58945E-04-3.34170E-05-6.68982E-06
 -1      4712-6.54225E-02 7.28027E-02-3.30922E-03 2.13259E-03 1.55908E-05 3.89234E-05
 -1      4713-9.64901E-02 1.76351E-01-3.45573E-02-1.04952E-03 2.01424E-04-1.24766E-04
 -1      4714-3.99780E-01 1.18663E+00-3.36914E-01 2.65533E-03 1.11615E-04-1.84630E-04
 -1      4715-9.02096E-01 2.86154E+00-8.39952E-01 5.97303E-03 5.10172E-04-1.38883E-04
 -1      4716-1.94699E+00 6.34366E+00-1.88623E+00 2.73669E-03-2.53670E-04 8.34704E-04
 -1      4717-2.42414E+00 7.93178E+00-2.36073E+00 1.90115E-02 3.74131E-05 6.88098E-04
 -1      4718-2.68061E+00 8.79054E+00-2.61885E+00 9.75758E-03 3.39040E-04-7.46807E-04
 -1      4719-3.10162E+00 1.01837E+01-3.03704E+00 1.35443E-02 9.14227E-04 1.55065E-04
 -1      4720-2.17661E+00 7.10838E+00-2.11208E+00 3.86527E-04 3.31609E-04 3.55120E-04
 -1      4721-1.66445E-01 4.10757E-01-1.05006E-01 1.86431E-03 2.63336E-04 3.41523E-05
 -1      4722-1.98212E-01 5.14552E-01-1.36055E-01 1.15988E-03-1.48452E-04-1.31953E-04
 -1      4723-5.64260E-01 1.73484E+00-5.01739E-01 2.30270E-05-5.13646E-04-3.35539E-04
 -1      4724-6.27107E-01 1.94292E+00-5.65342E-01 2.31229E-03 3.61852E-04-1.87818E-04
 -1      4725-1.23202E+00 3.96364E+00-1.17049E+00 3.47598E-04 1.16248E-05 8.56660E-04
 -1      4726-1.41817E+00 4.58283E+00-1.35625E+00 9.29478E-03-4.43328E-04-6.43158E-06
 -1      4727-5.47399E-02 3.72574E-02 7.35994E-03 3.30552E-04 1.06719E-04 1.29243E-05
 -1      4728-7.91089E-02 1.19051E-01-1.75078E-02 5.66387E-04-3.59391E-06 8.48852E-05
 -1      4729-1.40339E-01 3.22712E-01-7.84760E-02 1.48031E-03-4.09814E-04-5.79655E-05
 -1      4730-1.17826E-01 2.46243E-01-5.57068E-02 1.43825E-04-1.20386E-04 8.45324E-05
 -1      4731-2.30579E-01 6.24926E-01-1.69140E-01 3.36084E-03 2.05117E-04 8.38012E-05
 -1      4732-2.68997E-01 7.50999E-01-2.06698E-01 3.79453E-04 5.92116E-04-6.74341E-05
 -1      4733-3.51758E-01 1.03051E+00-2.91208E-01 4.01736E-03-1.22965E-04-5.61018E-05
 -1      4734-5.06665E-01 1.54398E+00-4.45029E-01 3.08409E-03-4.33865E-04-2.02591E-04
 -1      4735-4.52250E-01 1.36066E+00-3.90067E-01 1.68708E-03-2.36595E-04-1.00067E-04
 -1      4736-6.88923E-01 2.15068E+00-6.26841E-01 4.44457E-03 1.19037E-03 2.20428E-04
 -1      4737-7.54359E-01 2.37116E+00-6.92993E-01 2.63206E-03-9.02667E-04-3.09186E-04
 -1      4738-8.27840E-01 2.61275E+00-7.65864E-01 2.34610E-03-2.52603E-04 5.92138E-05
 -1      4739-1.32826E+00 4.27908E+00-1.26592E+00 1.77252E-03-8.40419E-05 8.22520E-04
 -1      4740-1.83068E+00 5.95849E+00-1.76821E+00 5.80083E-04 4.72865E-04-1.28156E-03
 -1      4741-2.05779E+00 6.71434E+00-1.99567E+00 1.18789E-02-5.05329E-04-3.98785E-05
 -1      4742-2.30027E+00 7.52160E+00-2.23820E+00 3.21672E-03 1.06826E-03-1.05557E-03
 -1      4743-2.55086E+00 8.35446E+00-2.48669E+00 1.81393E-02-2.52473E-04-5.87579E-04
 -1      4744-2.95880E+00 9.71304E+00-2.89479E+00 7.72777E-03 8.81782E-04 9.79730E-04
 -1      4745-2.81792E+00 9.24676E+00-2.75479E+00 8.11559E-03 5.66559E-04-1.72054E-05
 -1      4746-3.24701E+00 1.06733E+01-3.18737E+00 2.53495E-02-2.67146E-03 1.51155E-03
 -1      4747-1.72359E+00 5.59766E+00-1.65967E+00 1.04037E-02 3.69102E-04 1.72084E-05
 -1      4748-1.06351E+00 3.39871E+00-1.00240E+00 1.70903E-03-3.13885E-04-5.71205E-04
 -1      4749-1.51616E+00 4.91048E+00-1.45424E+00 3.86898E-04 4.55898E-04 1.95367E-04
 -1      4750-1.62262E+00 5.26055E+00-1.56047E+00 2.53586E-03 5.25418E-04-7.00206E-04
 -1      4751-9.79729E-01 3.12020E+00-9.17183E-01 1.94077E-04-6.69034E-04-6.87480E-04
 -1      4752-1.14358E+00 3.66912E+00-1.08265E+00 8.21169E-03-6.71609E-05 4.78335E-05
 -1      4753-4.36879E-02-5.40703E-03 1.88966E-02 3.10669E-03-9.16925E-05 1.06913E-04
 -1      4754-3.43136E+00 1.12058E+01-3.35887E+00 4.36102E-03-1.32664E-03-1.21181E-03
 -1      4755-4.45639E-02-1.61652E-03 1.88033E-02 2.38881E-03-1.11506E-03 2.06724E-04
 -1      4756-3.73107E-02-8.93489E-03 1.67103E-02-1.22216E-03 1.53463E-03 1.12917E-03
 -1      4757-3.91356E-02-5.27998E-03 1.48446E-02-2.55618E-03-2.81808E-05 8.01018E-05
 -1      4758-3.51995E+00 1.15713E+01-3.48654E+00 8.14358E-02-5.61164E-02 6.70920E-04
 -1      4759-3.39694E+00 1.11169E+01-3.32281E+00-1.10553E-03-1.12218E-02 1.12436E-02
 -1      4760-3.53855E+00 1.16498E+01-3.50919E+00 1.44238E-01-1.06963E-03 3.56963E-04
 -1      4761-3.72594E-02-8.80926E-03 1.65498E-02-1.38042E-03-1.73041E-03-7.81699E-04
 -1      4762-4.43538E-02-2.23325E-03 1.89257E-02 2.50443E-03 1.08108E-03-1.18354E-04
 -1      4763-3.39824E+00 1.11040E+01-3.31548E+00-3.13066E-03 1.33411E-02-1.09249E-02
 -1      4764-3.52548E+00 1.15742E+01-3.48200E+00 8.29425E-02 5.35990E-02 1.81217E-03
 -1      4765-4.89220E-02 1.70789E-02 1.36104E-02 7.72823E-04-9.14925E-04-5.59306E-05
 -1      4766-4.50027E-02 4.84473E-03 1.68999E-02 7.85533E-04-6.85117E-04 4.89349E-04
 -1      4767-4.40798E-02 2.16861E-03 1.67915E-02 2.55928E-04-5.46046E-05-1.32359E-04
 -1      4768-5.76744E-02 4.54054E-02 5.17542E-03 1.08003E-03-5.19917E-04-2.34358E-04
 -1      4769-5.18325E-02 2.85680E-02 9.77710E-03 7.88365E-04-3.60782E-04 2.02534E-04
 -1      4770-5.02219E-02 2.21966E-02 1.12267E-02 5.10479E-05 4.85526E-05 1.12794E-05
 -1      4771-6.87449E-02 8.28460E-02-6.49168E-03 8.54475E-04-9.98685E-04-1.00191E-04
 -1      4772-6.24170E-02 6.36846E-02-5.02288E-04 1.55487E-03-6.01149E-04 5.11723E-04
 -1      4773-6.04796E-02 5.45099E-02 2.06156E-03 1.60196E-03 3.05199E-05-1.98049E-05
 -1      4774-8.38492E-02 1.33303E-01-2.11931E-02 6.30964E-04-9.08942E-04-2.53146E-04
 -1      4775-7.52179E-02 1.06452E-01-1.36481E-02 9.52514E-04-6.51648E-04 5.06176E-04
 -1      4776-7.16211E-02 9.38658E-02-1.00044E-02 1.76963E-03 7.51909E-05 8.29415E-05
 -1      4777-1.01254E-01 1.92357E-01-3.91918E-02 1.76360E-06-6.83305E-04-1.15639E-04
 -1      4778-9.07148E-02 1.58938E-01-2.98102E-02 3.54550E-04-1.14692E-04 3.71260E-04
 -1      4779-8.66698E-02 1.45246E-01-2.62622E-02-1.36448E-03 1.70881E-04 1.37239E-04
 -1      4780-1.23560E-01 2.64152E-01-6.01642E-02 1.23368E-03-1.40140E-03-2.44342E-04
 -1      4781-1.10739E-01 2.24767E-01-4.93389E-02 8.62082E-04-7.22553E-04 7.29495E-04
 -1      4782-1.06409E-01 2.08073E-01-4.48916E-02-5.77604E-04 7.65633E-05-3.44188E-04
 -1      4783-1.47558E-01 3.45154E-01-8.48694E-02 1.51977E-03-2.05378E-03-5.28300E-04
 -1      4784-1.33534E-01 3.00831E-01-7.23871E-02 1.45778E-03-1.08532E-03 4.28241E-04
 -1      4785-1.28545E-01 2.82286E-01-6.74711E-02 2.93672E-05 2.83410E-05 3.09702E-04
 -1      4786-1.75395E-01 4.37083E-01-1.12413E-01 1.41818E-03-1.46503E-03-3.26389E-04
 -1      4787-1.58775E-01 3.86644E-01-9.76474E-02 1.89696E-03-1.20027E-03 2.21168E-04
 -1      4788-1.52998E-01 3.65406E-01-9.16738E-02 1.89403E-03 2.84048E-04 3.85824E-04
 -1      4789-2.07349E-01 5.44477E-01-1.44425E-01 1.49546E-03-1.91106E-03-5.27735E-04
 -1      4790-1.88308E-01 4.86132E-01-1.28662E-01 2.08187E-03-1.52924E-03 1.23897E-03
 -1      4791-1.81443E-01 4.60831E-01-1.19219E-01 1.05025E-03-2.89662E-04-2.14523E-04
 -1      4792-2.41290E-01 6.56066E-01-1.78281E-01 3.28098E-03-1.77764E-03-5.71890E-04
 -1      4793-2.22152E-01 5.96215E-01-1.60497E-01 2.77608E-03-1.55317E-03 4.77038E-04
 -1      4794-2.14659E-01 5.70551E-01-1.53872E-01 9.54775E-04 1.18646E-04-1.34065E-04
 -1      4795-2.79926E-01 7.84961E-01-2.16332E-01 6.99250E-04-1.64957E-03-4.83129E-04
 -1      4796-2.57801E-01 7.17838E-01-1.97684E-01 1.97564E-03-1.07398E-03 1.03302E-03
 -1      4797-2.48970E-01 6.85296E-01-1.86784E-01 3.47870E-03 2.04100E-04-2.58007E-04
 -1      4798-3.22344E-01 9.24830E-01-2.58055E-01 2.69479E-03-2.40741E-03-5.35635E-04
 -1      4799-2.97886E-01 8.50254E-01-2.37149E-01 1.92537E-03-1.68330E-03 1.27645E-03
 -1      4800-2.89242E-01 8.17489E-01-2.28241E-01 1.70530E-04 7.87502E-05 6.39986E-05
 -1      4801-3.65316E-01 1.07000E+00-3.02826E-01 3.98555E-03-2.38304E-03-6.28554E-04
 -1      4802-3.40637E-01 9.93268E-01-2.79877E-01 3.32336E-03-2.31063E-03 6.38226E-04
 -1      4803-3.31204E-01 9.59634E-01-2.71363E-01 1.61205E-03-1.19054E-04 3.15280E-04
 -1      4804-4.14609E-01 1.23303E+00-3.51247E-01 1.68699E-03-2.23555E-03-6.30244E-04
 -1      4805-3.87036E-01 1.14903E+00-3.26867E-01 3.09720E-03-1.74382E-03 8.42917E-04
 -1      4806-3.75562E-01 1.10832E+00-3.13393E-01 4.65164E-03-1.21436E-04-2.22312E-04
 -1      4807-4.67239E-01 1.40726E+00-4.02241E-01 2.94252E-03-2.64573E-03-1.05479E-03
 -1      4808-4.36171E-01 1.31356E+00-3.76902E-01 2.59289E-03-2.61309E-03 1.65305E-03
 -1      4809-4.25488E-01 1.27255E+00-3.61793E-01 4.13462E-04-5.09117E-04-2.58401E-04
 -1      4810-5.21336E-01 1.59039E+00-4.58315E-01 3.82541E-03-3.66143E-03-9.86217E-04
 -1      4811-4.90692E-01 1.49274E+00-4.30415E-01 3.68584E-03-2.62136E-03 1.29448E-03
 -1      4812-4.79809E-01 1.45057E+00-4.19153E-01 5.80318E-04-6.64665E-04 6.23791E-04
 -1      4813-5.79165E-01 1.78366E+00-5.16120E-01 1.79729E-03-2.92616E-03-8.60364E-04
 -1      4814-5.46196E-01 1.67961E+00-4.86782E-01 2.07601E-03-1.84094E-03 9.96295E-04
 -1      4815-5.33162E-01 1.63259E+00-4.73715E-01-8.84955E-04-4.50658E-04-1.05097E-04
 -1      4816-6.42046E-01 1.99337E+00-5.79491E-01 3.72915E-03-3.38348E-03-7.52107E-04
 -1      4817-6.06694E-01 1.88263E+00-5.48199E-01 3.93154E-03-2.34863E-03 2.26372E-03
 -1      4818-5.94090E-01 1.83232E+00-5.33058E-01 1.30897E-03-8.86765E-05-1.54404E-05
 -1      4819-7.06668E-01 2.20341E+00-6.42250E-01 5.88016E-03-2.86262E-03-8.25929E-04
 -1      4820-6.70838E-01 2.09214E+00-6.09203E-01 4.90716E-03-2.80166E-03 1.36921E-03
 -1      4821-6.56877E-01 2.04248E+00-5.97240E-01 1.81601E-03 1.82468E-04-4.99537E-04
 -1      4822-7.75547E-01 2.43441E+00-7.11438E-01 1.97259E-03-3.16650E-03-8.12301E-04
 -1      4823-7.36273E-01 2.31607E+00-6.77156E-01 3.16375E-03-3.00643E-03 9.03415E-04
 -1      4824-7.20813E-01 2.25859E+00-6.60052E-01 3.70173E-03-6.76441E-04-1.10524E-03
 -1      4825-8.48567E-01 2.67644E+00-7.82455E-01 4.04906E-03-3.44769E-03-1.46053E-03
 -1      4826-8.05552E-01 2.54699E+00-7.47314E-01 3.30310E-03-3.80825E-03 2.19777E-03
 -1      4827-7.90664E-01 2.48999E+00-7.26577E-01 2.14282E-04-4.11404E-04-4.03890E-04
 -1      4828-9.22112E-01 2.92266E+00-8.58209E-01 7.16253E-03-3.15827E-03-9.83745E-04
 -1      4829-8.80482E-01 2.79361E+00-8.19752E-01 5.47549E-03-3.63902E-03 1.52860E-03
 -1      4830-8.65496E-01 2.73703E+00-8.05537E-01 2.21400E-03-8.08472E-04 3.14211E-04
 -1      4831-1.00070E+00 3.18823E+00-9.37249E-01 4.04435E-04-3.59673E-03-1.29887E-03
 -1      4832-9.56961E-01 3.05143E+00-8.98607E-01 2.94983E-03-3.01586E-03 1.62792E-03
 -1      4833-9.39699E-01 2.98508E+00-8.77818E-01 3.91476E-03-1.42205E-03-1.59075E-03
 -1      4834-1.08358E+00 3.46517E+00-1.02119E+00 3.22213E-03-4.26969E-03-9.69802E-04
 -1      4835-1.03710E+00 3.31965E+00-9.79997E-01 3.55529E-03-2.94072E-03 2.19597E-03
 -1      4836-1.01859E+00 3.25267E+00-9.59752E-01 3.54741E-04 6.62185E-05-2.87846E-04
 -1      4837-1.16804E+00 3.74308E+00-1.10431E+00 7.46888E-03-4.70756E-03-1.58561E-03
 -1      4838-1.12169E+00 3.59788E+00-1.06139E+00 6.56355E-03-4.39036E-03 1.44902E-03
 -1      4839-1.10276E+00 3.53231E+00-1.04412E+00 4.14393E-03-9.15483E-05-6.64896E-04
 -1      4840-1.25885E+00 4.04241E+00-1.19146E+00 1.02811E-03-3.67873E-03-1.33243E-03
 -1      4841-1.20832E+00 3.88620E+00-1.14796E+00 2.97082E-03-3.73776E-03 1.84466E-03
 -1      4842-1.18673E+00 3.81246E+00-1.12437E+00 6.87470E-03-9.35133E-05 5.60567E-04
 -1      4843-1.35207E+00 4.35160E+00-1.28448E+00 4.06838E-03-3.98761E-03-1.38072E-03
 -1      4844-1.29912E+00 4.18973E+00-1.23875E+00 2.77022E-03-3.44210E-03 1.98223E-03
 -1      4845-1.27751E+00 4.11597E+00-1.21877E+00 8.89049E-05-1.11415E-05-1.01678E-04
 -1      4846-1.44630E+00 4.66599E+00-1.38089E+00 8.28342E-03-5.31135E-03-1.88487E-03
 -1      4847-1.39283E+00 4.50291E+00-1.33225E+00 7.33153E-03-4.66638E-03 1.16783E-03
 -1      4848-1.37189E+00 4.42900E+00-1.31306E+00 4.81445E-03-4.59557E-04 9.05552E-04
 -1      4849-1.54534E+00 4.99859E+00-1.47909E+00 1.17330E-03-4.03482E-03-1.80884E-03
 -1      4850-1.48828E+00 4.82599E+00-1.43116E+00 3.73398E-03-3.54803E-03 1.83200E-03
 -1      4851-1.46581E+00 4.74239E+00-1.40283E+00 7.39874E-03-4.57628E-04-6.52821E-04
 -1      4852-1.64731E+00 5.34289E+00-1.58438E+00 4.42346E-03-4.64900E-03-1.19776E-03
 -1      4853-1.58927E+00 5.16313E+00-1.53304E+00 4.25205E-03-3.04617E-03 2.40061E-03
 -1      4854-1.56670E+00 5.08043E+00-1.50826E+00 4.41729E-04 1.07857E-04 1.33920E-03
 -1      4855-1.75377E+00 5.68853E+00-1.68724E+00 8.79232E-03-5.24743E-03-1.63269E-03
 -1      4856-1.69551E+00 5.50869E+00-1.63375E+00 8.77436E-03-4.94430E-03 1.92086E-03
 -1      4857-1.67194E+00 5.42694E+00-1.61201E+00 6.12516E-03 4.34363E-04-5.92916E-04
 -1      4858-1.86137E+00 6.05647E+00-1.79779E+00 1.05729E-03-5.09110E-03-1.99011E-03
 -1      4859-1.79940E+00 5.86508E+00-1.74429E+00 4.34812E-03-3.97260E-03 2.00340E-03
 -1      4860-1.77583E+00 5.77359E+00-1.71102E+00 7.83887E-03 3.84787E-04-7.19486E-04
 -1      4861-1.97582E+00 6.43132E+00-1.90853E+00 4.96131E-03-4.94545E-03-1.59045E-03
 -1      4862-1.91287E+00 6.23628E+00-1.85318E+00 3.81853E-03-5.01288E-03 2.64661E-03
 -1      4863-1.88598E+00 6.14656E+00-1.82848E+00 1.22701E-03-4.28675E-04-9.92925E-04
 -1      4864-2.09078E+00 6.81429E+00-2.02554E+00 9.61061E-03-5.85135E-03-1.99841E-03
 -1      4865-2.02638E+00 6.61689E+00-1.96676E+00 9.68510E-03-5.84450E-03 1.86754E-03
 -1      4866-2.00121E+00 6.52675E+00-1.94320E+00 7.19341E-03-5.36187E-04 8.23107E-04
 -1      4867-2.21178E+00 7.21439E+00-2.14270E+00 1.28923E-03-5.36672E-03-2.10897E-03
 -1      4868-2.14325E+00 7.00666E+00-2.08512E+00 4.15971E-03-4.36858E-03 2.15863E-03
 -1      4869-2.11559E+00 6.90667E+00-2.05100E+00 8.58587E-03-6.95772E-04-1.09932E-03
 -1      4870-2.33017E+00 7.62018E+00-2.26807E+00 4.16149E-03-5.58927E-03-2.42551E-03
 -1      4871-2.26386E+00 7.41248E+00-2.20696E+00 4.24073E-03-4.71174E-03 1.93414E-03
 -1      4872-2.23651E+00 7.31481E+00-2.17700E+00 1.34893E-03 1.37026E-04 1.49789E-03
 -1      4873-2.45766E+00 8.03321E+00-2.39024E+00 1.90920E-02-6.97384E-03-4.24940E-03
 -1      4874-2.39047E+00 7.82897E+00-2.32879E+00 8.45341E-03-8.33754E-03 1.25428E-03
 -1      4875-2.36178E+00 7.72806E+00-2.30002E+00 1.03100E-02 3.24227E-04-5.45403E-04
 -1      4876-2.58770E+00 8.47059E+00-2.52235E+00 1.07952E-02-8.28407E-03-1.79764E-03
 -1      4877-2.51673E+00 8.25436E+00-2.45948E+00 1.99068E-02-6.72010E-03 4.17828E-03
 -1      4878-2.48617E+00 8.14335E+00-2.42264E+00 2.32248E-02-4.91603E-04-3.70832E-04
 -1      4879-2.71909E+00 8.91400E+00-2.65485E+00 8.51457E-03-6.28039E-03-1.93366E-03
 -1      4880-2.64634E+00 8.68745E+00-2.59049E+00 1.06486E-02-7.44144E-03 2.78679E-03
 -1      4881-2.61751E+00 8.57785E+00-2.55272E+00 1.29351E-02-2.31816E-04-3.81914E-04
 -1      4882-2.85610E+00 9.36986E+00-2.78906E+00 9.69995E-03-7.44939E-03-3.65128E-03
 -1      4883-2.77955E+00 9.12510E+00-2.72184E+00 1.01437E-02-7.47879E-03 4.09485E-03
 -1      4884-2.74886E+00 9.02000E+00-2.68340E+00 5.48880E-03 1.11919E-03 1.70645E-03
 -1      4885-2.99435E+00 9.82395E+00-2.92580E+00 9.04591E-03-7.08307E-03-2.29369E-03
 -1      4886-2.91841E+00 9.58578E+00-2.85796E+00 9.13499E-03-5.67984E-03 2.41410E-03
 -1      4887-2.88888E+00 9.47718E+00-2.82820E+00 5.84883E-03 1.29726E-03-1.63546E-03
 -1      4888-3.14272E+00 1.03021E+01-3.06907E+00 1.87034E-02-5.85571E-03-4.25751E-03
 -1      4889-3.05695E+00 1.00524E+01-2.99793E+00 8.80210E-03-6.06219E-03 2.42031E-03
 -1      4890-3.02570E+00 9.93705E+00-2.96627E+00 9.09461E-03 4.87593E-04 3.43531E-04
 -1      4891-3.29694E+00 1.08010E+01-3.22921E+00-5.90374E-03-1.47356E-02 1.61450E-03
 -1      4892-3.20971E+00 1.05538E+01-3.14676E+00 2.06781E-02-8.01809E-03 8.30108E-03
 -1      4893-3.18008E+00 1.04271E+01-3.11209E+00 2.65560E-02-7.45429E-04-1.13804E-03
 -1      4894-3.30779E+00 1.08837E+01-3.26947E+00 1.69757E-02-9.25159E-04 1.10229E-03
 -1      4895-4.49829E-02 4.72631E-03 1.70304E-02 8.85777E-04 7.47091E-04-5.41039E-04
 -1      4896-4.87928E-02 1.70010E-02 1.35376E-02 6.79024E-04 8.01057E-04-5.18065E-05
 -1      4897-5.18877E-02 2.85543E-02 9.62638E-03 8.96386E-04 3.68571E-04-2.51412E-04
 -1      4898-5.75280E-02 4.55480E-02 5.03472E-03 1.07776E-03 6.16346E-04 2.10201E-04
 -1      4899-6.24965E-02 6.38206E-02-5.96404E-04 1.50354E-03 5.57576E-04-4.80286E-04
 -1      4900-6.85312E-02 8.27707E-02-6.55837E-03 7.57397E-04 9.96395E-04 5.50757E-05
 -1      4901-7.50708E-02 1.06788E-01-1.40307E-02 9.65405E-04 5.68552E-04-5.76984E-04
 -1      4902-8.36505E-02 1.33362E-01-2.15548E-02 5.38808E-04 9.55133E-04 1.83591E-04
 -1      4903-9.08370E-02 1.58830E-01-2.95920E-02 1.55123E-04 3.66479E-04-3.60198E-04
 -1      4904-1.01639E-01 1.92087E-01-3.86595E-02 6.00155E-05 9.32416E-04 1.65619E-04
 -1      4905-1.10381E-01 2.24755E-01-4.96324E-02 1.04350E-03 6.24672E-04-8.96525E-04
 -1      4906-1.23125E-01 2.64486E-01-6.08217E-02 1.04740E-03 1.19029E-03 1.05993E-04
 -1      4907-1.33590E-01 3.00349E-01-7.17039E-02 1.75164E-03 9.96266E-04-5.26784E-04
 -1      4908-1.47266E-01 3.43141E-01-8.44412E-02 2.44525E-03 1.12933E-03 2.69306E-04
 -1      4909-1.59145E-01 3.88683E-01-9.86657E-02 1.95684E-03 1.27514E-03-5.64935E-04
 -1      4910-1.75073E-01 4.37124E-01-1.12577E-01 1.28129E-03 1.42827E-03 3.62670E-04
 -1      4911-1.88462E-01 4.85176E-01-1.27662E-01 1.59866E-03 1.57246E-03-9.97311E-04
 -1      4912-2.07788E-01 5.43643E-01-1.43413E-01 1.86174E-03 1.75770E-03 7.43008E-04
 -1      4913-2.21921E-01 5.96199E-01-1.60595E-01 2.60234E-03 1.66421E-03-3.52005E-04
 -1      4914-2.40925E-01 6.55812E-01-1.78279E-01 3.47668E-03 1.98298E-03 6.83582E-04
 -1      4915-2.58096E-01 7.16964E-01-1.97238E-01 1.95717E-03 1.64625E-03-1.11173E-03
 -1      4916-2.79662E-01 7.85561E-01-2.16421E-01 4.63484E-04 2.02180E-03 5.22620E-04
 -1      4917-2.97796E-01 8.50704E-01-2.38101E-01 2.52985E-03 1.59411E-03-1.49786E-03
 -1      4918-3.21846E-01 9.26149E-01-2.59247E-01 2.47178E-03 2.61587E-03 4.64462E-04
 -1      4919-3.41025E-01 9.93599E-01-2.79984E-01 3.53793E-03 2.22812E-03-6.07482E-04
 -1      4920-3.65226E-01 1.06999E+00-3.02526E-01 4.02378E-03 2.49531E-03 8.23689E-04
 -1      4921-3.87260E-01 1.14814E+00-3.26013E-01 2.67895E-03 2.28876E-03-7.18145E-04
 -1      4922-4.14847E-01 1.23286E+00-3.49999E-01 2.19018E-03 2.08437E-03 6.99301E-04
 -1      4923-4.36152E-01 1.31273E+00-3.76900E-01 3.02158E-03 2.32740E-03-1.84597E-03
 -1      4924-4.66854E-01 1.40897E+00-4.03266E-01 3.05625E-03 2.76885E-03 9.77949E-04
 -1      4925-4.91201E-01 1.49284E+00-4.30073E-01 3.85096E-03 1.98546E-03-1.13602E-03
 -1      4926-5.21906E-01 1.59008E+00-4.57432E-01 3.95818E-03 3.27606E-03 1.18711E-03
 -1      4927-5.46398E-01 1.67970E+00-4.85598E-01 1.56074E-03 1.56817E-03-7.75182E-04
 -1      4928-5.80399E-01 1.78314E+00-5.15035E-01 2.29906E-03 2.48183E-03 6.81216E-04
 -1      4929-6.06940E-01 1.88226E+00-5.46920E-01 2.98670E-03 2.81248E-03-1.84988E-03
 -1      4930-6.42853E-01 1.99189E+00-5.77817E-01 4.12269E-03 3.64197E-03 8.60501E-04
 -1      4931-6.70458E-01 2.09327E+00-6.10855E-01 4.25082E-03 3.21956E-03-1.07605E-03
 -1      4932-7.07285E-01 2.20754E+00-6.43225E-01 3.77527E-03 4.93331E-03 1.42857E-03
 -1      4933-7.35046E-01 2.31260E+00-6.75681E-01 3.49640E-03 2.74607E-03-5.75141E-04
 -1      4934-7.76095E-01 2.43503E+00-7.10869E-01 2.98309E-03 2.78821E-03 6.95450E-04
 -1      4935-8.05344E-01 2.54638E+00-7.47755E-01 3.70271E-03 3.14957E-03-2.45058E-03
 -1      4936-8.48201E-01 2.67914E+00-7.84090E-01 4.26889E-03 3.95441E-03 1.39399E-03
 -1      4937-8.81562E-01 2.79529E+00-8.21342E-01 5.78184E-03 3.18512E-03-1.50909E-03
 -1      4938-9.23731E-01 2.92752E+00-8.58574E-01 4.93026E-03 5.11564E-03 1.52343E-03
 -1      4939-9.56682E-01 3.04766E+00-8.95937E-01 2.66159E-03 2.67439E-03-7.91848E-04
 -1      4940-1.00282E+00 3.18788E+00-9.35428E-01 1.91941E-03 4.06444E-03 1.09213E-03
 -1      4941-1.03727E+00 3.31971E+00-9.78077E-01 2.65167E-03 3.22204E-03-1.90602E-03
 -1      4942-1.08459E+00 3.46328E+00-1.01886E+00 3.55687E-03 3.24499E-03 1.17864E-03
 -1      4943-1.12121E+00 3.59756E+00-1.06103E+00 6.23433E-03 3.94256E-03-1.26283E-03
 -1      4944-1.16880E+00 3.74336E+00-1.10459E+00 7.50699E-03 4.28054E-03 1.39158E-03
 -1      4945-1.20646E+00 3.88746E+00-1.15058E+00 3.79027E-03 3.11926E-03-1.74943E-03
 -1      4946-1.25719E+00 4.04355E+00-1.19410E+00 4.02064E-04 3.83796E-03 1.27048E-03
 -1      4947-1.29849E+00 4.19075E+00-1.24153E+00 3.82754E-03 2.91378E-03-2.34500E-03
 -1      4948-1.35036E+00 4.35327E+00-1.28750E+00 3.55686E-03 4.90926E-03 9.10261E-04
 -1      4949-1.39309E+00 4.50229E+00-1.33270E+00 7.59141E-03 4.81833E-03-1.84577E-03
 -1      4950-1.44482E+00 4.66507E+00-1.38078E+00 8.10229E-03 4.80242E-03 1.64124E-03
 -1      4951-1.48932E+00 4.82417E+00-1.43029E+00 3.22765E-03 4.08843E-03-1.94455E-03
 -1      4952-1.54486E+00 4.99933E+00-1.47936E+00 8.67680E-04 4.49165E-03 1.72376E-03
 -1      4953-1.59094E+00 5.16239E+00-1.53103E+00 3.46840E-03 4.42205E-03-2.41718E-03
 -1      4954-1.64882E+00 5.34088E+00-1.58123E+00 4.46704E-03 4.76464E-03 1.43529E-03
 -1      4955-1.69486E+00 5.50913E+00-1.63405E+00 8.22664E-03 5.28444E-03-1.39438E-03
 -1      4956-1.75280E+00 5.68900E+00-1.68733E+00 9.06581E-03 5.66254E-03 2.24780E-03
 -1      4957-1.80207E+00 5.86362E+00-1.74063E+00 3.47066E-03 4.75556E-03-1.94714E-03
 -1      4958-1.86417E+00 6.05639E+00-1.79437E+00 1.81839E-03 4.67132E-03 1.88926E-03
 -1      4959-1.91084E+00 6.23776E+00-1.85631E+00 4.82638E-03 3.49709E-03-2.41083E-03
 -1      4960-1.97426E+00 6.43444E+00-1.91241E+00 4.81184E-03 5.32407E-03 1.31659E-03
 -1      4961-2.02734E+00 6.61693E+00-1.96692E+00 9.98250E-03 5.60724E-03-2.30870E-03
 -1      4962-2.09004E+00 6.81359E+00-2.02484E+00 9.87191E-03 5.37146E-03 2.04395E-03
 -1      4963-2.14401E+00 7.00431E+00-2.08391E+00 3.59728E-03 4.68876E-03-1.82682E-03
 -1      4964-2.21089E+00 7.21542E+00-2.14309E+00 1.20620E-03 5.61597E-03 2.33043E-03
 -1      4965-2.26567E+00 7.41187E+00-2.20537E+00 4.45583E-03 6.38936E-03-2.32030E-03
 -1      4966-2.33234E+00 7.61897E+00-2.26534E+00 4.70804E-03 6.43555E-03 1.93375E-03
 -1      4967-2.38857E+00 7.82936E+00-2.33080E+00 8.22490E-03 8.12509E-03-9.85132E-04
 -1      4968-2.45702E+00 8.03465E+00-2.39239E+00 1.87136E-02 7.16621E-03 4.56485E-03
 -1      4969-2.51743E+00 8.25134E+00-2.45670E+00 1.95499E-02 6.96315E-03-4.45421E-03
 -1      4970-2.58847E+00 8.47030E+00-2.52055E+00 1.23701E-02 7.55497E-03 2.32037E-03
 -1      4971-2.64819E+00 8.68580E+00-2.58762E+00 1.03401E-02 7.33288E-03-2.44265E-03
 -1      4972-2.71999E+00 8.91350E+00-2.65340E+00 8.26145E-03 6.10993E-03 2.15085E-03
 -1      4973-2.77951E+00 9.12921E+00-2.72304E+00 9.63726E-03 6.81940E-03-3.19412E-03
 -1      4974-2.85636E+00 9.36705E+00-2.78816E+00 9.52021E-03 7.35581E-03 3.68094E-03
 -1      4975-2.91764E+00 9.58673E+00-2.85982E+00 9.18700E-03 6.00501E-03-2.16579E-03
 -1      4976-2.99252E+00 9.82515E+00-2.92846E+00 9.48958E-03 7.86080E-03 2.08218E-03
 -1      4977-3.05577E+00 1.00523E+01-3.00006E+00 1.07865E-02 6.47551E-03-3.21103E-03
 -1      4978-3.14169E+00 1.03059E+01-3.07163E+00 1.93070E-02 7.13647E-03 3.81837E-03
 -1      4979-3.21254E+00 1.05598E+01-3.14951E+00 1.79541E-02 5.35462E-03-7.11279E-03
 -1      4980-3.29236E+00 1.07970E+01-3.23239E+00-5.24411E-03 1.31840E-02-1.05594E-04
 -1      4981-6.80061E-04 1.82779E-03-4.53212E-04-9.81090E-04-4.25909E-06 1.52038E-05
 -1      4982-1.60790E-03 5.15714E-03-1.09897E-03 1.58830E-05 1.04207E-05 1.21423E-05
 -1      4983-2.09127E-04 1.01110E-03-1.67522E-04-7.29941E-04-1.51731E-05-5.04615E-05
 -1      4984-1.11128E-04 9.54969E-04-1.80657E-04-7.66135E-04 2.42183E-05 3.78435E-05
 -1      4985-2.82529E-03 9.91863E-03-3.73384E-04 1.27724E-03 2.11140E-04-2.83527E-04
 -1      4986-2.67518E-03 9.74655E-03-4.79497E-04 1.27569E-03-6.67780E-05 3.37833E-04
 -1      4987-3.36493E-04 1.16425E-03-3.63830E-04-7.38889E-04-6.48432E-05 5.89673E-05
 -1      4988 4.55687E-05 9.19008E-04-2.68731E-04-8.40818E-04-4.93606E-05-3.97825E-05
 -1      4989-1.44904E-05 8.87243E-04-1.91637E-04-7.36682E-04-8.15696E-07-3.13873E-05
 -1      4990-8.01220E-03 9.56408E-03 3.51058E-03-5.33154E-03 3.38889E-03-1.12703E-03
 -1      4991-9.63102E-05 7.85009E-03-2.05083E-03 2.81231E-03-9.57582E-04-1.62102E-04
 -1      4992-4.57743E-03 4.92141E-03 3.75882E-03-6.13453E-03 1.08216E-03 6.52154E-04
 -1      4993 4.80268E-05 9.09032E-04-2.58643E-04-8.42981E-04 6.04007E-05 3.75576E-05
 -1      4994-3.25941E-04 1.17348E-03-3.46777E-04-7.09899E-04 5.99848E-05-5.40159E-05
 -1      4995-9.00812E-06 8.91656E-04-1.96833E-04-7.47290E-04 3.73717E-06 3.98811E-05
 -1      4996 2.70995E-05 7.65911E-03-2.09085E-03 2.79362E-03 1.06779E-03 1.85578E-04
 -1      4997-8.44484E-03 9.79062E-03 3.46587E-03-5.00845E-03-3.34330E-03 1.17372E-03
 -1      4998-4.31140E-03 4.89467E-03 3.40650E-03-6.03614E-03-1.00308E-03-6.55840E-04
 -1      4999-2.76517E-03 7.37412E-03-1.61219E-03-5.49942E-05-6.62645E-04-5.17489E-05
 -1      5000-5.12204E-04 2.27273E-03-7.59111E-04-7.92080E-04-5.41478E-04 9.76763E-05
 -1      5001-7.46910E-04 3.00047E-03-8.36278E-04-6.63260E-04-8.36123E-06 1.30413E-06
 -1      5002-4.64259E-04 1.42494E-03-4.13434E-04-8.36684E-04-2.15947E-04 1.21270E-04
 -1      5003-4.18971E-04 1.25846E-03-2.92813E-04-7.51530E-04-6.54478E-05 5.37521E-05
 -1      5004-3.36744E-03 9.47197E-03-1.00213E-03 2.08484E-04 2.17096E-04-1.60940E-05
 -1      5005-5.29304E-04 2.30095E-03-7.62974E-04-8.01470E-04 5.41173E-04-8.11094E-05
 -1      5006-2.75157E-03 7.31657E-03-1.61170E-03-6.29010E-05 6.84939E-04 5.99648E-05
 -1      5007-5.09657E-04 1.45234E-03-3.85698E-04-8.58946E-04 2.14722E-04-1.02303E-04
 -1      5008-3.10998E-04 1.15413E-03-2.64799E-04-7.94967E-04 8.86224E-05-2.04165E-05
 -1      5009-3.26566E-03 9.38221E-03-1.02956E-03 1.99766E-04-1.30996E-04 4.02246E-05
 -1      5010-1.05385E-04 1.18422E-03-2.61112E-04-6.72213E-04 2.25754E-05 3.09441E-05
 -1      5011-5.11567E-03 1.11456E-02 6.33734E-04-2.43666E-04 7.95429E-05 1.02702E-05
 -1      5012 2.08230E-02 4.17187E-01-1.92222E-02-6.85535E-01-9.69842E-04 9.09209E-05
 -1      5013-7.75150E-01 6.60970E-01 6.33190E-03-9.63500E-01 5.66283E-05 6.61695E-03
 -1      5014-2.57905E-01 4.72344E-01 3.74699E-03-7.33327E-01-6.00423E-03 1.82194E-02
 -1      5015-4.79956E-01 5.69332E-01 3.22062E-03-8.22488E-01 5.07278E-03-2.25922E-02
 -1      5016-1.04503E-01 4.33470E-01-6.11754E-03-6.97709E-01 2.04747E-02-6.21042E-02
 -1      5017-6.30077E-02 4.27712E-01-1.27743E-02-6.92509E-01-2.06340E-02 7.24821E-02
 -1      5018-4.56068E-01 5.59902E-01 3.08703E-03-8.19145E-01-6.01674E-03 2.83517E-02
 -1      5019 1.06890E-01 4.03416E-01-3.17763E-03-6.91936E-01-3.68756E-02 1.09625E-01
 -1      5020 1.06099E-01 4.06843E-01-1.64545E-02-6.85984E-01 3.23090E-02-1.12137E-01
 -1      5021-1.07925E+00 7.93151E-01 2.06567E-02-1.08099E+00 1.74458E-03-2.39437E-02
 -1      5022-1.15650E+00 9.36350E-01-5.75086E-04-1.11087E+00-1.58927E-02-5.56522E-03
 -1      5023-1.27872E+00 8.24354E-01 6.49083E-08-1.15281E+00 3.00346E-03-9.82447E-03
 -1      5024 1.30204E-01 4.13415E-01-5.42847E-03-6.95439E-01 3.82174E-03-3.00956E-03
 -1      5025 1.60319E-01 4.28798E-01 3.77144E-05-7.25981E-01 2.25920E-02-7.37171E-02
 -1      5026 2.19239E-01 4.18982E-01-2.65551E-02-7.26787E-01 6.92413E-02-1.76247E-01
 -1      5027 1.84055E-01 3.96318E-01-3.15356E-03-6.94099E-01 5.62304E-02-2.05085E-01
 -1      5028 1.73777E-01 4.23288E-01 6.77561E-05-7.19249E-01-2.16083E-02 7.03887E-02
 -1      5029 2.27508E-01 4.19097E-01-3.39263E-02-7.25133E-01-7.05793E-02 1.71313E-01
 -1      5030 1.67367E-01 3.92079E-01-6.68838E-03-6.95064E-01-4.31051E-02 1.80220E-01
 -1      5031-1.86130E+00 1.00719E+00-4.04413E-03-1.29561E+00-7.57525E-02-9.70627E-02
 -1      5032-2.02081E+00 1.26971E+00 1.61750E-02-1.37819E+00 1.09551E-01 6.35521E-02
 -1      5033-9.22586E-01 8.17424E-01 1.06867E-03-1.06051E+00-1.08150E-02-1.79582E-02
 -1      5034-1.55960E+00 8.98432E-01 1.88422E-02-1.21946E+00 1.88381E-02-1.60546E-03
 -1      5035-1.53207E+00 9.44505E-01-2.99922E-09-1.31060E+00 1.47129E-02-4.81277E-02
 -1      5036-8.64021E-01 7.43571E-01 6.77064E-03-1.04089E+00 1.93999E-02-1.81837E-02
 -1      5037 1.95170E-01 4.27723E-01 5.72891E-04-7.38048E-01-9.52366E-03 2.26188E-02
 -1      5038 1.84279E-01 4.34001E-01 4.93671E-06-7.38299E-01 6.57327E-03-2.14868E-02
 -1      5039 1.16639E-01 4.14948E-01-4.37334E-03-6.87873E-01 1.29527E-02-5.51964E-02
 -1      5040 1.10280E-01 4.09170E-01 4.39582E-05-6.86366E-01-1.61905E-02 5.28854E-02
 -1      5041-1.60663E+00 9.03890E-01 1.10544E-07-1.23277E+00 1.18127E-03-3.86441E-03
 -1      5042-1.58688E+00 9.02640E-01 3.39187E-08-1.23375E+00 2.84635E-03-9.31004E-03
 -1      5043-1.22806E+00 8.03735E-01 2.15675E-08-1.12683E+00 2.81652E-03-9.21229E-03
 -1      5044-1.19402E+00 8.00903E-01 9.96450E-08-1.12740E+00 1.27990E-03-4.18722E-03
 -1      5045-3.48863E-01 5.31690E-01 2.63981E-03-8.03193E-01-1.68858E-02 7.88313E-02
 -1      5046-5.87479E-01 6.10486E-01 3.35491E-07-9.08677E-01-6.38146E-03 2.08741E-02
 -1      5047-7.34019E-01 6.54580E-01 6.38487E-03-9.55165E-01-1.33765E-02 5.97182E-03
 -1      5048-2.29911E-01 4.74906E-01 5.50391E-07-7.41586E-01-3.28793E-02 1.07551E-01
 -1      5049 8.50004E-02 4.14636E-01 1.02277E-06-6.91147E-01-5.05532E-02 1.65364E-01
 -1      5050-1.61372E-02 4.23868E-01-2.78661E-03-7.01109E-01-4.04435E-02 1.47967E-01
 -1      5051-1.52305E-01 4.49034E-01-3.80260E-03-7.11509E-01-1.41263E-02 4.28465E-02
 -1      5052-1.38570E-01 4.50657E-01 5.22740E-07-7.15886E-01-3.17399E-02 1.03824E-01
 -1      5053-3.57895E-01 4.96590E-01 5.56647E-03-7.59061E-01-8.44436E-03 2.80672E-02
 -1      5054 3.41573E-02 4.14038E-01-1.23701E-02-6.83160E-01-3.19924E-02 9.51364E-02
 -1      5055-3.67739E-01 5.40397E-01 1.58707E-03-8.06209E-01 1.69136E-02-7.10592E-02
 -1      5056-6.14169E-01 6.23628E-01 3.65938E-07-9.26093E-01 8.61482E-03-2.81795E-02
 -1      5057-7.48460E-01 6.48000E-01 2.73481E-07-9.45427E-01 1.38081E-03-4.51653E-03
 -1      5058-2.71084E-02 4.27451E-01 1.99674E-04-7.07315E-01 4.46968E-02-1.46265E-01
 -1      5059-1.80367E-01 4.69106E-01 5.81354E-07-7.39673E-01 3.25640E-02-1.06519E-01
 -1      5060-2.84133E-01 4.78425E-01 4.34750E-07-7.39053E-01 1.25484E-02-4.10466E-02
 -1      5061 5.82479E-02 4.16778E-01 1.01842E-06-6.90562E-01 4.94768E-02-1.61843E-01
 -1      5062 1.79515E-02 4.16078E-01 9.21409E-07-6.83257E-01 3.09129E-02-1.01119E-01
 -1      5063-7.60687E-02 4.35747E-01 6.23313E-07-7.01055E-01-1.19151E-03 3.89752E-03
 -1      5064-9.41036E-03 4.20649E-01-6.57494E-03-6.89854E-01-8.20506E-03 4.09955E-02
 -1      5065-4.05434E-02 4.25874E-01-1.07826E-02-6.91563E-01 7.30930E-03-3.81546E-02
 -1      5066 7.31799E-02 4.06893E-01-9.48976E-03-6.81263E-01 2.46683E-02-5.65730E-02
 -1      5067 5.86330E-02 4.18922E-01-2.91980E-03-6.84831E-01-1.55499E-02 5.23048E-02
 -1      5068 7.57778E-02 4.11006E-01-8.53806E-03-6.83800E-01-1.55832E-03 5.19005E-03
 -1      5069-4.67834E-01 5.70636E-01 2.87149E-05-8.27708E-01 3.90940E-04 1.47323E-03
 -1      5070-5.89821E-01 6.03620E-01 4.23835E-03-8.99545E-01 3.38450E-03-1.27435E-02
 -1      5071-5.57881E-01 6.06866E-01 1.14206E-07-9.07282E-01-3.83458E-03 1.25429E-02
 -1      5072-9.47957E-01 7.26916E-01 4.70749E-03-1.01326E+00 6.91324E-03 1.13317E-02
 -1      5073-9.38884E-01 7.20557E-01 2.80530E-08-1.03499E+00-1.49354E-03 4.88490E-03
 -1      5074-1.02358E+00 7.44008E-01 5.88667E-08-1.06040E+00 2.30003E-04-7.52378E-04
 -1      5075-3.69180E-01 4.98012E-01 5.17749E-03-7.62877E-01 2.01381E-03-5.83936E-03
 -1      5076-1.81483E-01 4.52969E-01-1.64284E-03-7.14263E-01 6.78169E-03-1.79922E-02
 -1      5077 6.61718E-01-1.27434E+00 2.62976E-01-1.72022E-01-7.57964E-03 4.48458E-03
 -1      5078-3.35172E-01 8.44805E-01-2.12034E-01-6.63265E-01 1.06956E-02 4.06641E-03
 -1      5079 7.87070E-01-1.45424E+00 2.86406E-01 4.65751E-02 2.26369E-03-1.83523E-03
 -1      5080-7.16820E-01 1.58698E+00-3.68673E-01 4.91507E-01-3.57518E-03 2.29866E-03
 -1      5081 2.52296E-01-7.97382E-01 2.36717E-01-1.22094E-02-5.05849E-03 5.78898E-03
 -1      5082-4.57830E-01 1.04492E+00-2.55131E-01 3.74784E-01-3.98105E-04 1.04323E-02
 -1      5083 6.60773E-01-9.92255E-01 1.42361E-01-3.90080E-01-1.12508E-02-1.94026E-02
 -1      5084 5.06248E-02-2.15517E-01 7.41004E-02-9.68741E-01-2.80293E-02-2.65074E-02
 -1      5085 7.71835E-01-1.60186E+00 3.56530E-01 5.57745E-01-5.96070E-03 2.23418E-03
 -1      5086 9.36901E-02-2.82244E-02-3.07186E-02-7.85103E-01-1.32779E-03 6.41332E-03
 -1      5087-7.22026E-01 1.14324E+00-1.81802E-01-2.57326E-02 2.08488E-03-4.28360E-03
 -1      5088 1.04555E+00-1.57962E+00 2.36424E-01 2.52309E-01-6.56956E-03-5.82458E-03
 -1      5089-6.69174E-01 1.78613E+00-4.93083E-01 2.28311E-01 1.48591E-01-1.82627E-02
 -1      5090-3.72919E-01 8.99877E-01-2.26223E-01 6.94905E-02 6.63397E-03-1.13856E-03
 -1      5091-2.26230E-01-1.03438E-01 1.40282E-01-7.43306E-01 6.66681E-03-2.67286E-03
 -1      5092 3.09233E-01-7.74373E-01 1.99624E-01 2.80617E-02 9.36987E-04 1.63002E-03
 -1      5093 5.31774E-01-5.83177E-01 1.69454E-02-1.27024E-01-1.58385E-02-7.57199E-03
 -1      5094 4.89646E-01-1.40721E+00 3.89288E-01-3.70656E-01 3.10275E-02 3.08871E-02
 -1      5095 6.48218E-01-1.78238E+00 4.83725E-01 5.55067E-01-1.69907E-01 6.64515E-03
 -1      5096-8.75206E-01 1.58896E+00-2.98665E-01 3.15433E-01-2.13988E-02-4.99472E-03
 -1      5097-3.60494E-01 1.10675E+00-3.19679E-01 6.31689E-01-1.99610E-03 3.55640E-03
 -1      5098-3.71960E-01 8.19561E-01-1.92905E-01-5.15126E-01-7.84406E-03-1.70150E-03
 -1      5099-3.32464E-01 7.39929E-01-1.93887E-01-8.21654E-01 1.00284E-01-8.93224E-02
 -1      5100 4.57960E-01-1.09071E+00 2.69965E-01 4.38182E-01 3.17125E-03 3.11092E-03
 -1      5101 5.21253E-01-1.37304E+00 3.65464E-01-1.90170E-01-2.58223E-01-4.19625E-02
 -1      5102 3.49065E-01-7.13186E-01 1.54766E-01-7.13416E-02 1.81148E-03 5.10563E-03
 -1      5103 5.16679E-02 1.64061E-01-8.45803E-02-7.19631E-01 9.24976E-03 5.91657E-03
 -1      5104-1.90414E-01 1.18776E+00-4.30078E-01 9.95983E-01 6.76372E-02 1.55109E-02
 -1      5105-4.34834E-01 9.46853E-01-2.20519E-01 2.44131E-01 2.67020E-03 4.63791E-04
 -1      5106 3.95757E-01-5.40980E-01 3.03810E-01 3.71252E-01 1.27357E-01-1.09896E-01
 -1      5107-8.00943E-01 1.30754E+00-1.77015E-01 5.10619E-01 1.39567E-02-3.79164E-02
 -1      5108 1.11266E+00-1.75639E+00 2.78043E-01 1.43682E-01 1.74547E-02 4.36513E-05
 -1      5109-5.39022E-01 1.30168E+00-4.86607E-01-1.15858E-01 2.43578E-01-2.24540E-01
 -1      5110 2.04144E-01-5.66570E-01 1.56393E-01 1.88524E-02 6.46597E-04-1.01064E-03
 -1      5111-5.77096E-01 1.14863E-01 2.08775E-01-5.65747E-01 1.00278E-03 1.52709E-02
 -1      5112 2.63381E-01-7.13398E-01 1.92423E-01 2.33391E-01 3.14570E-03-1.53869E-03
 -1      5113 6.36703E-02-4.57137E-01 1.67970E-01-5.83607E-01 4.84394E-03-6.81254E-04
 -1      5114 2.59791E-01-5.22737E-01 1.12144E-01-7.54053E-01-7.94475E-03-2.33477E-03
 -1      5115-2.25718E-01 7.89927E-01-2.41974E-01 4.23597E-01-3.74350E-03 1.84653E-03
 -1      5116-5.52665E-02 1.54627E-01-3.61903E-02-9.15391E-01-2.55102E-03 9.79103E-03
 -1      5117 9.46806E-01-1.62051E+00 2.87243E-01 2.82822E-01 1.94867E-03-1.80357E-03
 -1      5118 9.68459E-01-1.64283E+00 2.88693E-01 2.86523E-01 1.83920E-03-1.03685E-03
 -1      5119 8.18035E-02-1.82512E-01 1.67063E-02-1.03417E+00 3.57689E-02-1.83142E-02
 -1      5120-6.11970E-01 1.44045E+00-3.50149E-01-1.65086E-02 2.54237E-03 1.09485E-03
 -1      5121 4.41267E-01-1.55311E+00 5.04108E-01 9.03159E-01-8.81249E-02 2.04822E-02
 -1      5122-4.53988E-02 6.02721E-01-2.71592E-01-6.52244E-01-5.36786E-03 3.46482E-03
 -1      5123-7.00877E-01 1.00701E+00-1.23459E-01-5.27827E-01-1.16603E-02-2.57073E-02
 -1      5124-7.51488E-02 3.99933E-02 2.16779E-02-7.80678E-01-9.19869E-03-1.28143E-01
 -1      5125 2.42236E-01-9.91548E-01 3.03752E-01 7.26374E-01 6.77938E-03 8.68215E-03
 -1      5126-4.16976E-01 9.20181E-01-2.16207E-01-3.01819E-01-2.52507E-03 2.08199E-03
 -1      5127-4.82765E-01 9.32898E-01-1.91231E-01 5.70983E-01-3.10327E-02-3.25904E-02
 -1      5128 2.62577E-01-6.29445E-01 1.56284E-01-3.13839E-01-4.48531E-04-1.87585E-03
 -1      5129-4.17667E-01 1.44490E+00-4.78234E-01 8.57280E-01 8.15835E-02-1.77845E-01
 -1      5130 4.26900E-01-1.08469E+00 2.83199E-01-1.57577E-01 6.34838E-03 5.79923E-03
 -1      5131-5.81664E-01 1.29639E+00-3.05873E-01 4.51004E-01-6.58668E-03 1.56652E-02
 -1      5132 1.63140E-01 3.86795E-02-1.05298E-01-5.64225E-01-2.02775E-02 7.99253E-03
 -1      5133 2.81169E-01-7.32900E-01 3.01476E-01-4.89541E-01-1.61716E-01-1.33035E-01
 -1      5134 8.24682E-01-9.71590E-01 4.88747E-02 2.83291E-01-1.63053E-02-6.60107E-03
 -1      5135-7.90295E-02-9.08891E-01 7.05634E-01-7.96235E-01 1.67281E-01 4.94902E-03
 -1      5136-4.14549E-01 9.30791E-01-2.20232E-01 2.93408E-03-1.00922E-03 3.50397E-04
 -1      5137 1.80125E-01-5.12679E-01 1.42201E-01 4.29673E-02 5.98879E-04-4.27041E-04
 -1      5138 4.85320E-01-1.48390E+00 5.16759E-01 5.09334E-01-1.25022E-01-3.31162E-01
 -1      5139-5.47278E-01 1.34259E+00-3.40433E-01-4.47425E-01 9.16904E-02-2.41320E-02
 -1      5140-6.79551E-01 1.73132E+00-4.40920E-01 5.50318E-01 4.94184E-02-3.12420E-03
 -1      5141-2.99996E-01 1.39438E+00-6.30230E-01 6.25679E-01 4.99460E-01-9.57853E-02
 -1      5142 1.07908E+00-1.11914E+00-1.28879E-01-1.47847E+00 8.11166E-02-1.12666E-01
 -1      5143 3.13125E-01-4.34253E-01 4.62998E-02-5.37291E-01-1.90014E-03 1.37925E-03
 -1      5144-1.04137E-01 9.02934E-01-3.16211E-01 8.06372E-01-5.14177E-03 2.13289E-04
 -1      5145-1.45618E-01 7.63758E-01-2.61893E-01 5.46649E-01-6.64788E-03 1.89932E-03
 -1      5146 1.85037E-01-5.19165E-01 1.42696E-01 1.03385E-01 1.15321E-03 4.59798E-04
 -1      5147-2.15716E-01 6.58866E-01-1.85451E-01-4.25397E-01 2.49635E-03-5.06425E-03
 -1      5148 6.86940E-01-1.71230E+00 4.58116E-01-3.75253E-02-9.93286E-02-1.74494E-02
 -1      5149-4.72847E-01 2.08116E-01 1.27460E-01-6.70133E-01 1.42488E-02-7.96027E-03
 -1      5150 2.97225E-02 1.98468E-01-7.55613E-02-1.89011E-01 2.56285E-02-7.18973E-03
 -1      5151-3.38875E-01-1.63943E-01 2.16468E-01-6.17008E-01 3.00001E-03 3.19542E-03
 -1      5152-6.79074E-01 1.36871E+00-2.86303E-01 3.54119E-01-4.87491E-03-4.74865E-03
 -1      5153-8.00617E-01 2.36770E-01 2.64176E-01-4.00431E-01 7.43439E-03-7.86852E-03
 -1      5154 8.45304E-01-1.22776E+00 1.61495E-01 1.43461E-01-2.86976E-03-8.50574E-03
 -1      5155-9.15215E-02 3.66674E-01-1.19984E-01-7.77400E-01 3.73823E-03 9.36844E-04
 -1      5156 5.32449E-01-1.10470E+00 2.44008E-01 1.13881E-01 1.07420E-03 1.02365E-03
 -1      5157 1.03616E+00-1.69980E+00 2.84536E-01 1.01478E-01 1.35895E-02 1.41383E-03
 -1      5158-7.47161E-01 1.23660E+00-4.93719E-01-6.89200E-01-5.87454E-02 1.17767E-02
 -1      5159 1.92603E-01-5.03180E-01 1.32306E-01-4.22343E-02 5.31330E-04 2.24508E-03
 -1      5160 3.99842E-01-8.69349E-01 2.00090E-01 4.70991E-02-2.02875E-03 3.73981E-03
 -1      5161 2.42382E-01-7.13247E-01 2.00920E-01-6.82854E-03 1.33605E-03 1.96838E-03
 -1      5162 8.48325E-01-1.81006E+00 4.12217E-01 3.71534E-01-3.82921E-02-6.65813E-03
 -1      5163-3.36616E-01 4.48322E-01-5.96174E-02-3.15406E-01 3.15480E-01-2.08236E-01
 -1      5164-5.83309E-01 1.09354E+00-2.20987E-01 2.71367E-01 5.58933E-03-8.66305E-03
 -1      5165 9.02183E-01-1.98098E+00 4.73915E-01-1.33574E-01 3.22399E-02 1.71142E-02
 -1      5166 4.53053E-01-1.09601E+00 2.76311E-01-6.05361E-01-9.28839E-02-3.62461E-02
 -1      5167-2.50124E-01 6.29402E-01-1.66180E-01-8.69638E-01 2.10614E-02-1.35631E-02
 -1      5168-2.54771E-01 6.48279E-01-1.69680E-01-6.80032E-01 1.00621E-03-3.90694E-02
 -1      5169 1.92928E-01-1.49434E+00 5.90475E-01 9.26565E-01-4.64039E-01 2.06394E-02
 -1      5170 5.40423E-01-1.79502E-01-1.69406E-01-1.63113E-01-2.23299E-02-8.03017E-03
 -1      5171-1.83470E-01 7.51298E-01-2.44225E-01-5.09465E-01-7.31204E-03 7.36610E-03
 -1      5172 7.45320E-01-1.40766E+00 2.81532E-01 2.87538E-01 4.22600E-03-9.81519E-04
 -1      5173-1.12886E+00 1.39028E+00-8.13622E-02-3.69830E-01-1.02861E-02-2.88019E-02
 -1      5174 1.84804E-01-9.53762E-01 3.30162E-01-1.48139E-01-6.95593E-03 2.69862E-02
 -1      5175-5.00764E-01 1.40576E+00-3.82834E-01 7.32967E-01 1.41450E-03 1.32363E-03
 -1      5176-3.56773E-01 1.00342E+00-2.76473E-01 4.98029E-01-8.54043E-03 6.88769E-03
 -1      5177 3.84494E-01-1.04526E+00 3.61604E-01 5.74728E-02-4.29586E-01-2.30088E-01
 -1      5178 1.27901E-01-6.78386E-01 2.33814E-01 4.60286E-01 8.13376E-03-8.98182E-04
 -1      5179-2.83088E-01 8.07865E-01-2.26065E-01 2.99370E-01-2.56556E-03-7.05260E-04
 -1      5180 8.41747E-01-1.58002E+00 3.12639E-01-1.68671E-01 9.36166E-03 1.44508E-02
 -1      5181 2.07514E-01-5.49222E-01 1.47372E-01-1.73398E-01 1.54031E-03 1.60515E-03
 -1      5182-8.08307E-01 1.76013E+00-5.09928E-01 6.51389E-01-1.35223E-01-7.04901E-02
 -1      5183-5.84806E-01 1.24434E+00-2.87883E-01 3.05570E-01-4.44100E-03 1.60122E-02
 -1      5184 2.71335E-01 4.13128E-01-2.55148E-01-6.94891E-01 2.68169E-02-1.00442E-01
 -1      5185-9.04217E-01 2.54429E-01 2.53275E-01-2.92852E-01 2.51660E-02-9.29381E-02
 -1      5186-9.75526E-01 1.17353E+00-1.48539E-02-7.00638E-01 2.72012E-02 1.87313E-02
 -1      5187-1.83164E+00 1.61976E+00-2.15849E-03-7.99661E-01 9.80553E-02 1.22619E-01
 -1      5188-5.60091E-01 2.51243E+00-4.40173E-01 1.75320E+00 4.63188E-01 1.42471E-01
 -1      5189-3.70297E-01 8.37764E-01-3.83813E-01 4.30921E-01-2.06810E-01-1.85184E-01
 -1      5190-1.68625E+00 1.74572E+00-9.55340E-02 2.39146E-01 7.01953E-02-3.90600E-02
 -1      5191-5.02796E-01 1.07634E+00-3.12138E-01 1.16610E-01-3.57058E-02 2.73508E-02
 -1      5192-9.83060E-01 2.36707E+00-3.18043E-01 6.70897E-01 4.01527E-01 5.54809E-03
 -1      5193-1.07228E+00 1.47715E+00-1.43777E-01 1.00004E-01-5.48795E-02-1.13899E-01
 -1      5194-6.97172E-01 1.72839E+00-5.85252E-01-1.07676E-01-2.24374E-01-1.57648E-01
 -1      5195 1.49595E+00-4.17465E-01-1.60181E-01-2.18883E+00-4.59838E-02-4.62298E-02
 -1      5196 2.36826E-01-1.81093E-01-1.16914E-01-1.32072E+00 8.20054E-02 1.12396E-02
 -1      5197 2.25602E-01-1.28984E+00 1.04225E+00 5.89705E-02 3.45488E-01-1.63356E-01
 -1      5198 1.27572E+00-3.21161E+00 5.52638E-01-1.94112E-01-5.16058E-01 1.18134E-01
 -1      5199-1.89332E-01-8.60820E-01 6.36255E-01 8.91522E-02 4.94172E-01-2.74886E-01
 -1      5200 1.98142E+00-2.16369E+00 1.79966E-01-9.61551E-02-1.99332E-01-2.22266E-01
 -1      5201 8.22266E-01-1.62037E+00 7.00388E-02-2.06319E-01 4.65320E-02-7.05795E-02
 -1      5202-7.30969E-03 6.19552E-01-2.65564E-01-6.04943E-01-8.69048E-03 1.47767E-02
 -1      5203 1.25690E-01 5.25708E-01-3.35512E-01-6.54808E-01-4.93718E-03 3.00976E-02
 -1      5204 9.99751E-02 4.93152E-01-1.89628E-01-6.83166E-01 2.93272E-02-1.12878E-01
 -1      5205-1.42627E-01 7.62569E-01-2.65126E-01-4.77111E-01-4.63051E-03 6.51605E-03
 -1      5206-6.63998E-02 6.87947E-01-2.68537E-01-5.41620E-01-8.25802E-03 9.48400E-03
 -1      5207-1.34290E-01 6.75839E-01-2.36707E-01-5.69865E-01-1.07753E-02 9.87212E-03
 -1      5208-3.06090E-01 8.78395E-01-2.44833E-01-2.80184E-01-2.42918E-03 3.83874E-03
 -1      5209-2.53232E-01 8.36736E-01-2.50282E-01-3.83329E-01-3.27196E-03 2.14540E-03
 -1      5210-2.98655E-01 8.33869E-01-2.28952E-01-4.13354E-01-5.81093E-03 4.76826E-03
 -1      5211-3.16966E-01 8.82875E-01-2.43179E-01-1.41257E-01-1.56104E-03 5.37297E-04
 -1      5212-3.25904E-01 8.73712E-01-2.33750E-01-3.44203E-02-1.52717E-03 2.09135E-04
 -1      5213-4.31854E-01 9.42130E-01-2.17913E-01-1.47045E-01-5.42519E-04-1.84040E-03
 -1      5214-3.11141E-01 8.41267E-01-2.26825E-01 6.98200E-02-3.41391E-03 1.92115E-03
 -1      5215-2.09242E-01 7.12790E-01-2.17064E-01 2.71897E-01-5.14432E-03-3.05415E-04
 -1      5216-2.45193E-01 7.69957E-01-2.27044E-01 2.03830E-01-2.91645E-03-1.19443E-03
 -1      5217-3.12353E-01 8.42343E-01-2.29047E-01 1.80988E-01-3.32409E-03 7.48445E-05
 -1      5218-4.34635E-01 9.45436E-01-2.22729E-01 1.26941E-01-3.88443E-03 2.89122E-03
 -1      5219-3.59398E-01 8.81298E-01-2.23396E-01 2.70005E-01-2.93424E-03-6.27170E-04
 -1      5220-1.29358E-01 6.61382E-01-2.28788E-01 4.01450E-01-4.44109E-03-1.31285E-03
 -1      5221-1.78269E-01 7.03034E-01-2.23885E-01 3.36269E-01-4.11012E-03 1.87683E-03
 -1      5222-2.52847E-01 7.95762E-01-2.32922E-01 3.66571E-01-1.36723E-03 1.61649E-03
 -1      5223-5.93663E-03 6.03397E-01-2.49511E-01 5.47919E-01-7.92875E-03-2.34145E-03
 -1      5224-8.27798E-02 6.41720E-01-2.36474E-01 4.63339E-01-4.74732E-03 6.47584E-04
 -1      5225-1.86111E-01 7.75859E-01-2.52633E-01 4.81304E-01-3.76128E-03 3.86928E-03
 -1      5226 1.27614E-01 6.33797E-01-3.15535E-01 7.57047E-01-1.07796E-02 2.28316E-03
 -1      5227 6.01613E-02 6.55566E-01-2.92588E-01 6.82358E-01-7.33144E-03-6.32298E-03
 -1      5228-1.14712E-01 8.20541E-01-2.98337E-01 6.75539E-01-8.45040E-03 2.54259E-03
 -1      5229 1.81446E-01 7.71841E-01-4.21599E-01 9.97873E-01-5.56546E-02-4.65223E-02
 -1      5230 1.95684E-01 7.93186E-01-3.80172E-01 9.39338E-01-8.37315E-03-4.97555E-02
 -1      5231-1.15036E-01 1.04674E+00-3.77110E-01 9.14002E-01 4.84016E-02 3.02575E-03
 -1      5232 1.69104E-01 7.45665E-01-5.01977E-01 8.88765E-01-1.88919E-01-1.94769E-01
 -1      5233 2.26192E-01 9.29079E-01-4.89500E-01 1.05992E+00 4.04432E-02-7.85399E-02
 -1      5234-2.51737E-01 1.38769E+00-4.07915E-01 1.00107E+00 3.31892E-02-7.42886E-02
 -1      5235 1.09277E-01 6.64398E-01-5.86069E-01 6.80221E-01-2.06932E-01-1.12833E-01
 -1      5236 2.18114E-01 6.74385E-01-4.24905E-01 8.23028E-01-1.13786E-01-1.73799E-01
 -1      5237-3.78037E-01 1.30114E+00-4.58461E-01 7.19926E-01 1.71371E-01-2.10717E-01
 -1      5238-2.32611E-01 5.70276E-01-5.83810E-01 2.92973E-02-4.29012E-01-1.76764E-01
 -1      5239-2.46471E-01 6.76951E-01-3.67929E-01 2.26003E-01-2.78895E-01-2.38333E-01
 -1      5240-4.18490E-01 1.33873E+00-5.14616E-01 2.98086E-01 2.85289E-01-2.24648E-01
 -1      5241-1.43304E-01 1.14517E-01-1.60540E-01-6.06411E-02-1.69070E-01-2.50482E-02
 -1      5242-2.75895E-01 4.35748E-02 6.02133E-02-7.65261E-02-2.12669E-01-1.00526E-01
 -1      5243-4.57974E-01 8.10292E-01-2.85103E-01-2.06197E-01 2.95905E-01-2.54465E-01
 -1      5244-3.13661E-02-1.32506E-02 3.59636E-02-2.81132E-01-3.94663E-02 2.41441E-02
 -1      5245-1.09221E-01 5.42085E-02-7.19932E-02-3.87266E-01-2.06826E-01 5.96946E-03
 -1      5246-2.32375E-01 2.95767E-01-5.65003E-02-6.01940E-01 1.42153E-01-7.27035E-02
 -1      5247 1.18796E-01-3.31886E-01 4.04283E-01 8.30885E-03 2.15649E-01-5.09243E-03
 -1      5248 2.19339E-01-2.57265E-01 7.48520E-02-2.84706E-01-5.49614E-02-1.42936E-02
 -1      5249 1.19605E-01-2.86510E-01 7.04172E-02-7.05293E-01-1.01321E-01-4.04749E-02
 -1      5250-6.74225E-02-3.66538E-01 4.55795E-01 4.41401E-01 1.85897E-01-9.38657E-02
 -1      5251 2.70191E-01-3.06425E-01 8.70381E-02 1.90411E-01 1.11324E-01 3.90585E-02
 -1      5252 2.88376E-01-7.60909E-01 3.14710E-01-2.06642E-01-2.94537E-01-9.45300E-02
 -1      5253-1.79546E-01-7.25053E-01 6.93828E-01 8.13796E-01 4.17391E-01-2.91611E-01
 -1      5254 1.02681E-01-6.70026E-01 4.87212E-01 6.02939E-01 3.41159E-01-1.54917E-01
 -1      5255 4.63255E-01-1.23392E+00 4.40857E-01 2.66682E-01-2.74697E-01-3.04364E-01
 -1      5256-2.58900E-01-9.67710E-01 5.03025E-01 1.09546E+00-1.59640E-01-1.77080E-02
 -1      5257-3.03706E-01-8.50865E-01 5.42355E-01 9.55839E-01 2.51236E-03-7.32431E-03
 -1      5258 2.42253E-01-1.55446E+00 5.53282E-01 8.74128E-01-2.01624E-01-2.53375E-01
 -1      5259-2.72712E-02-9.26144E-01 4.30978E-01 8.78669E-01 3.43567E-02-2.16476E-02
 -1      5260-1.29496E-01-1.08405E+00 5.40572E-01 1.11702E+00 9.39755E-02-7.22195E-02
 -1      5261 3.81557E-01-1.45521E+00 5.45833E-01 8.12910E-01-2.05817E-01-1.00051E-02
 -1      5262 4.23160E-04-6.76229E-01 2.83066E-01 6.37067E-01 1.99402E-03-4.03506E-03
 -1      5263-7.32330E-02-7.05182E-01 3.18709E-01 7.63894E-01 8.18915E-03 1.96249E-02
 -1      5264 3.28977E-01-1.26198E+00 3.88978E-01 8.48004E-01-6.05844E-02 1.55583E-02
 -1      5265 4.88291E-02-5.18868E-01 1.99680E-01 3.85197E-01 4.38621E-03-6.95599E-04
 -1      5266-1.17551E-02-5.44080E-01 2.34676E-01 4.91574E-01 1.18854E-02-5.35564E-03
 -1      5267 1.67037E-01-8.38431E-01 2.87330E-01 5.99420E-01 7.26918E-03 3.91952E-04
 -1      5268 1.47236E-01-5.02702E-01 1.50685E-01 1.98316E-01 1.10784E-03-3.77643E-04
 -1      5269 1.26323E-01-5.41386E-01 1.78216E-01 2.78310E-01 4.00872E-03-2.92384E-03
 -1      5270 2.06243E-01-7.07625E-01 2.15317E-01 3.46024E-01 3.30670E-03 2.89268E-03
 -1      5271 1.21885E-01-3.82309E-01 1.10591E-01 8.61423E-02-1.21709E-04 1.03339E-03
 -1      5272 1.19859E-01-4.13622E-01 1.25864E-01 1.34717E-01 1.04986E-03-1.03668E-03
 -1      5273 2.26356E-01-6.12947E-01 1.66671E-01 1.62013E-01 1.64438E-03-7.92423E-04
 -1      5274 1.23328E-01-3.72440E-01 1.06400E-01 3.05979E-02 1.26869E-03 6.12209E-05
 -1      5275 1.25380E-01-3.81634E-01 1.10544E-01 5.61104E-02 6.75316E-04-4.34118E-04
 -1      5276 1.81862E-01-5.15372E-01 1.42511E-01 7.07270E-02 8.99554E-04-4.83139E-04
 -1      5277 1.50128E-01-4.26697E-01 1.16744E-01-1.18539E-02 1.32475E-03 1.80169E-05
 -1      5278 1.40934E-01-4.04260E-01 1.12295E-01 1.48275E-02 1.09675E-03 3.77680E-04
 -1      5279 1.88999E-01-5.37361E-01 1.48961E-01 2.94972E-02-2.94364E-04-2.47871E-03
 -1      5280 1.40439E-01-4.32015E-01 1.24487E-01-9.55581E-02 4.48583E-03 2.17675E-03
 -1      5281 1.35800E-01-3.88502E-01 1.08190E-01-4.36995E-02 3.27454E-03 1.47831E-03
 -1      5282 2.00921E-01-5.33101E-01 1.44934E-01-1.01625E-02-5.32383E-05 7.61841E-04
 -1      5283 1.11864E-01-4.77917E-01 1.56390E-01-2.38004E-01 5.93508E-03 3.45987E-03
 -1      5284 1.40315E-01-4.52461E-01 1.33866E-01-1.57952E-01 5.71951E-03 2.09991E-03
 -1      5285 2.11303E-01-5.34060E-01 1.37233E-01-9.85492E-02 1.06930E-03-7.47776E-05
 -1      5286 6.69834E-02-4.98275E-01 1.84987E-01-3.95546E-01 3.17009E-03-3.32090E-04
 -1      5287 1.34510E-01-5.16196E-01 1.63502E-01-3.01223E-01 2.63880E-03 8.39107E-04
 -1      5288 2.40230E-01-5.98624E-01 1.54448E-01-2.37574E-01-2.68820E-03 1.49762E-03
 -1      5289-1.57152E-01-3.41242E-01 2.12910E-01-5.71845E-01-1.30110E-04 1.88628E-03
 -1      5290-3.82273E-02-4.23643E-01 1.98416E-01-5.15412E-01 3.06889E-03 1.71417E-03
 -1      5291 1.90444E-01-5.66306E-01 1.60407E-01-4.64157E-01 1.98338E-03-8.47704E-03
 -1      5292-4.57635E-01-1.20261E-01 2.48211E-01-5.88624E-01 1.68092E-03 6.87459E-03
 -1      5293-3.45189E-01-2.06394E-01 2.37206E-01-5.88568E-01 3.55427E-04 2.61975E-03
 -1      5294-1.38823E-01-3.06572E-01 1.89970E-01-6.08094E-01 1.22447E-03 1.63874E-03
 -1      5295-6.61027E-01 9.75582E-02 2.42395E-01-5.11869E-01 2.65683E-04 1.32052E-02
 -1      5296-5.67504E-01 1.14275E-02 2.37713E-01-5.66056E-01 1.26174E-03 8.78807E-03
 -1      5297-4.52957E-01-2.80631E-02 2.09432E-01-6.00787E-01 2.94068E-03 1.07094E-02
 -1      5298-8.49863E-01 2.14141E-01 3.26751E-01-3.44945E-01-1.01059E-02 1.98366E-02
 -1      5299-7.57409E-01 1.58338E-01 2.56869E-01-4.38132E-01 3.51441E-03 7.62159E-03
 -1      5300-6.86014E-01 1.83303E-01 2.30216E-01-4.82660E-01 4.42915E-03 2.29778E-03
 -1      5301-8.40639E-01 2.53591E-01 1.73628E-01-3.42485E-01 4.43103E-02-1.21431E-01
 -1      5302-4.83101E-01 7.71043E-01-8.67805E-02-6.84737E-01 6.32694E-03-6.28021E-02
 -1      5303-7.35568E-01 8.84692E-01-5.83323E-02-7.78962E-01-3.42397E-03-2.31047E-02
 -1      5304-9.39136E-01 1.13432E+00-8.71602E-02-4.64552E-01 1.13220E-02-2.17020E-02
 -1      5305-9.47354E-02 5.36032E-01-1.24485E-01-6.93460E-01 2.81101E-02-1.16681E-01
 -1      5306-2.54382E-01 5.80037E-01-9.64040E-02-7.34203E-01 1.44773E-02-8.46555E-02
 -1      5307-4.75702E-01 7.97825E-01-1.54364E-01-6.25455E-01-1.58659E-03-2.13570E-02
 -1      5308-1.57412E-02 5.20306E-01-1.89563E-01-6.92653E-01 2.60891E-02-8.25373E-02
 -1      5309-1.48194E-01 6.33531E-01-2.38115E-01-6.55980E-01-4.20007E-03-7.38363E-03
 -1      5310-7.59306E-01 2.71609E-01 1.73235E-01-3.96141E-01 4.20324E-02-7.56118E-02
 -1      5311-4.92328E-01 3.14271E-01 6.45473E-02-6.24113E-01 1.83010E-02-3.20828E-02
 -1      5312-5.94396E-01 2.71544E-01 9.93951E-02-5.21677E-01 2.93765E-02-6.75186E-02
 -1      5313-5.29530E-01 1.52277E-01 1.83415E-01-6.16087E-01 4.42338E-03 1.19454E-02
 -1      5314-6.39691E-01 2.28512E-01 1.41890E-01-4.83288E-01 2.81185E-02-4.95490E-02
 -1      5315-1.15279E-01 2.59117E-01-4.50238E-02-1.05225E+00 7.31665E-03 5.72594E-02
 -1      5316-2.66378E-01 1.83137E-01-3.62112E-03-8.22220E-01 3.37335E-02-2.73338E-02
 -1      5317-2.28588E-01 5.85575E-02 7.51712E-02-8.41800E-01 2.04859E-02-1.46310E-02
 -1      5318 5.70284E-01-5.64895E-01-4.85322E-02-1.32188E+00 6.35854E-02-7.95278E-02
 -1      5319 5.03256E-01-1.35315E+00 3.33226E-01 2.68321E-01 2.28935E-02-1.25995E-02
 -1      5320 5.87792E-01-2.11777E+00 6.29540E-01 5.83114E-01 5.25038E-02-6.04686E-02
 -1      5321 5.45067E-01-1.87433E+00 5.98308E-01-4.25858E-01-1.87879E-02 8.92585E-02
 -1      5322 7.26453E-01-4.54615E-01-1.24834E-01-9.95610E-02 5.06523E-03-1.47440E-02
 -1      5323 5.48924E-01-7.24977E-01 6.29180E-02 2.95622E-01 3.00935E-03-9.52408E-03
 -1      5324 1.02063E+00-1.44283E+00 1.51037E-01 2.51874E-01-1.52086E-02 5.65584E-03
 -1      5325 7.01240E-01-1.24820E+00 2.30082E-01 2.77443E-01-6.08434E-02 3.16598E-02
 -1      5326 1.05496E+00-1.84692E+00 3.64176E-01 1.26940E-02 4.41906E-02 2.56606E-02
 -1      5327 7.03000E-01-1.10562E-01-2.78471E-01-3.44943E-01 1.08520E-02 1.76869E-02
 -1      5328 5.95260E-01-1.01832E-01-2.41091E-01-2.87221E-01 5.27144E-03 4.96576E-03
 -1      5329 6.71814E-01-5.45595E-01-4.89115E-02 6.53081E-02-2.63444E-02 1.44693E-02
 -1      5330 2.63592E-01 3.31115E-02-1.40965E-01-4.94152E-01 2.38243E-02 2.51318E-02
 -1      5331 5.45250E-01-4.88276E-02-2.21829E-01-5.18196E-01-5.78076E-03 3.24524E-02
 -1      5332 3.41183E-01-4.87456E-02-1.22479E-01-3.61997E-01-1.17928E-02-1.98466E-02
 -1      5333-1.74320E-01 1.19319E-01 3.68260E-02-1.50440E-01 1.86600E-02 1.74400E-02
 -1      5334 7.74572E-02 3.04976E-02-2.25549E-02-2.91386E-01-7.46036E-03 3.39244E-02
 -1      5335 1.32261E-01 4.50919E-02-7.38488E-02-5.45138E-01 5.50656E-03 5.17789E-02
 -1      5336 1.15146E-01 9.32855E-02-9.53031E-02-7.09427E-01-2.06657E-02-6.92105E-03
 -1      5337 5.36045E-02 1.83540E-01-8.88482E-02-4.88645E-01 2.33379E-02-1.89749E-02
 -1      5338-1.55002E-01 6.40878E-01-1.37679E-01 5.73544E-01-4.69464E-02-4.07386E-02
 -1      5339-2.44476E-01 3.92851E-01-2.96785E-02 2.68665E-01-1.22868E-02-5.08815E-03
 -1      5340-2.04816E-01 4.92677E-01-1.39628E-01 2.08216E-01-2.62338E-02-6.34591E-02
 -1      5341-6.18193E-01 1.24644E+00-3.20031E-01 7.04492E-01-3.90883E-02 2.80548E-02
 -1      5342 4.08183E-01-5.09480E-01 3.75624E-02-3.23788E-01-1.21568E-02-8.85538E-04
 -1      5343 4.94468E-01-8.43530E-01 1.46276E-01-3.51425E-01-9.30239E-03 2.38652E-03
 -1      5344 5.88481E-01-9.36436E-01 1.46650E-01-1.54473E-01-5.60044E-03 3.99394E-04
 -1      5345 6.82649E-01-8.98929E-01 8.93841E-02 1.87397E-02-1.32625E-02-8.43263E-03
 -1      5346 7.47083E-01-1.22916E+00 2.09699E-01-8.80735E-03-5.41470E-03-3.78068E-03
 -1      5347 2.90214E-01-4.86892E-01 8.19747E-02-6.41470E-01-4.97628E-03-4.29439E-03
 -1      5348 4.51135E-01-9.05047E-01 1.86532E-01-4.78579E-01-2.31657E-03 4.18756E-03
 -1      5349 3.52579E-01-8.17928E-01 2.13799E-01-6.92067E-01-2.68600E-02-1.74902E-02
 -1      5350 5.60524E-01-1.21693E+00 2.86821E-01-4.04117E-01-4.09913E-02-1.57642E-02
 -1      5351 8.17236E-01-1.48371E+00 2.84974E-01 8.28767E-02-2.54321E-03 6.94184E-03
 -1      5352 9.03883E-01-1.43263E+00 2.22220E-01 2.04464E-01 1.02896E-03-1.91182E-03
 -1      5353 7.79584E-01-1.57633E+00 3.41963E-01 9.19483E-02-3.19308E-02-2.75470E-03
 -1      5354 9.00009E-01-1.72682E+00 3.66063E-01 3.24592E-01-1.58091E-02-4.92242E-03
 -1      5355 6.75375E-01-1.50244E+00 3.73988E-01-1.05356E-01-5.09677E-02-5.22285E-03
 -1      5356 7.66759E-01-1.78394E+00 4.38482E-01 1.77554E-01-7.29035E-02-1.50821E-02
 -1      5357 5.69252E-01-1.38889E+00 3.53806E-01-3.36455E-01-9.64212E-02-3.07185E-02
 -1      5358-1.97236E-01 5.15054E-01-1.30681E-01-8.12760E-01 5.05864E-03 9.05629E-03
 -1      5359-7.50247E-02 2.82676E-01-8.50120E-02-8.60424E-01-1.55791E-03 5.02322E-03
 -1      5360-2.08547E-01 5.89516E-01-1.68571E-01-7.37174E-01 3.18367E-03-1.00613E-04
 -1      5361-3.06096E-01 7.50424E-01-1.84064E-01-7.72754E-01 1.67743E-02-4.43420E-03
 -1      5362-1.46802E-01 3.83716E-01-1.03089E-01-8.85634E-01 7.75980E-03 4.06902E-03
 -1      5363-4.65168E-01 1.13832E+00-2.84994E-01-3.45656E-01 1.04305E-02 9.80454E-03
 -1      5364-5.61744E-01 1.43486E+00-3.70319E-01-2.53707E-01 3.11979E-02 3.20232E-03
 -1      5365-4.50546E-01 1.12251E+00-2.84089E-01-5.63424E-01 3.55133E-02 6.54759E-03
 -1      5366-2.83789E-01 7.73530E-01-2.04958E-01-5.57795E-01 8.44311E-03-2.64852E-03
 -1      5367-4.16742E-01 1.05270E+00-2.74259E-01-2.20375E-01 4.80715E-03-4.71036E-03
 -1      5368-4.08677E-01 1.03228E+00-2.57525E-01-6.99457E-01 3.19766E-02-1.29440E-02
 -1      5369-1.41628E-01 5.01681E-01-1.53629E-01-6.23964E-01-4.99323E-04 4.12132E-03
 -1      5370 9.15444E-01-1.58541E+00 2.82574E-01 5.99929E-02 2.89064E-03 2.42678E-03
 -1      5371 1.01321E+00-1.66558E+00 2.85943E-01 1.93932E-01 4.14502E-03 1.34526E-03
 -1      5372 8.94817E-01-1.56588E+00 2.86650E-01 1.73565E-01-2.76125E-03-9.36875E-04
 -1      5373 8.56601E-01-1.52972E+00 2.86223E-01 2.89035E-01 3.80558E-03-3.26101E-03
 -1      5374 7.66007E-01-1.42782E+00 2.83089E-01 1.73239E-01 2.45815E-03-6.92780E-04
 -1      5375 6.49394E-01-1.27846E+00 2.68776E-01 7.57528E-02 4.35547E-03-8.75632E-04
 -1      5376 4.95429E-01-1.10475E+00 2.62935E-01-1.76233E-02 4.18401E-03 8.08401E-03
 -1      5377 6.11056E-01-1.28397E+00 2.88789E-01-7.21238E-02 5.39167E-03 4.93126E-03
 -1      5378 6.15507E-01-1.32897E+00 3.06829E-01-1.71466E-01 2.49963E-03 1.47921E-02
 -1      5379 8.28717E-01-1.52052E+00 2.98316E-01-5.26891E-02-8.08971E-04 6.97199E-03
 -1      5380 6.45005E-01-1.26264E+00 2.64928E-01 2.00486E-01 1.01962E-03-2.07578E-03
 -1      5381 9.57067E-01-1.66392E+00 2.98924E-01-3.83596E-02 1.18690E-02 6.98612E-03
 -1      5382-7.74969E-01 1.54680E+00-3.34007E-01 4.27339E-01-7.69743E-03 5.57900E-03
 -1      5383-7.12543E-01 1.42738E+00-3.01332E-01 3.64477E-01-2.34174E-03 1.03141E-02
 -1      5384-6.50471E-01 1.47166E+00-3.43789E-01 4.85846E-01-6.76879E-03 8.30611E-03
 -1      5385-7.20127E-01 1.51035E+00-3.25012E-01 4.04009E-01-9.85841E-03-1.24830E-03
 -1      5386-7.85952E-01 1.52201E+00-3.06778E-01 3.85303E-01-1.94001E-02-1.03595E-02
 -1      5387-6.85112E-01 1.65561E+00-4.14315E-01 5.28708E-01 9.70562E-03-9.65000E-05
 -1      5388-6.86952E-01 1.65195E+00-4.09960E-01 2.62982E-01 2.69009E-02 1.26736E-02
 -1      5389-6.87357E-01 1.54798E+00-3.61341E-01 2.73915E-01-1.50085E-02 9.34740E-03
 -1      5390-6.45979E-01 1.38013E+00-3.08840E-01 1.78821E-01 2.64391E-03-4.18675E-04
 -1      5391-5.48822E-01 1.35985E+00-3.49078E-01 6.01853E-01-3.35361E-03 1.32395E-03
 -1      5392-6.18217E-01 1.52055E+00-3.80784E-01 5.99595E-01-8.36387E-03-4.36813E-03
 -1      5393-5.98501E-01 1.61494E+00-4.19127E-01 6.67551E-01 4.77747E-03-6.29857E-03
 -1      5394 3.17791E-01-8.24046E-01 2.14848E-01 1.87660E-02-5.66731E-03 6.73775E-03
 -1      5395 2.33161E-01-6.87265E-01 2.00917E-01 5.75138E-03-2.07270E-03-1.08947E-03
 -1      5396 2.83931E-01-7.11284E-01 1.79666E-01 2.49271E-02-4.64998E-03 1.05665E-02
 -1      5397 2.44522E-01-7.54482E-01 2.18235E-01-1.51725E-02-1.07977E-03 3.65889E-03
 -1      5398 2.16814E-01-6.34288E-01 1.79042E-01 1.47375E-02-7.57256E-05 1.22951E-03
 -1      5399 3.04795E-01-9.07688E-01 2.56455E-01-8.96899E-02 6.68636E-05 5.43537E-03
 -1      5400 3.23094E-01-8.76973E-01 2.35918E-01-7.03205E-02 1.90649E-03 3.79547E-03
 -1      5401 2.31858E-01-8.78915E-01 2.79345E-01-6.82322E-02-1.15595E-02 1.95079E-02
 -1      5402 3.02025E-01-1.02363E+00 2.97288E-01-1.77284E-01 3.92353E-03 2.45146E-02
 -1      5403 2.41863E-01-8.74656E-01 2.65475E-01-1.37117E-02-4.30399E-05-2.91277E-03
 -1      5404-5.06387E-01 1.06077E+00-2.41895E-01 3.24240E-01 3.75969E-03 1.22528E-03
 -1      5405-5.09291E-01 1.01952E+00-2.18909E-01 2.59611E-01 6.94471E-03-5.79104E-04
 -1      5406-4.41294E-01 9.83549E-01-2.37433E-01 3.11929E-01 3.02978E-03 3.54524E-03
 -1      5407-3.71909E-01 9.27717E-01-2.41632E-01 3.56936E-01-1.45905E-03 2.25191E-03
 -1      5408-5.94046E-01 1.11244E+00-2.09577E-01 3.16908E-01 1.84452E-02 7.64874E-03
 -1      5409-6.76384E-01 1.17496E+00-2.01226E-01 2.88589E-01 1.40064E-02-1.55855E-02
 -1      5410-6.46812E-01 1.19336E+00-2.14183E-01 3.01376E-01 7.72707E-03 9.17264E-03
 -1      5411-5.37124E-01 1.14348E+00-2.72257E-01 3.39584E-01-3.26348E-03 1.72314E-02
 -1      5412-3.47579E-01 9.28659E-01-2.48537E-01 4.11131E-01-4.01468E-04 3.22446E-03
 -1      5413-2.90384E-01 8.99867E-01-2.58178E-01 4.63328E-01-4.42974E-03 3.65860E-03
 -1      5414-4.10901E-01 1.02942E+00-2.64401E-01 4.35160E-01-3.97448E-03 6.36604E-03
 -1      5415-4.68597E-01 1.15228E+00-2.93562E-01 4.86417E-01-1.08934E-02 8.90842E-03
 -1      5416-5.13853E-01 1.16122E+00-2.77977E-01 4.11597E-01-5.04368E-03 9.90060E-03
 -1      5417-5.75277E-01 1.27279E+00-2.99549E-01 3.66679E-01-2.00028E-03 2.18687E-02
 -1      5418 4.83722E-01-8.43843E-01 1.49335E-01-2.02025E-01-6.16757E-03 1.87244E-03
 -1      5419 3.10288E-01-6.84627E-01 1.58745E-01-1.88599E-01-3.20442E-03 9.29850E-03
 -1      5420 4.36235E-01-7.90521E-01 1.48284E-01-3.41912E-01-6.92869E-03-8.54277E-03
 -1      5421 5.64672E-01-9.60245E-01 1.76922E-01-1.51653E-01-5.92030E-03 3.87113E-03
 -1      5422 4.06158E-01-7.98627E-01 1.75853E-01-1.75252E-02-3.74337E-03 7.02685E-04
 -1      5423 8.45214E-01-1.14336E+00 7.21929E-02-7.52733E-01 9.84908E-03-5.25926E-02
 -1      5424 8.52565E-01-1.07268E+00 1.62235E-01-1.92247E-01-4.08546E-02 2.04862E-02
 -1      5425 5.73072E-01-1.04723E+00 1.94956E-01 5.88401E-02-4.36670E-02 1.82054E-02
 -1      5426 3.74246E-01-6.93059E-01 1.46046E-01-5.29700E-01 5.26916E-03-1.19495E-02
 -1      5427 1.09517E-01-3.99662E-01 1.16818E-01-7.83738E-01 1.46342E-02-1.39215E-02
 -1      5428 4.37028E-01-7.12946E-01 1.02139E-01-7.36403E-01-9.11323E-05-2.91975E-02
 -1      5429-1.47411E-01 2.94185E-01-7.34554E-02-9.39579E-01 3.06966E-02-3.86064E-02
 -1      5430-1.94841E-01 3.82319E-01-6.30421E-02-8.06015E-01 6.55960E-02-1.42940E-01
 -1      5431-5.69430E-03-6.25069E-02 7.73236E-03-9.20336E-01-2.16579E-02-1.16116E-01
 -1      5432-9.77098E-02 2.11599E-01-5.63709E-02-9.54879E-01-3.54910E-03-5.65210E-03
 -1      5433-2.88829E-01 7.02561E-01-1.95169E-01-8.67835E-01 5.06699E-02-3.92791E-02
 -1      5434 1.61682E-01-4.04759E-01 1.02771E-01-8.69884E-01-9.81315E-03-1.41589E-02
 -1      5435 1.14541E-01-1.81943E-01 3.19353E-02-8.64510E-01-1.64675E-02-8.85264E-04
 -1      5436-9.50297E-03-2.88071E-02 1.84807E-02-9.37892E-01-1.68253E-02-1.10268E-03
 -1      5437 2.43952E-01-6.71126E-01 1.85877E-01-8.13933E-01-5.13792E-02-3.53436E-02
 -1      5438 1.99069E-01-5.37798E-01 1.17424E-01-7.87555E-01-1.08965E-01-6.04894E-02
 -1      5439 3.96760E-01-9.90130E-01 2.39340E-01-5.95456E-01-1.52973E-01-5.49064E-02
 -1      5440 5.10928E-01-1.31149E+00 3.44171E-01 6.40330E-01-1.13186E-02 1.21856E-02
 -1      5441 3.47639E-01-1.06037E+00 3.07062E-01 5.87482E-01 1.15121E-03 1.62556E-02
 -1      5442 6.08594E-01-1.35110E+00 3.16766E-01 5.11250E-01-5.96644E-05 2.37362E-03
 -1      5443 6.07899E-01-1.26143E+00 2.78315E-01 3.68087E-01 3.55521E-03-1.31122E-03
 -1      5444 7.58087E-01-1.50252E+00 3.21381E-01 4.21307E-01 1.68772E-03-4.33896E-03
 -1      5445 8.72458E-01-1.61901E+00 3.20047E-01 4.23149E-01 3.95259E-04-2.26183E-03
 -1      5446 9.71107E-01-1.64679E+00 2.80085E-01 2.96340E-01 8.15488E-04-3.07378E-03
 -1      5447 8.91396E-01-1.65808E+00 3.22095E-01 4.05012E-01-1.18432E-03-2.34833E-03
 -1      5448 8.28543E-01-1.74461E+00 3.88376E-01 4.90231E-01-2.75662E-02 3.16032E-03
 -1      5449 6.05421E-01-1.55477E+00 4.21315E-01 7.28061E-01-4.99206E-02 2.25478E-02
 -1      5450 6.65915E-01-1.71347E+00 4.41726E-01 6.55056E-01-7.68093E-02 2.62730E-02
 -1      5451 1.65283E-01-2.55087E-02-6.98042E-02-6.96509E-01-6.45244E-03 1.33280E-02
 -1      5452 4.61326E-02 1.00537E-01-6.70859E-02-7.66141E-01-1.62340E-03 5.87318E-04
 -1      5453-3.83626E-02 2.68133E-01-1.01424E-01-7.41363E-01 4.31331E-03-2.98207E-03
 -1      5454-6.59214E-03 1.89861E-01-7.81603E-02-7.95695E-01 4.09326E-03 1.11131E-03
 -1      5455 2.26970E-02 4.64338E-02-3.04627E-02-8.65329E-01-6.18564E-03 7.27893E-03
 -1      5456 1.75128E-01-2.50565E-01 4.13227E-02-7.65218E-01-1.19570E-02 3.19330E-03
 -1      5457 1.90498E-01-2.34512E-01 1.75265E-02-6.73165E-01 1.98971E-03 5.27819E-03
 -1      5458 2.27338E-01-1.81224E-01-2.59443E-02-5.50311E-01-1.07250E-02 2.01345E-02
 -1      5459-5.52512E-01 1.03088E+00-2.01642E-01 1.05397E-04-2.35428E-03-1.60774E-03
 -1      5460-5.81069E-01 1.05100E+00-2.01284E-01 1.33192E-01 4.76276E-03-2.83010E-03
 -1      5461-6.56672E-01 1.12226E+00-2.03637E-01 1.36597E-01 5.73382E-03-2.41925E-03
 -1      5462-8.51777E-01 1.27631E+00-1.82182E-01 1.69330E-01 3.62969E-02 2.69478E-04
 -1      5463-9.08321E-01 1.23222E+00-1.49909E-01-2.11801E-01-4.67694E-03-3.74906E-02
 -1      5464-7.37575E-01 1.09952E+00-1.45316E-01-2.84769E-01-6.87613E-03-1.37632E-02
 -1      5465-5.51924E-01 9.66706E-01-1.74419E-01-4.03042E-01-5.68885E-03-1.06940E-02
 -1      5466-5.82722E-01 1.02333E+00-1.91053E-01-1.78271E-01-1.34704E-03-8.78139E-04
 -1      5467 1.05540E+00-1.61479E+00 2.50185E-01 2.16702E-01 1.61498E-02-1.36271E-02
 -1      5468 9.71746E-01-1.30221E+00 1.35078E-01 2.50453E-01 2.57500E-03-6.85678E-03
 -1      5469 1.05421E+00-1.66006E+00 2.62665E-01 1.93599E-01 9.87331E-03-6.47226E-03
 -1      5470 1.05411E+00-1.71362E+00 2.82859E-01 1.10581E-01 2.45129E-02-3.52957E-03
 -1      5471 9.91459E-01-1.57335E+00 2.54977E-01 2.69132E-01-7.15599E-03-2.21473E-03
 -1      5472 1.01738E+00-1.63600E+00 2.66463E-01 2.52238E-01-4.02840E-03-2.28085E-03
 -1      5473 9.59774E-01-1.43166E+00 2.03389E-01 2.10390E-01-3.95864E-03-2.47484E-03
 -1      5474 8.44879E-01-1.09641E+00 1.05083E-01 2.10907E-01 4.51461E-03-1.51888E-02
 -1      5475-6.23251E-01 1.60934E+00-3.99712E-01 4.11882E-02 2.00327E-01-2.44670E-02
 -1      5476-5.52649E-01 1.38117E+00-2.98783E-01-2.92408E-01 2.05530E-01-1.91493E-02
 -1      5477-6.20056E-01 1.59364E+00-4.19479E-01-1.27455E-01 1.19190E-01-1.98262E-02
 -1      5478-5.04419E-01 1.55654E+00-4.93024E-01 4.07217E-01 3.31602E-01 2.17870E-02
 -1      5479-6.56680E-01 1.64840E+00-4.40448E-01 9.48408E-02 6.08347E-02-7.36963E-03
 -1      5480-6.79264E-01 1.80671E+00-4.62090E-01 3.88179E-01 9.58565E-02-1.86605E-02
 -1      5481-5.61887E-01 1.70210E+00-4.01494E-01 7.42312E-01 6.42240E-02 2.40297E-02
 -1      5482-5.66715E-01 1.66963E+00-4.43812E-01 5.47751E-01 1.38673E-01 2.57857E-02
 -1      5483-4.93249E-01 1.18007E+00-2.91010E-01 1.62612E-02 1.01551E-02-2.38386E-03
 -1      5484-2.87581E-01 7.74608E-01-2.06778E-01-1.83590E-01 7.19259E-04-1.90505E-03
 -1      5485-5.30800E-01 1.12800E+00-2.56178E-01 2.26414E-01 1.16903E-04 2.56525E-03
 -1      5486-1.78466E-01 5.51270E-01-1.55920E-01-6.02984E-02 1.44005E-02 4.93546E-03
 -1      5487-4.09842E-01 9.09991E-01-2.16815E-01 3.08053E-01-4.40484E-03-2.69078E-02
 -1      5488-5.99227E-01 1.20999E+00-2.62070E-01 4.40217E-01-8.89507E-03-1.70362E-02
 -1      5489-1.21197E-01 4.55345E-01-1.34072E-01-3.20982E-01 7.77012E-03 3.39218E-04
 -1      5490-4.07084E-01 2.51350E-02 1.70697E-01-6.54587E-01 5.41021E-03 5.71681E-03
 -1      5491-3.36095E-01 5.89012E-02 1.21141E-01-7.16966E-01 1.25634E-02-2.64994E-03
 -1      5492-2.83370E-01-1.45281E-01 1.81416E-01-6.80725E-01 5.93090E-03 1.46353E-03
 -1      5493-7.04665E-02-1.48513E-01 9.65532E-02-8.50764E-01 1.24804E-02-1.04973E-02
 -1      5494-6.11919E-02-3.19852E-01 1.52717E-01-6.67775E-01 1.25577E-02 1.12386E-03
 -1      5495 2.99641E-01-7.54715E-01 1.95865E-01 1.23089E-01 2.53916E-03 8.51388E-04
 -1      5496 2.46397E-01-6.45124E-01 1.71197E-01 7.04771E-02 1.86945E-03 1.20868E-03
 -1      5497 4.17977E-01-9.35291E-01 2.22077E-01 6.55122E-02-2.59510E-03 2.23569E-03
 -1      5498 3.99903E-01-9.10183E-01 2.18220E-01 1.76881E-01 2.51411E-03 9.35594E-04
 -1      5499 3.77516E-01-9.26204E-01 2.36839E-01-4.53733E-02 2.27630E-03 4.03897E-03
 -1      5500 2.72893E-01-7.44487E-01 2.01514E-01 7.82231E-03 2.27437E-03-2.60094E-03
 -1      5501 2.34217E-01-6.39338E-01 1.72089E-01 3.85583E-02 7.87241E-04 3.31012E-04
 -1      5502 2.13373E-01-6.11966E-01 1.71597E-01 2.05578E-02 9.62979E-04 2.93882E-04
 -1      5503 3.35171E-01-2.53082E-01-3.22052E-02-3.33646E-01-3.19008E-02 8.44395E-03
 -1      5504 5.53571E-01-3.98268E-01-7.61250E-02-1.58206E-01-2.30914E-02-1.05041E-02
 -1      5505 6.59548E-01-7.36053E-01 2.88119E-02 6.51929E-02-1.74105E-02-1.28517E-02
 -1      5506 4.74201E-01-1.23422E+00 3.36160E-01-2.47702E-01 1.65659E-02 9.50829E-03
 -1      5507 3.17892E-01-1.16462E+00 3.54191E-01-2.58687E-01 1.06316E-02 3.87020E-02
 -1      5508 6.75011E-01-1.50543E+00 3.46099E-01-2.87805E-01 2.64322E-02 2.38531E-02
 -1      5509 3.04646E-01-1.34759E+00 4.93119E-01-3.78081E-01 5.23363E-02 9.19542E-02
 -1      5510 7.03644E-01-1.76094E+00 4.63154E-01-3.25062E-01 7.04570E-02-1.77093E-02
 -1      5511 1.74679E-01-1.11011E+00 4.48976E-01-2.02861E-01-1.00161E-02 9.90572E-02
 -1      5512 8.63459E-01-1.76475E+00 4.01226E-01-1.73890E-01 3.92307E-02-1.93299E-02
 -1      5513 5.32076E-01-1.65217E+00 4.79910E-01 7.36298E-01-1.51549E-01 1.95994E-02
 -1      5514 7.51508E-01-1.78313E+00 4.34701E-01 4.60273E-01-9.20577E-02-9.83923E-03
 -1      5515 3.57904E-01-1.55575E+00 5.37784E-01 7.84641E-01-2.80096E-01 4.65693E-02
 -1      5516 6.92611E-01-1.77492E+00 4.67346E-01 2.58482E-01-1.37075E-01-3.09967E-03
 -1      5517 6.15142E-01-1.67717E+00 4.40573E-01 1.78386E-01-2.06511E-01 1.36320E-02
 -1      5518 5.53488E-01-1.71579E+00 4.67039E-01 4.90365E-01-2.27639E-01 2.46883E-02
 -1      5519-7.30545E-01 1.30814E+00-2.64197E-01 4.65232E-01-2.28317E-02-3.35597E-02
 -1      5520-9.25459E-01 1.80693E+00-3.80805E-01 5.30296E-01-6.00973E-02-2.67300E-02
 -1      5521-7.04666E-01 1.39590E+00-2.95530E-01 2.58166E-01 2.27275E-03-7.67120E-03
 -1      5522-8.19117E-01 1.55402E+00-3.17570E-01 1.06720E-01-7.21944E-03 7.12114E-02
 -1      5523-6.31751E-01 1.26022E+00-3.01915E-01 2.42937E-01-6.58030E-03 5.16038E-02
 -1      5524-4.23876E-01 1.25711E+00-3.55707E-01 6.94143E-01 3.00839E-03-2.36360E-03
 -1      5525-4.78291E-01 1.21031E+00-3.14327E-01 5.43432E-01-5.65775E-03 5.07979E-03
 -1      5526-3.60873E-01 1.05330E+00-2.98104E-01 5.63426E-01-7.13312E-03 8.94705E-03
 -1      5527-2.40632E-01 9.26448E-01-2.93033E-01 5.94127E-01-7.86977E-03 1.86672E-03
 -1      5528-2.28959E-01 1.01970E+00-3.33702E-01 7.35289E-01-1.61339E-03 2.83015E-03
 -1      5529-2.99309E-01 1.15280E+00-3.63488E-01 7.84557E-01 3.74939E-03 2.60404E-03
 -1      5530-2.52593E-01 8.88856E-01-2.71714E-01 5.20755E-01-7.55379E-03 4.46083E-03
 -1      5531-3.27086E-01 7.33433E-01-1.70627E-01-6.00685E-01-7.20175E-03-1.45330E-02
 -1      5532-2.22069E-01 7.04928E-01-2.13027E-01-5.75297E-01-1.12456E-02 5.07340E-03
 -1      5533-2.73936E-01 7.87081E-01-2.20702E-01-5.11862E-01-8.54239E-03 3.67719E-03
 -1      5534-4.01450E-01 8.79987E-01-2.04167E-01-4.04067E-01-8.12031E-03 1.29312E-04
 -1      5535-5.25355E-01 8.95815E-01-1.61747E-01-5.16832E-01-4.54942E-03-1.20818E-02
 -1      5536-4.51909E-01 1.04024E+00-2.62874E-01-6.35684E-01 8.96995E-02-6.30380E-02
 -1      5537-4.67729E-01 1.06012E+00-2.44827E-01-4.93968E-01 2.35033E-01-2.96659E-02
 -1      5538-3.52238E-01 6.44071E-01-1.23134E-01-6.07981E-01 2.23419E-01-1.10844E-01
 -1      5539 3.61889E-01-9.02425E-01 2.32376E-01 3.28818E-01 3.82122E-03 7.07746E-04
 -1      5540 5.02325E-01-1.10415E+00 2.56559E-01 2.74386E-01 1.46160E-03 2.78763E-04
 -1      5541 2.91136E-01-8.83058E-01 2.54249E-01 4.49421E-01 4.96473E-03 2.04984E-03
 -1      5542 4.98375E-01-1.23992E+00 3.04635E-01-3.82925E-01-1.77560E-01-3.35226E-02
 -1      5543 3.98356E-01-1.07907E+00 2.94383E-01-3.19373E-01-2.26745E-01-7.98221E-02
 -1      5544 4.50117E-01-1.25766E+00 3.91407E-01-9.71881E-02-3.78303E-01-6.90462E-02
 -1      5545 4.97750E-01-1.48543E+00 3.93181E-01 7.30490E-02-2.83859E-01 1.40684E-02
 -1      5546 6.05523E-01-1.52002E+00 3.88042E-01-1.60602E-01-1.59606E-01-2.67546E-02
 -1      5547 2.70409E-01-6.38072E-01 1.58356E-01-9.96870E-03 3.82870E-03 3.56943E-04
 -1      5548 2.61096E-01-6.05782E-01 1.45809E-01-4.93856E-02 2.63579E-03 5.75847E-04
 -1      5549 2.86258E-01-6.33097E-01 1.49647E-01-1.28982E-01 1.73683E-04 6.02804E-03
 -1      5550-5.74962E-02 3.92524E-01-1.33096E-01-5.64156E-01 1.11747E-02-3.47685E-03
 -1      5551-4.71691E-01 1.49103E+00-4.20100E-01 7.79177E-01 7.07575E-02 3.02107E-02
 -1      5552-3.35918E-01 1.33898E+00-4.23282E-01 8.79401E-01 3.79228E-02 4.09919E-02
 -1      5553 3.52816E-01-1.04904E+00 2.64020E-01 5.59449E-03-5.51114E-02-1.48972E-02
 -1      5554 9.75326E-01-1.67269E+00 2.96313E-01-3.12364E-02 3.07168E-02-5.48817E-03
 -1      5555 6.59131E-01-1.27262E+00 2.63569E-01-1.73345E-01 6.55567E-03-3.48795E-03
 -1      5556-3.28659E-01 8.42183E-01-2.18244E-01-6.75825E-01-1.01678E-02 1.15411E-05
 -1      5557 7.84886E-01-1.44847E+00 2.85826E-01 4.96091E-02-2.54612E-03 3.41744E-03
 -1      5558-7.24064E-01 1.57916E+00-3.63866E-01 4.89511E-01-4.69124E-04-1.13615E-03
 -1      5559 2.65541E-01-8.02714E-01 2.33682E-01-1.25978E-02 4.58406E-03-6.84115E-03
 -1      5560-4.45269E-01 1.04278E+00-2.57160E-01 3.70289E-01 2.61266E-03 1.07556E-03
 -1      5561 6.71047E-01-9.89052E-01 1.31265E-01-4.27329E-01 9.85087E-03 2.54751E-02
 -1      5562 5.42332E-02-2.18190E-01 7.40132E-02-9.77646E-01 1.70391E-02 1.46515E-02
 -1      5563 7.69177E-01-1.58363E+00 3.45793E-01 5.46855E-01 1.07964E-02-3.22150E-03
 -1      5564 8.92595E-02-3.01621E-02-2.97228E-02-7.84945E-01 1.41919E-04-4.11107E-03
 -1      5565-7.13958E-01 1.13646E+00-1.83020E-01-3.26411E-02 1.51378E-03 2.45428E-03
 -1      5566 1.03584E+00-1.54690E+00 2.19105E-01 2.48119E-01-6.12248E-04 3.36891E-03
 -1      5567-6.82966E-01 1.81471E+00-4.95012E-01 2.17436E-01-1.69913E-01 8.38299E-03
 -1      5568-3.80832E-01 8.95564E-01-2.21188E-01 5.61727E-02-1.45633E-03 2.52687E-03
 -1      5569-2.31231E-01-1.08771E-01 1.44660E-01-7.47846E-01-6.19853E-03 3.47289E-03
 -1      5570 3.08718E-01-7.70845E-01 1.97254E-01 3.61158E-02-1.21164E-03-3.71015E-03
 -1      5571 5.10139E-01-5.79499E-01 2.70310E-02-1.28666E-01 1.09906E-02 5.58137E-03
 -1      5572 4.96593E-01-1.40383E+00 4.03809E-01-3.42220E-01-2.79183E-02-4.41630E-02
 -1      5573 6.49980E-01-1.78466E+00 4.82650E-01 5.44339E-01 1.67962E-01-3.35874E-03
 -1      5574-8.65268E-01 1.56530E+00-2.97658E-01 3.02683E-01 2.28292E-02-4.32936E-04
 -1      5575-3.54647E-01 1.10790E+00-3.23933E-01 6.35117E-01-1.70984E-03-4.36382E-03
 -1      5576-3.75936E-01 8.20253E-01-1.90629E-01-5.15485E-01 7.03072E-03 1.67215E-03
 -1      5577-3.34131E-01 6.95514E-01-1.70499E-01-7.99380E-01-9.41961E-02 8.57839E-02
 -1      5578 4.60151E-01-1.08760E+00 2.68954E-01 4.29979E-01-2.55689E-03-3.38141E-03
 -1      5579 5.17647E-01-1.39275E+00 3.75968E-01-1.99859E-01 2.28260E-01 3.56899E-02
 -1      5580 3.45875E-01-7.20347E-01 1.64490E-01-7.01971E-02-2.15678E-03-2.95091E-03
 -1      5581 4.12838E-02 1.70053E-01-8.52762E-02-7.43643E-01-5.29323E-03-4.25073E-03
 -1      5582-2.10330E-01 1.22431E+00-4.42807E-01 9.76388E-01-4.16089E-02-8.05689E-03
 -1      5583-4.33162E-01 9.43816E-01-2.17135E-01 2.33071E-01-6.66642E-04 5.83470E-05
 -1      5584 6.04298E-01-1.23695E+00 2.36117E-01 5.45051E-01 3.16556E-02 5.74280E-02
 -1      5585-7.10646E-01 1.25511E+00-2.08254E-01 4.40609E-01-1.44122E-02 4.76617E-02
 -1      5586 1.10677E+00-1.76130E+00 2.80276E-01 1.14625E-01-1.64411E-02 1.02581E-02
 -1      5587-5.44409E-01 1.35408E+00-5.17659E-01-1.27089E-01-2.47240E-01 2.27892E-01
 -1      5588 2.08384E-01-5.67496E-01 1.53336E-01 1.39135E-02-5.47874E-04-1.34605E-03
 -1      5589-5.83519E-01 1.14744E-01 2.11363E-01-5.69561E-01-1.79993E-04-1.61342E-02
 -1      5590 2.58846E-01-7.10776E-01 1.94386E-01 2.31550E-01-2.63093E-03-1.18199E-03
 -1      5591 5.77553E-02-4.58499E-01 1.71691E-01-5.92022E-01-4.12932E-03 1.56557E-03
 -1      5592 2.57955E-01-5.22429E-01 1.12456E-01-7.46324E-01 1.64760E-03-2.28221E-04
 -1      5593-2.27571E-01 7.90490E-01-2.41249E-01 4.21038E-01 2.85340E-03-8.12508E-04
 -1      5594-6.09783E-02 1.62572E-01-4.16158E-02-9.20759E-01-6.86095E-03 3.21318E-03
 -1      5595 9.46710E-01-1.62663E+00 2.92310E-01 2.83375E-01-3.60803E-03 4.24953E-03
 -1      5596 9.64911E-01-1.63268E+00 2.82050E-01 2.85224E-01-7.53429E-03-3.60044E-03
 -1      5597 8.22385E-02-2.06513E-01 2.85288E-02-1.02969E+00-3.67508E-02 1.37038E-02
 -1      5598-6.21239E-01 1.43621E+00-3.44540E-01-1.39178E-02-3.36129E-03 1.01950E-03
 -1      5599 4.28712E-01-1.53779E+00 5.05719E-01 9.11457E-01 8.84908E-02-2.08605E-02
 -1      5600-5.02849E-02 6.02997E-01-2.86096E-01-6.50058E-01 7.45233E-03-1.79491E-02
 -1      5601-7.06350E-01 9.99432E-01-1.23515E-01-5.45805E-01 1.02995E-02 1.89553E-02
 -1      5602-6.69562E-02 5.03783E-02 4.25757E-03-8.06947E-01 5.29698E-03 1.31844E-01
 -1      5603 2.42775E-01-9.90985E-01 3.03390E-01 7.26219E-01-6.76626E-03-1.07148E-02
 -1      5604-4.07434E-01 9.14016E-01-2.17340E-01-3.01554E-01 2.57387E-03-2.46811E-03
 -1      5605-4.83609E-01 9.52141E-01-1.94118E-01 5.89403E-01 6.23207E-03 2.55012E-02
 -1      5606 2.57993E-01-6.30239E-01 1.58663E-01-3.20698E-01 6.04738E-04 6.43547E-04
 -1      5607-3.70919E-01 1.45488E+00-5.57800E-01 8.28353E-01-2.97542E-01 7.44740E-02
 -1      5608 4.31064E-01-1.08280E+00 2.76073E-01-1.45001E-01-1.10930E-02-5.06807E-03
 -1      5609-5.88060E-01 1.30743E+00-3.04542E-01 4.39363E-01 2.24786E-02-1.03565E-02
 -1      5610 2.05601E-01 4.10674E-02-1.20564E-01-6.05701E-01 2.33629E-02-1.49914E-02
 -1      5611 2.65003E-01-7.29052E-01 3.16170E-01-5.03530E-01 1.19837E-01 1.25971E-01
 -1      5612 8.48549E-01-9.57402E-01 3.78858E-02 2.58501E-01 1.48822E-02 1.38521E-02
 -1      5613-1.82801E-01-8.87232E-01 6.80808E-01-7.41903E-01-1.11494E-01-9.92842E-02
 -1      5614-4.15907E-01 9.34812E-01-2.22114E-01 4.90296E-03 1.31904E-03-1.02161E-03
 -1      5615 1.82735E-01-5.13198E-01 1.40972E-01 4.04160E-02-4.21909E-04 9.90160E-04
 -1      5616 4.87341E-01-1.51208E+00 5.39892E-01 5.18713E-01 1.13447E-01 3.33146E-01
 -1      5617-5.51222E-01 1.34628E+00-3.43813E-01-4.45857E-01-9.63426E-02 2.64825E-02
 -1      5618-6.79027E-01 1.72493E+00-4.37660E-01 5.48045E-01-8.91980E-02-7.49422E-03
 -1      5619-3.01445E-01 1.45010E+00-6.43654E-01 6.10171E-01-5.10884E-01 8.36982E-02
 -1      5620 1.05109E+00-1.15219E+00-8.04074E-02-1.42795E+00-9.63674E-02 8.47362E-02
 -1      5621 3.05952E-01-4.26781E-01 4.64142E-02-5.36991E-01 4.30526E-04 9.09593E-04
 -1      5622-1.01774E-01 8.96250E-01-3.16122E-01 8.08970E-01 4.55761E-03-7.59216E-03
 -1      5623-1.40279E-01 7.56575E-01-2.61582E-01 5.42530E-01 3.83065E-03-1.81128E-03
 -1      5624 1.83520E-01-5.19164E-01 1.42839E-01 1.07173E-01-1.71891E-03-8.01266E-04
 -1      5625-2.18455E-01 6.63039E-01-1.89972E-01-4.35662E-01-7.53839E-04 3.78717E-03
 -1      5626 6.82347E-01-1.70913E+00 4.56130E-01-4.19834E-02 9.52852E-02 1.98369E-02
 -1      5627-4.79532E-01 2.04484E-01 1.34599E-01-6.77558E-01-1.34179E-02 4.71932E-04
 -1      5628 6.98400E-03 2.07954E-01-7.19489E-02-1.88969E-01-2.41632E-02 3.49458E-03
 -1      5629-3.44063E-01-1.65522E-01 2.19044E-01-6.22241E-01-3.01782E-03-2.42451E-03
 -1      5630-6.77227E-01 1.36452E+00-2.90311E-01 3.44348E-01 1.01798E-02 8.70055E-03
 -1      5631-8.06322E-01 2.33003E-01 2.70489E-01-4.01833E-01-7.22678E-03 3.57389E-03
 -1      5632 8.36461E-01-1.21617E+00 1.60692E-01 1.48751E-01 9.66088E-03 7.36446E-03
 -1      5633-8.56397E-02 3.63023E-01-1.17875E-01-7.80421E-01-1.37429E-03-3.88723E-03
 -1      5634 5.20678E-01-1.09591E+00 2.46477E-01 1.19327E-01-4.23777E-03-1.13497E-03
 -1      5635 1.03226E+00-1.70604E+00 2.84533E-01 1.03576E-01-4.86301E-03 2.61600E-03
 -1      5636-8.65797E-01 1.40894E+00-4.10442E-01-3.70136E-01 7.46399E-02-8.15760E-03
 -1      5637 1.95390E-01-5.07999E-01 1.33836E-01-4.64644E-02-2.40407E-04-6.23100E-04
 -1      5638 4.31570E-01-8.92464E-01 1.95612E-01 2.31181E-02 1.21309E-02-2.86003E-03
 -1      5639 2.48485E-01-7.21007E-01 2.02750E-01-1.69939E-02-1.70984E-04-1.35217E-03
 -1      5640 8.40570E-01-1.80968E+00 4.21803E-01 3.75282E-01 4.03998E-02 1.28875E-02
 -1      5641-3.49468E-01 5.37586E-01-1.10912E-01-3.47361E-01-3.28463E-01 1.87343E-01
 -1      5642-5.88182E-01 1.09877E+00-2.22528E-01 2.76074E-01-3.03903E-03 6.57122E-03
 -1      5643 7.97625E-01-1.76780E+00 4.27051E-01-1.74120E-01-4.87659E-02-1.52892E-02
 -1      5644 4.45339E-01-1.09764E+00 2.81832E-01-6.22627E-01 7.01222E-02 3.00861E-02
 -1      5645-2.58717E-01 6.40767E-01-1.67165E-01-8.83204E-01-2.23500E-02 7.31783E-03
 -1      5646-2.47240E-01 6.45001E-01-1.78160E-01-6.85854E-01-2.71837E-03 2.99390E-02
 -1      5647 1.91580E-01-1.49476E+00 5.90738E-01 9.23392E-01 4.64497E-01-2.37560E-02
 -1      5648 4.96831E-01-1.81953E-01-1.35572E-01-1.68783E-01 3.87123E-02 4.95035E-04
 -1      5649-1.82687E-01 7.49479E-01-2.42382E-01-5.14181E-01 5.24876E-03-7.22320E-03
 -1      5650 7.44808E-01-1.40549E+00 2.83672E-01 2.85230E-01-7.50287E-03 4.24378E-03
 -1      5651-1.18357E+00 1.51578E+00-5.91850E-02-3.64887E-01 2.63047E-02 5.77385E-02
 -1      5652 2.29165E-01-9.80887E-01 3.28265E-01-1.08999E-01 3.99712E-03-3.14239E-02
 -1      5653-4.94624E-01 1.39677E+00-3.90849E-01 7.11231E-01-3.91149E-03-7.50537E-03
 -1      5654-3.49526E-01 1.00843E+00-2.81021E-01 4.98104E-01 3.37200E-04-2.49624E-03
 -1      5655 3.87654E-01-1.04692E+00 3.70609E-01 4.09483E-02 4.02075E-01 2.40597E-01
 -1      5656 1.29271E-01-6.75908E-01 2.32014E-01 4.63929E-01-7.69593E-03-5.98374E-04
 -1      5657-2.83387E-01 8.07363E-01-2.25223E-01 2.97878E-01 2.11831E-03 1.12476E-03
 -1      5658 8.36149E-01-1.58215E+00 3.18994E-01-1.78932E-01-7.72674E-03-1.10985E-02
 -1      5659 2.10601E-01-5.54858E-01 1.47328E-01-1.77945E-01-1.87844E-03 1.28315E-03
 -1      5660-9.23995E-01 1.82263E+00-4.72489E-01 4.95404E-01 1.20539E-01 4.27542E-02
 -1      5661-5.38001E-01 1.20150E+00-2.97325E-01 2.80577E-01 3.63890E-03-2.83651E-02
 -1      5662 2.76520E-01 4.20375E-01-2.79170E-01-6.80612E-01-1.85875E-02 7.68990E-02
 -1      5663-9.06924E-01 2.51995E-01 2.51987E-01-2.90733E-01-2.37178E-02 8.87097E-02
 -1      5664-9.61566E-01 1.16916E+00-2.46682E-02-7.25680E-01 2.15495E-02 3.35211E-02
 -1      5665-1.81768E+00 1.60336E+00 8.40216E-03-8.10632E-01-6.42203E-03 4.43061E-02
 -1      5666-4.60879E-01 7.94568E-01-4.15130E-01 3.52045E-01 2.36512E-01 1.99002E-01
 -1      5667-6.71556E-01 2.58831E+00-4.44797E-01 1.65995E+00-5.21225E-01-1.83016E-01
 -1      5668-4.15503E-01 1.10560E+00-2.93394E-01 1.67840E-01 4.99943E-02 6.05656E-02
 -1      5669-1.58602E+00 1.88043E+00-1.69473E-01 4.47850E-01-1.02537E-01 1.59530E-01
 -1      5670-1.21758E+00 2.28071E+00-2.00269E-01 5.82642E-01-2.86910E-01 1.25652E-01
 -1      5671-8.63596E-01 1.41506E+00-1.28188E-01 1.59851E-01 1.40913E-02 4.45700E-02
 -1      5672-8.08662E-01 1.91611E+00-4.93478E-01 5.82760E-02 2.19144E-01 9.86216E-02
 -1      5673 2.39200E-01-2.15259E-01-1.07665E-01-1.34534E+00-1.63778E-02-2.69318E-02
 -1      5674 1.35671E+00-4.55358E-01-1.41426E-01-2.27019E+00 6.33511E-02 2.19486E-02
 -1      5675 1.26337E-01-1.43403E+00 9.62208E-01 1.09626E-03-3.46568E-01 1.43015E-01
 -1      5676 1.36529E+00-3.42722E+00 5.94659E-01-1.48842E-01 4.74014E-01 7.74347E-02
 -1      5677-2.93209E-01-5.84078E-01 4.94118E-01 2.17705E-01-8.46967E-02-9.90623E-03
 -1      5678 1.94215E+00-2.43282E+00 2.38265E-01-2.65389E-01 1.35628E-01 2.54973E-01
 -1      5679 9.34058E-01-1.75687E+00 1.11757E-01-1.68280E-01-5.92924E-02 8.83569E-02
 -1      5680-9.76136E-03 6.14622E-01-2.68110E-01-6.04055E-01 7.17771E-03-1.56059E-02
 -1      5681 8.98438E-02 5.24660E-01-2.63761E-01-6.42364E-01 8.85030E-03-2.03206E-02
 -1      5682 9.52685E-02 4.91846E-01-1.99494E-01-6.87533E-01-3.14094E-02 9.64402E-02
 -1      5683-1.41733E-01 7.61100E-01-2.65047E-01-4.79446E-01 4.33319E-03-6.01010E-03
 -1      5684-5.84926E-02 6.88402E-01-2.73530E-01-5.44721E-01 5.94099E-03-1.02310E-02
 -1      5685-1.42668E-01 6.77772E-01-2.40949E-01-5.73334E-01 8.68388E-03-1.87880E-02
 -1      5686-3.02315E-01 8.74650E-01-2.44534E-01-2.83127E-01 1.28582E-03-3.62357E-03
 -1      5687-2.51847E-01 8.36571E-01-2.50483E-01-3.83264E-01 3.15393E-03-1.98057E-03
 -1      5688-2.98437E-01 8.35353E-01-2.29289E-01-4.14962E-01 4.58297E-03-4.55707E-03
 -1      5689-3.20652E-01 8.88218E-01-2.43194E-01-1.42007E-01 2.08782E-03-1.16261E-03
 -1      5690-3.23347E-01 8.70443E-01-2.34094E-01-3.37670E-02 2.38952E-03-1.56757E-03
 -1      5691-4.24578E-01 9.44154E-01-2.21343E-01-1.46723E-01-1.21632E-03-1.40393E-03
 -1      5692-3.15043E-01 8.40938E-01-2.25453E-01 6.71019E-02 2.04028E-03 1.74657E-04
 -1      5693-2.10104E-01 7.12662E-01-2.16221E-01 2.71178E-01 4.19419E-03 2.46950E-04
 -1      5694-2.49376E-01 7.69780E-01-2.22793E-01 2.00320E-01 3.62202E-03 2.32697E-04
 -1      5695-4.31254E-01 9.43602E-01-2.21374E-01 1.21585E-01-5.22369E-04-1.47047E-03
 -1      5696-3.18001E-01 8.39266E-01-2.22529E-01 1.73223E-01 2.54783E-04-1.17362E-03
 -1      5697-3.56671E-01 8.76882E-01-2.20494E-01 2.68153E-01-1.80044E-04 3.11907E-04
 -1      5698-1.30310E-01 6.61092E-01-2.28233E-01 3.99651E-01 3.70306E-03 2.23388E-03
 -1      5699-1.78770E-01 7.02729E-01-2.23359E-01 3.33831E-01 3.51547E-03-1.73146E-03
 -1      5700-2.53401E-01 7.93792E-01-2.32288E-01 3.63321E-01 4.11935E-04-1.53459E-03
 -1      5701-5.55410E-03 6.09440E-01-2.54653E-01 5.43400E-01 7.59096E-03 1.91530E-03
 -1      5702-8.13022E-02 6.39538E-01-2.36050E-01 4.59089E-01 2.21967E-03-1.34311E-03
 -1      5703-1.84282E-01 7.72678E-01-2.52952E-01 4.80199E-01 1.74869E-03-2.96225E-03
 -1      5704 1.28750E-01 6.30855E-01-3.15362E-01 7.60194E-01 1.18015E-02-4.21919E-03
 -1      5705 5.54388E-02 6.56512E-01-2.95712E-01 6.80936E-01 9.52690E-03 2.71925E-03
 -1      5706-1.08096E-01 8.19286E-01-3.06120E-01 6.74477E-01 5.05464E-03-2.25928E-03
 -1      5707 1.55870E-01 8.04539E-01-4.24468E-01 9.94319E-01 5.05171E-02 3.75035E-02
 -1      5708 1.85820E-01 8.15797E-01-3.89791E-01 9.26638E-01 2.62395E-02 5.01884E-02
 -1      5709-1.24367E-01 1.04225E+00-3.76325E-01 8.97599E-01-4.54239E-02-1.46037E-02
 -1      5710 1.71695E-01 8.29106E-01-5.46511E-01 8.93706E-01 1.68447E-01 2.36710E-01
 -1      5711 2.00766E-01 9.82319E-01-4.82430E-01 1.04321E+00-4.47051E-02 8.86961E-02
 -1      5712-2.78383E-01 1.42024E+00-4.88558E-01 9.48881E-01-1.08916E-01 5.17224E-02
 -1      5713 1.10043E-01 6.75064E-01-5.91037E-01 6.53616E-01 1.97136E-01 1.16120E-01
 -1      5714 2.21929E-01 7.31476E-01-4.26895E-01 8.44279E-01 7.47958E-02 1.65805E-01
 -1      5715-3.28374E-01 1.42922E+00-5.58326E-01 7.38514E-01-3.24190E-01 1.19912E-01
 -1      5716-2.42811E-01 6.13908E-01-5.99421E-01 2.35356E-02 4.12577E-01 1.79214E-01
 -1      5717-2.71476E-01 7.15644E-01-3.90671E-01 2.22371E-01 2.73774E-01 2.34068E-01
 -1      5718-4.25347E-01 1.34269E+00-5.27377E-01 2.75855E-01-2.68645E-01 2.25448E-01
 -1      5719-1.52555E-01 1.63496E-01-1.80072E-01-9.02035E-02 1.45328E-01 1.99085E-02
 -1      5720-2.72619E-01 1.02665E-01 3.90867E-02-1.08465E-01 1.83409E-01 1.00355E-01
 -1      5721-4.42536E-01 8.92801E-01-3.37147E-01-2.40614E-01-3.17945E-01 2.52471E-01
 -1      5722-3.91189E-02 8.49148E-03 2.66848E-02-3.00083E-01 4.11304E-02-2.26532E-02
 -1      5723-8.70300E-02 6.33842E-02-8.75509E-02-4.31850E-01 1.96896E-01 8.46848E-03
 -1      5724-2.54189E-01 4.04404E-01-1.59086E-01-6.63246E-01-6.05129E-02-1.78908E-02
 -1      5725 1.23020E-01-3.32404E-01 4.13922E-01-6.90124E-03-2.35086E-01 5.89676E-03
 -1      5726 2.06557E-01-2.54122E-01 9.42033E-02-2.93970E-01 4.63383E-02 1.93130E-02
 -1      5727 9.85502E-02-2.89408E-01 7.80670E-02-7.05965E-01 7.72562E-02 3.66713E-02
 -1      5728-6.65179E-02-3.62775E-01 4.68612E-01 4.24982E-01-2.07701E-01 9.15855E-02
 -1      5729 2.89546E-01-3.11971E-01 8.73396E-02 1.85703E-01-1.29937E-01-3.34249E-02
 -1      5730 2.87429E-01-7.54629E-01 3.20097E-01-2.24256E-01 2.50606E-01 9.32101E-02
 -1      5731-1.90413E-01-7.28977E-01 7.10393E-01 8.19587E-01-4.24587E-01 2.85211E-01
 -1      5732 1.11667E-01-6.99559E-01 5.11843E-01 6.19212E-01-3.44393E-01 1.54867E-01
 -1      5733 4.75886E-01-1.26645E+00 4.62990E-01 2.66042E-01 2.62507E-01 3.11163E-01
 -1      5734-2.55889E-01-9.66147E-01 5.01717E-01 1.09246E+00 1.59240E-01 1.71779E-02
 -1      5735-3.09323E-01-8.64621E-01 5.44010E-01 9.65097E-01-9.47155E-03 1.58592E-02
 -1      5736 2.36235E-01-1.55620E+00 5.64958E-01 8.75265E-01 1.91398E-01 2.56101E-01
 -1      5737-2.88552E-02-9.26456E-01 4.32030E-01 8.78497E-01-3.36401E-02 2.27024E-02
 -1      5738-1.28829E-01-1.08689E+00 5.41730E-01 1.11606E+00-9.33718E-02 7.16451E-02
 -1      5739 3.80118E-01-1.45702E+00 5.43269E-01 8.17489E-01 2.10823E-01 5.61121E-03
 -1      5740 2.28759E-04-6.75635E-01 2.82866E-01 6.36328E-01-1.34977E-03 2.73796E-03
 -1      5741-7.30493E-02-7.04585E-01 3.18656E-01 7.63408E-01-8.50105E-03-2.05609E-02
 -1      5742 3.28585E-01-1.26262E+00 3.92357E-01 8.46734E-01 5.93834E-02-1.71421E-02
 -1      5743 5.32191E-02-5.18064E-01 1.97264E-01 3.84112E-01-6.75757E-03 2.39935E-04
 -1      5744-1.06309E-02-5.44343E-01 2.34393E-01 4.93775E-01-1.08136E-02 4.96729E-03
 -1      5745 1.67386E-01-8.38145E-01 2.86487E-01 6.00827E-01-6.36186E-03-3.33166E-03
 -1      5746 1.46934E-01-5.02436E-01 1.51692E-01 1.97563E-01-1.78804E-03 5.09196E-04
 -1      5747 1.28810E-01-5.37716E-01 1.75357E-01 2.75104E-01-4.21423E-03 2.07152E-03
 -1      5748 1.97116E-01-7.01761E-01 2.14641E-01 3.47293E-01-5.75241E-03-1.08157E-03
 -1      5749 1.22354E-01-3.82770E-01 1.10489E-01 8.76766E-02-2.31643E-04-1.28882E-03
 -1      5750 1.18485E-01-4.12764E-01 1.26071E-01 1.36295E-01-1.34916E-03 1.04499E-03
 -1      5751 2.25009E-01-6.16543E-01 1.69994E-01 1.60149E-01-1.00844E-03 1.10458E-03
 -1      5752 1.24583E-01-3.73155E-01 1.06074E-01 2.88020E-02-1.11870E-03 2.97770E-05
 -1      5753 1.27200E-01-3.83870E-01 1.09883E-01 5.60804E-02 4.20411E-04 6.28626E-04
 -1      5754 1.82141E-01-5.15449E-01 1.41603E-01 7.01912E-02-1.25663E-03 5.69210E-05
 -1      5755 1.49625E-01-4.26877E-01 1.18383E-01-1.32127E-02-8.30287E-04-1.01988E-03
 -1      5756 1.41355E-01-4.06152E-01 1.13284E-01 1.23419E-02 8.04940E-05 2.45707E-04
 -1      5757 1.91877E-01-5.38266E-01 1.47576E-01 2.47636E-02 2.46538E-04 4.51267E-04
 -1      5758 1.40535E-01-4.34906E-01 1.25713E-01-9.77737E-02-3.42960E-03-1.27562E-03
 -1      5759 1.37610E-01-3.93502E-01 1.09014E-01-4.67877E-02-2.94305E-03-1.42980E-03
 -1      5760 2.03559E-01-5.35618E-01 1.44721E-01-1.03300E-02 1.64222E-03-2.19641E-03
 -1      5761 1.11823E-01-4.83173E-01 1.58083E-01-2.42794E-01-5.99529E-03-1.87223E-03
 -1      5762 1.40678E-01-4.56810E-01 1.34749E-01-1.60791E-01-5.20137E-03-4.54222E-04
 -1      5763 2.11501E-01-5.37385E-01 1.38194E-01-1.01912E-01-7.41425E-05 2.23448E-03
 -1      5764 6.35643E-02-5.00212E-01 1.87414E-01-4.01378E-01-2.41188E-03 3.86666E-04
 -1      5765 1.31621E-01-5.18038E-01 1.65439E-01-3.07740E-01-2.46767E-03-6.59386E-04
 -1      5766 2.39762E-01-6.03087E-01 1.55750E-01-2.43996E-01 1.85728E-03-1.09154E-03
 -1      5767-1.61939E-01-3.42782E-01 2.15740E-01-5.78518E-01 4.48113E-04-1.36839E-03
 -1      5768-4.18166E-02-4.25825E-01 2.00848E-01-5.22108E-01-2.55916E-03-1.37980E-03
 -1      5769 1.86556E-01-5.68548E-01 1.63338E-01-4.71857E-01-1.18785E-03 8.38005E-03
 -1      5770-4.63282E-01-1.20787E-01 2.50627E-01-5.93606E-01-1.82648E-03-6.57365E-03
 -1      5771-3.49873E-01-2.07959E-01 2.39860E-01-5.94201E-01-5.43385E-04-2.13158E-03
 -1      5772-1.46399E-01-3.08285E-01 1.93457E-01-6.15074E-01-7.61504E-04-8.72717E-04
 -1      5773-6.62909E-01 9.75793E-02 2.42071E-01-5.16844E-01 1.51402E-03-1.40407E-02
 -1      5774-5.71779E-01 1.12541E-02 2.39820E-01-5.72389E-01-5.53716E-04-9.32940E-03
 -1      5775-4.57562E-01-3.02678E-02 2.12207E-01-6.06427E-01-2.53653E-03-1.14445E-02
 -1      5776-8.52238E-01 2.09931E-01 3.18722E-01-3.45086E-01 9.95865E-03-2.08757E-02
 -1      5777-7.54511E-01 1.58552E-01 2.57237E-01-4.41510E-01-7.13824E-03-7.94724E-03
 -1      5778-6.89929E-01 1.82126E-01 2.32980E-01-4.85502E-01-3.33249E-03-4.29819E-03
 -1      5779-8.45541E-01 2.54109E-01 1.71365E-01-3.45626E-01-4.45915E-02 1.21017E-01
 -1      5780-4.71698E-01 7.55960E-01-8.22621E-02-6.93882E-01-5.77407E-03 6.67803E-02
 -1      5781-7.20614E-01 8.64166E-01-5.08694E-02-7.83502E-01 5.71896E-03 1.19812E-02
 -1      5782-9.78939E-01 1.20288E+00-9.60685E-02-4.83102E-01 3.95593E-03 3.68893E-02
 -1      5783-9.68305E-02 5.33715E-01-1.02688E-01-6.98731E-01-3.14552E-02 1.17477E-01
 -1      5784-2.39837E-01 5.81063E-01-1.00453E-01-7.38556E-01-4.43076E-03 7.85095E-02
 -1      5785-4.73057E-01 7.99394E-01-1.63595E-01-6.28114E-01 2.93995E-03 1.07898E-02
 -1      5786-1.20796E-02 5.20213E-01-1.99095E-01-6.85701E-01-2.05981E-02 7.64604E-02
 -1      5787-1.40495E-01 6.29263E-01-2.38246E-01-6.60586E-01 9.70470E-04 3.14625E-03
 -1      5788-7.60697E-01 2.70707E-01 1.70835E-01-3.99112E-01-4.28607E-02 7.59079E-02
 -1      5789-5.07923E-01 3.13078E-01 6.77410E-02-6.32406E-01-2.75427E-02 2.21506E-02
 -1      5790-5.97428E-01 2.69514E-01 8.23229E-02-5.30211E-01-2.77527E-02 7.07800E-02
 -1      5791-5.39647E-01 1.53816E-01 1.84658E-01-6.22569E-01-4.15355E-03-1.06031E-02
 -1      5792-6.43279E-01 2.25699E-01 1.50372E-01-4.86401E-01-3.20348E-02 4.64946E-02
 -1      5793-1.23804E-01 2.50129E-01-2.49594E-02-1.07393E+00-9.65464E-03-4.01867E-02
 -1      5794-2.71611E-01 1.56707E-01 1.30286E-02-8.27876E-01-4.14807E-02 3.08877E-02
 -1      5795-2.28917E-01 4.03928E-02 8.71593E-02-8.44452E-01-2.55199E-02 1.01373E-02
 -1      5796 5.47502E-01-5.44928E-01-2.63640E-02-1.26758E+00-2.62522E-02 5.58543E-02
 -1      5797 4.47978E-01-1.33418E+00 3.62889E-01 2.51889E-01 7.97501E-03 3.73002E-02
 -1      5798 5.71773E-01-1.89142E+00 5.97010E-01 4.12458E-01-3.45149E-02 9.30037E-02
 -1      5799 2.11882E-01-1.65734E+00 5.30988E-01-3.21446E-01 3.14075E-03-1.38615E-01
 -1      5800 7.36485E-01-4.72985E-01-1.24164E-01-6.13677E-02 1.60969E-02 2.22179E-02
 -1      5801 5.54007E-01-7.41146E-01 9.46520E-02 2.64818E-01-2.57523E-02 3.87437E-02
 -1      5802 1.01530E+00-1.43919E+00 1.73022E-01 2.44115E-01 1.19338E-02 3.43691E-02
 -1      5803 7.27636E-01-1.24608E+00 1.95589E-01 2.66150E-01-2.04663E-02 2.80835E-02
 -1      5804 9.74161E-01-1.85610E+00 3.74038E-01 6.19662E-02-2.46284E-02-1.60304E-02
 -1      5805 7.00741E-01-1.08375E-01-2.56785E-01-3.90002E-01 1.73039E-02-1.31127E-02
 -1      5806 6.34581E-01-1.57005E-01-1.89732E-01-3.01059E-01 2.62435E-02 2.81500E-02
 -1      5807 6.51740E-01-5.36874E-01-4.29171E-02 7.16704E-02 1.89286E-02 2.39868E-02
 -1      5808 2.50690E-01 2.26765E-02-1.56274E-01-4.65971E-01-2.55457E-02-2.91108E-02
 -1      5809 5.19486E-01-2.13878E-02-2.14645E-01-5.20573E-01 1.87875E-02-1.04737E-02
 -1      5810 3.50384E-01-3.71486E-02-1.33221E-01-3.86093E-01 2.46036E-02-2.36690E-02
 -1      5811-1.91611E-01 1.22490E-01 5.12153E-02-1.46394E-01-1.67570E-02-1.91600E-02
 -1      5812 9.47906E-02 3.01189E-02-3.28778E-02-2.55473E-01 1.72590E-02-1.95514E-02
 -1      5813 9.87620E-02 1.07207E-01-1.00570E-01-7.38503E-01 2.19907E-02 9.56728E-03
 -1      5814 1.34306E-01 4.21247E-02-7.68426E-02-5.46938E-01-6.13709E-03-2.42984E-02
 -1      5815 3.26641E-02 1.68419E-01-8.19390E-02-4.98657E-01-1.94524E-02 1.19449E-02
 -1      5816-1.41943E-01 6.60847E-01-1.71631E-01 6.12758E-01-7.54362E-03 2.39283E-02
 -1      5817-2.51079E-01 4.14869E-01-2.51331E-02 2.69920E-01-1.60644E-02-3.27244E-02
 -1      5818-2.08536E-01 4.89449E-01-1.27520E-01 2.05864E-01 1.31728E-02 3.78598E-02
 -1      5819-7.69200E-01 1.38323E+00-2.71177E-01 6.68986E-01 2.89423E-02-2.04732E-02
 -1      5820 4.88664E-01-8.39518E-01 1.47095E-01-3.53049E-01 8.35654E-03-6.87517E-04
 -1      5821 3.97248E-01-5.01196E-01 3.75769E-02-3.29004E-01 9.38965E-03 3.21213E-03
 -1      5822 5.84536E-01-9.31003E-01 1.45963E-01-1.58168E-01 3.46259E-03 2.56074E-03
 -1      5823 6.72626E-01-9.08123E-01 9.93922E-02 2.93775E-02 1.25608E-02 7.08323E-03
 -1      5824 7.43376E-01-1.23484E+00 2.16566E-01-8.32217E-03 8.99001E-03 6.12368E-03
 -1      5825 2.87164E-01-4.81552E-01 8.10501E-02-6.39052E-01 2.45519E-03 5.67938E-03
 -1      5826 4.44660E-01-9.00657E-01 1.90305E-01-4.79827E-01 3.92763E-04 5.66226E-05
 -1      5827 3.46295E-01-8.17893E-01 2.18708E-01-6.99123E-01 1.47361E-02 1.08418E-02
 -1      5828 5.57264E-01-1.22038E+00 2.87990E-01-4.05991E-01 3.77379E-02 1.54281E-02
 -1      5829 9.06076E-01-1.45621E+00 2.28992E-01 2.04346E-01-5.66838E-03 9.46084E-03
 -1      5830 8.20118E-01-1.48189E+00 2.83878E-01 7.98006E-02-4.22847E-04-2.80272E-03
 -1      5831 8.86662E-01-1.71479E+00 3.68726E-01 3.22112E-01 1.84731E-02 8.62364E-03
 -1      5832 7.78969E-01-1.57235E+00 3.40602E-01 9.25978E-02 3.37832E-02 4.49436E-03
 -1      5833 7.65042E-01-1.78953E+00 4.43336E-01 1.76185E-01 7.39921E-02 1.74895E-02
 -1      5834 6.72436E-01-1.50051E+00 3.74377E-01-1.08594E-01 4.82564E-02 7.35010E-03
 -1      5835 5.65262E-01-1.38995E+00 3.51470E-01-3.36526E-01 8.84813E-02 3.24967E-02
 -1      5836-8.85873E-02 2.80126E-01-7.62600E-02-8.49847E-01-4.41172E-03 6.66121E-03
 -1      5837-1.84075E-01 4.92610E-01-1.32576E-01-8.21213E-01-6.56995E-03 1.09536E-02
 -1      5838-1.98566E-01 5.88458E-01-1.72855E-01-7.31396E-01-7.80107E-03 1.80255E-03
 -1      5839-1.56773E-01 3.84247E-01-1.04709E-01-9.08983E-01-8.23622E-03-5.48220E-04
 -1      5840-3.03769E-01 7.59990E-01-1.85796E-01-7.97501E-01-1.87533E-02 7.47369E-03
 -1      5841-5.96341E-01 1.44266E+00-3.70067E-01-2.54432E-01-3.25774E-02 1.48382E-02
 -1      5842-4.69853E-01 1.14273E+00-2.85702E-01-3.45678E-01-7.12226E-03 1.65916E-03
 -1      5843-4.36065E-01 1.11827E+00-2.94784E-01-5.59187E-01-3.51647E-02-2.20616E-03
 -1      5844-4.27960E-01 1.05034E+00-2.67983E-01-2.22135E-01-7.49978E-03 2.37903E-03
 -1      5845-2.79234E-01 7.74953E-01-2.17773E-01-5.53829E-01-5.20214E-03 1.09771E-02
 -1      5846-4.18066E-01 1.03177E+00-2.60453E-01-7.07366E-01-3.14998E-02 8.77381E-03
 -1      5847-1.39753E-01 5.01627E-01-1.59748E-01-6.15870E-01 9.01177E-03-2.00419E-03
 -1      5848 1.01204E+00-1.66296E+00 2.79102E-01 1.91992E-01-5.16990E-03-3.28100E-03
 -1      5849 9.10981E-01-1.57933E+00 2.82179E-01 6.10528E-02 2.16558E-03 1.00115E-03
 -1      5850 8.91183E-01-1.56497E+00 2.85929E-01 1.73207E-01 5.59587E-04 4.22050E-05
 -1      5851 8.50456E-01-1.52324E+00 2.88736E-01 2.87042E-01-1.06039E-02 3.14530E-03
 -1      5852 7.65575E-01-1.42522E+00 2.82873E-01 1.73480E-01-3.13958E-03 4.32234E-03
 -1      5853 4.98795E-01-1.10469E+00 2.60908E-01-1.54793E-02-5.12302E-03-9.56255E-03
 -1      5854 6.47963E-01-1.27415E+00 2.67235E-01 7.75005E-02-5.62314E-03 2.62919E-03
 -1      5855 6.12412E-01-1.27759E+00 2.83548E-01-6.42327E-02-8.78467E-03-4.28526E-03
 -1      5856 6.02133E-01-1.32065E+00 3.09019E-01-1.69516E-01-7.90277E-04-9.60609E-03
 -1      5857 8.18362E-01-1.51277E+00 3.01128E-01-5.85646E-02 1.88202E-03-7.00264E-04
 -1      5858 6.49266E-01-1.26009E+00 2.60907E-01 2.00936E-01 2.37496E-03 2.15913E-03
 -1      5859 9.57855E-01-1.66519E+00 2.99851E-01-4.52541E-02-1.22991E-02 3.36373E-03
 -1      5860-7.27369E-01 1.43336E+00-2.99443E-01 3.50766E-01 1.67014E-02-7.47831E-03
 -1      5861-7.74706E-01 1.53434E+00-3.33673E-01 4.18167E-01 6.10268E-03 1.54952E-03
 -1      5862-6.69026E-01 1.46722E+00-3.39224E-01 4.81575E-01 1.53647E-02-4.90323E-03
 -1      5863-7.87458E-01 1.49959E+00-3.07979E-01 3.71785E-01 2.17665E-02 1.20726E-02
 -1      5864-7.22259E-01 1.50900E+00-3.26917E-01 4.03352E-01 1.30334E-02 5.23328E-03
 -1      5865-6.81659E-01 1.64442E+00-4.10656E-01 2.58608E-01-3.87820E-02-1.08463E-02
 -1      5866-6.96044E-01 1.65842E+00-4.13533E-01 5.24395E-01-2.65468E-02-3.39629E-03
 -1      5867-6.88862E-01 1.53982E+00-3.59591E-01 2.70023E-01 1.13079E-02-7.05099E-03
 -1      5868-6.44502E-01 1.37625E+00-3.11084E-01 1.72340E-01-2.02555E-03 2.48330E-03
 -1      5869-5.47368E-01 1.35290E+00-3.51069E-01 5.77959E-01 1.45341E-02-1.37553E-03
 -1      5870-6.22968E-01 1.50267E+00-3.75033E-01 5.86033E-01-3.55758E-04-4.44280E-03
 -1      5871-6.00491E-01 1.61104E+00-4.26345E-01 6.66487E-01-3.60049E-02 2.78362E-03
 -1      5872 2.43208E-01-6.83513E-01 1.94483E-01 3.63740E-03-1.84163E-03 3.56641E-04
 -1      5873 3.33526E-01-8.31888E-01 2.11708E-01 5.40061E-03 9.44745E-03-6.40313E-03
 -1      5874 2.92692E-01-7.15797E-01 1.75060E-01 1.57627E-02-3.55706E-04-3.58863E-03
 -1      5875 2.29770E-01-6.39387E-01 1.76206E-01 1.26535E-02-2.94302E-04-1.97218E-03
 -1      5876 2.43439E-01-7.54241E-01 2.17889E-01-1.33070E-02 2.42213E-03-2.34582E-03
 -1      5877 3.25022E-01-8.88760E-01 2.40310E-01-7.02365E-02-3.52609E-03 4.71198E-04
 -1      5878 3.15521E-01-9.09428E-01 2.52248E-01-7.99386E-02-6.75278E-04-4.01532E-03
 -1      5879 3.19983E-01-1.03043E+00 2.95304E-01-1.59287E-01-5.21457E-03-2.45398E-02
 -1      5880 2.61133E-01-9.01698E-01 2.79061E-01-6.19580E-02 8.79581E-03-1.79445E-02
 -1      5881 2.90265E-01-8.96387E-01 2.64320E-01-1.67150E-02 1.23720E-02-3.93672E-03
 -1      5882-5.06213E-01 1.01690E+00-2.18025E-01 2.58619E-01-5.97656E-03 1.38005E-03
 -1      5883-4.97536E-01 1.06191E+00-2.43952E-01 3.30533E-01-3.13116E-03 6.85173E-03
 -1      5884-4.36851E-01 9.85368E-01-2.35031E-01 3.11999E-01-4.44691E-03 2.16184E-03
 -1      5885-3.67576E-01 9.29318E-01-2.40795E-01 3.53973E-01-4.77870E-04 2.54235E-03
 -1      5886-7.05575E-01 1.18733E+00-2.03713E-01 2.75333E-01-1.66901E-02 7.94608E-03
 -1      5887-6.06602E-01 1.16129E+00-2.15844E-01 3.31493E-01-7.35269E-03-3.55200E-03
 -1      5888-6.76451E-01 1.22567E+00-2.36513E-01 3.70941E-01-2.42969E-02-1.12773E-02
 -1      5889-4.97591E-01 1.10785E+00-2.82045E-01 3.35360E-01 2.76205E-03-1.55043E-02
 -1      5890-2.95128E-01 9.01403E-01-2.57283E-01 4.61239E-01 2.02356E-04-5.55577E-03
 -1      5891-3.44965E-01 9.28787E-01-2.46481E-01 4.07816E-01-1.29914E-03 1.80622E-03
 -1      5892-3.87378E-01 1.02628E+00-2.67922E-01 4.35792E-01 3.34960E-04 4.63520E-03
 -1      5893-4.46106E-01 1.14221E+00-2.93169E-01 4.73675E-01 1.13935E-02-5.89476E-03
 -1      5894-5.10525E-01 1.17373E+00-2.80629E-01 4.06143E-01 6.00705E-03-1.69182E-02
 -1      5895-5.63953E-01 1.26673E+00-2.97657E-01 3.41169E-01 3.18199E-03-3.09605E-02
 -1      5896 3.15063E-01-6.91882E-01 1.64463E-01-1.92535E-01 2.61343E-03-6.74379E-03
 -1      5897 4.91751E-01-8.45091E-01 1.50393E-01-2.18513E-01 1.32712E-02 4.52495E-03
 -1      5898 4.28834E-01-7.91027E-01 1.52112E-01-3.54429E-01 1.02182E-02 5.79519E-03
 -1      5899 4.11113E-01-8.15839E-01 1.74614E-01-3.06723E-02 3.57235E-04-7.53015E-03
 -1      5900 5.95226E-01-9.64759E-01 1.58183E-01-1.71628E-01 1.63715E-02-8.70168E-03
 -1      5901 8.20946E-01-1.13108E+00 8.41399E-02-7.70762E-01-3.51945E-02 5.13220E-02
 -1      5902 8.34205E-01-1.04566E+00 1.61439E-01-2.08844E-01 4.66200E-02 1.43772E-02
 -1      5903 5.61303E-01-1.07413E+00 1.90273E-01 2.21003E-02 7.97125E-02 8.34676E-03
 -1      5904 9.29465E-02-3.98567E-01 1.24562E-01-7.84796E-01-1.53346E-02 1.44891E-02
 -1      5905 3.70610E-01-6.94176E-01 1.47640E-01-5.42084E-01-3.17175E-03 1.20989E-02
 -1      5906 4.26347E-01-7.00744E-01 9.36109E-02-7.49434E-01 3.49109E-05 3.14416E-02
 -1      5907-1.96477E-01 3.12315E-01-5.00886E-02-7.84724E-01-5.01981E-02 1.27437E-01
 -1      5908-1.40186E-01 2.90493E-01-6.91777E-02-9.38200E-01-2.98336E-02 2.91994E-02
 -1      5909-4.92935E-03-8.88464E-02 2.06292E-02-9.05553E-01 8.57224E-03 1.02745E-01
 -1      5910-2.95365E-01 7.16452E-01-1.98807E-01-8.74946E-01-4.60020E-02 3.19638E-02
 -1      5911-1.02800E-01 1.98860E-01-4.44779E-02-9.49214E-01-2.41206E-03 1.50466E-03
 -1      5912 9.48068E-02-1.88097E-01 3.66173E-02-8.65816E-01-6.79844E-03-5.19814E-03
 -1      5913 1.60708E-01-4.09196E-01 9.74828E-02-8.83773E-01 8.99210E-03 9.39391E-04
 -1      5914-8.26334E-03-8.34614E-03 1.30135E-02-9.71961E-01 1.22060E-03 4.45573E-04
 -1      5915 2.44666E-01-6.55246E-01 1.75949E-01-8.24890E-01 3.17615E-02 1.06864E-02
 -1      5916 1.91086E-01-5.51243E-01 1.32860E-01-7.86784E-01 8.42420E-02 4.47676E-02
 -1      5917 3.93010E-01-9.97448E-01 2.46998E-01-6.07557E-01 1.21762E-01 4.59759E-02
 -1      5918 3.46041E-01-1.05852E+00 3.08736E-01 5.88411E-01-6.16434E-05-2.05134E-02
 -1      5919 5.11725E-01-1.30446E+00 3.40622E-01 6.41997E-01 1.55281E-02-1.74811E-02
 -1      5920 6.07260E-01-1.34966E+00 3.19891E-01 5.14198E-01 1.66879E-03-7.38291E-03
 -1      5921 6.10777E-01-1.25386E+00 2.73944E-01 3.65865E-01-4.75180E-03-2.46756E-03
 -1      5922 7.55848E-01-1.50039E+00 3.24421E-01 4.23063E-01-2.55869E-03 2.06412E-03
 -1      5923 9.62251E-01-1.63711E+00 2.79975E-01 2.98084E-01-5.73406E-03-5.22547E-04
 -1      5924 8.62250E-01-1.61340E+00 3.21097E-01 4.15797E-01-7.85520E-03-1.67107E-03
 -1      5925 8.83581E-01-1.65671E+00 3.29802E-01 3.98407E-01-4.05413E-03-6.94914E-04
 -1      5926 8.18692E-01-1.71153E+00 3.76295E-01 4.91441E-01 2.70464E-02 9.01212E-03
 -1      5927 5.90788E-01-1.54642E+00 4.05124E-01 7.45614E-01 6.58237E-02-4.48614E-02
 -1      5928 6.64172E-01-1.71149E+00 4.42118E-01 6.49986E-01 7.51502E-02-1.96934E-02
 -1      5929 1.63069E-01-2.83216E-02-6.99475E-02-6.97123E-01 1.63649E-02-1.54660E-02
 -1      5930 4.63985E-02 1.15526E-01-6.67881E-02-7.54651E-01 4.08674E-03-1.31484E-02
 -1      5931-2.01150E-02 2.79230E-01-1.04621E-01-7.31900E-01-4.03767E-03-3.79204E-03
 -1      5932-1.08047E-02 1.75646E-01-7.14244E-02-8.11450E-01-5.23212E-03-1.10202E-02
 -1      5933 1.55311E-02 5.11527E-02-3.40879E-02-8.57726E-01-4.57931E-03 4.09926E-03
 -1      5934 1.77627E-01-2.58928E-01 3.65521E-02-7.63493E-01 1.03232E-02 3.73337E-04
 -1      5935 1.79890E-01-2.28556E-01 1.80831E-02-6.75839E-01-2.01333E-03-2.84871E-04
 -1      5936 2.34516E-01-1.78430E-01-2.86721E-02-5.54199E-01 1.53307E-02-1.33907E-02
 -1      5937-5.52999E-01 1.03338E+00-2.01704E-01-4.35309E-03 5.47211E-03 1.56247E-03
 -1      5938-5.82025E-01 1.04612E+00-1.96826E-01 1.23497E-01-1.75996E-03 4.19300E-03
 -1      5939-6.60677E-01 1.12189E+00-2.01232E-01 1.37136E-01-1.76726E-03-5.33041E-04
 -1      5940-8.49996E-01 1.22563E+00-1.82161E-01 1.44282E-01-3.25753E-02-3.26876E-03
 -1      5941-9.08996E-01 1.26716E+00-1.56675E-01-1.86763E-01 5.60776E-04 1.51774E-02
 -1      5942-5.58480E-01 9.69541E-01-1.75043E-01-4.01446E-01 4.83573E-03 8.30193E-03
 -1      5943-7.43070E-01 1.09342E+00-1.47719E-01-2.87956E-01 8.23058E-03 1.08884E-02
 -1      5944-5.75400E-01 1.01614E+00-1.90796E-01-1.80632E-01 1.34251E-03 2.55241E-03
 -1      5945 1.07812E+00-1.63656E+00 2.50290E-01 1.98470E-01-8.59264E-03-4.26715E-03
 -1      5946 9.63158E-01-1.31144E+00 1.40623E-01 2.46624E-01 2.54102E-02-4.46541E-03
 -1      5947 1.04545E+00-1.74822E+00 3.02649E-01 1.06605E-01-6.23058E-03 6.10915E-03
 -1      5948 1.05346E+00-1.65909E+00 2.53271E-01 1.88415E-01-8.48319E-03 1.23500E-03
 -1      5949 9.97463E-01-1.56532E+00 2.44504E-01 2.68222E-01-4.34922E-03 5.91368E-03
 -1      5950 1.02027E+00-1.62518E+00 2.53262E-01 2.53855E-01-6.16156E-03-7.05388E-04
 -1      5951 9.44728E-01-1.38298E+00 1.86101E-01 2.13162E-01 2.81516E-03 4.22622E-03
 -1      5952 8.46774E-01-1.08443E+00 9.94630E-02 2.07023E-01 1.20826E-02-2.53946E-03
 -1      5953-5.55568E-01 1.38765E+00-3.09576E-01-2.90250E-01-2.12258E-01 2.10876E-02
 -1      5954-6.44992E-01 1.65699E+00-4.00399E-01 2.93010E-02-1.97679E-01 1.60571E-02
 -1      5955-6.30043E-01 1.59101E+00-4.17133E-01-1.25001E-01-1.25683E-01 2.29876E-02
 -1      5956-5.06197E-01 1.62457E+00-4.84692E-01 4.21655E-01-3.29386E-01-2.87647E-02
 -1      5957-6.61460E-01 1.63953E+00-4.37888E-01 9.88052E-02-6.79211E-02 1.70683E-02
 -1      5958-6.81842E-01 1.80032E+00-4.64187E-01 3.78997E-01-1.38389E-01 1.09949E-02
 -1      5959-5.00700E-01 1.65054E+00-4.80541E-01 7.54835E-01-2.14341E-01-8.40788E-02
 -1      5960-5.16845E-01 1.64790E+00-5.02259E-01 5.71432E-01-2.71810E-01-4.92381E-02
 -1      5961-4.95320E-01 1.17157E+00-2.87363E-01 1.22344E-02-7.18091E-03 1.86883E-03
 -1      5962-2.94608E-01 7.78081E-01-2.05483E-01-1.93780E-01-1.80083E-03 9.95196E-04
 -1      5963-5.34654E-01 1.12403E+00-2.54117E-01 2.18512E-01 4.90418E-03-1.04686E-03
 -1      5964-1.97118E-01 5.61704E-01-1.55450E-01-7.38056E-02-1.21527E-02-1.73876E-03
 -1      5965-4.12371E-01 9.03568E-01-2.09474E-01 3.03294E-01-1.43065E-03 2.25824E-02
 -1      5966-6.01626E-01 1.19800E+00-2.49070E-01 4.30041E-01 5.55838E-03 3.16327E-02
 -1      5967-1.11647E-01 4.55417E-01-1.44173E-01-3.33616E-01-1.38159E-02-8.93316E-03
 -1      5968-4.11330E-01 2.18644E-02 1.73839E-01-6.61103E-01-5.23551E-03-6.03366E-03
 -1      5969-3.40585E-01 5.30170E-02 1.25415E-01-7.26344E-01-1.14635E-02 1.24236E-03
 -1      5970-2.88775E-01-1.48218E-01 1.85223E-01-6.85546E-01-5.46395E-03-5.51184E-04
 -1      5971-7.94674E-02-1.60429E-01 1.04914E-01-8.47057E-01-1.24102E-02 1.19599E-02
 -1      5972-6.89146E-02-3.19781E-01 1.57165E-01-6.74610E-01-1.12862E-02-6.90787E-04
 -1      5973 3.01059E-01-7.56557E-01 1.96424E-01 1.26001E-01-1.71149E-03-7.29730E-04
 -1      5974 2.49114E-01-6.45698E-01 1.69763E-01 7.39432E-02-3.54261E-03-8.26172E-04
 -1      5975 3.97855E-01-9.07152E-01 2.21219E-01 1.78724E-01-2.26630E-04 1.08954E-03
 -1      5976 4.14576E-01-9.30848E-01 2.21881E-01 7.33852E-02-3.28213E-03-2.49851E-03
 -1      5977 3.77131E-01-9.29165E-01 2.37641E-01-4.08483E-02-2.30122E-03-4.73029E-03
 -1      5978 2.74118E-01-7.44600E-01 2.01325E-01 3.75600E-03 4.43514E-04-2.58432E-03
 -1      5979 2.41357E-01-6.40238E-01 1.69630E-01 3.98516E-02 1.08131E-03 3.09355E-04
 -1      5980 2.20540E-01-6.17052E-01 1.71490E-01 1.60607E-02 8.95085E-04-2.98749E-04
 -1      5981 3.43262E-01-2.46132E-01-3.65748E-02-3.57012E-01 2.11265E-02-6.19757E-03
 -1      5982 4.89992E-01-3.61052E-01-6.26264E-02-1.46417E-01 1.62066E-02-8.05388E-03
 -1      5983 6.52757E-01-7.27298E-01 3.48030E-02 7.64712E-02 1.26576E-02 3.41959E-03
 -1      5984 4.77940E-01-1.24186E+00 3.30506E-01-2.30790E-01-2.48018E-02-1.51967E-02
 -1      5985 3.30441E-01-1.16136E+00 3.72405E-01-2.17771E-01-8.17208E-03-4.75740E-02
 -1      5986 6.75477E-01-1.48036E+00 3.45614E-01-2.83041E-01-1.15334E-02-2.25840E-02
 -1      5987 3.17998E-01-1.44412E+00 5.15985E-01-3.16193E-01-1.77849E-02-1.01845E-01
 -1      5988 7.62105E-01-1.65458E+00 3.95597E-01-3.32668E-01-6.74149E-02-1.84090E-02
 -1      5989 1.76157E-01-1.11212E+00 4.50454E-01-1.76274E-01 6.18129E-03-9.32712E-02
 -1      5990 9.03766E-01-1.77049E+00 3.60053E-01-1.72239E-01-3.74810E-02 1.63044E-03
 -1      5991 5.26130E-01-1.64369E+00 4.75406E-01 7.33000E-01 1.52618E-01-1.82691E-02
 -1      5992 7.61358E-01-1.79827E+00 4.44322E-01 4.48294E-01 9.13992E-02 1.85969E-02
 -1      5993 3.57641E-01-1.55658E+00 5.37370E-01 7.79642E-01 2.79830E-01-4.69849E-02
 -1      5994 6.11464E-01-1.69074E+00 4.48752E-01 1.74284E-01 1.94543E-01-1.15578E-02
 -1      5995 6.91789E-01-1.77521E+00 4.65165E-01 2.50207E-01 1.34294E-01 4.59958E-03
 -1      5996 5.51357E-01-1.73067E+00 4.77361E-01 4.84114E-01 2.16293E-01-2.14702E-02
 -1      5997-7.49297E-01 1.31933E+00-2.47233E-01 4.51039E-01 1.68130E-02 4.05863E-02
 -1      5998-9.33323E-01 1.67811E+00-3.16152E-01 4.03241E-01 3.76050E-02-1.58001E-02
 -1      5999-7.19753E-01 1.40836E+00-2.85027E-01 2.37686E-01 1.81979E-02-1.03997E-02
 -1      6000-8.55084E-01 1.52771E+00-2.78695E-01 1.48262E-01 2.05437E-02-8.14997E-02
 -1      6001-5.59267E-01 1.25303E+00-2.99018E-01 2.29922E-01-3.61866E-02-9.44255E-02
 -1      6002-4.21123E-01 1.24416E+00-3.57289E-01 6.81372E-01-6.87910E-03-8.40606E-03
 -1      6003-4.61753E-01 1.21031E+00-3.18833E-01 5.43688E-01 4.61017E-03-4.27379E-04
 -1      6004-3.55763E-01 1.05874E+00-3.02489E-01 5.67794E-01 9.25250E-04-2.63217E-03
 -1      6005-2.35803E-01 9.22995E-01-2.92063E-01 6.00473E-01 1.87280E-03-4.32005E-04
 -1      6006-2.29713E-01 1.02099E+00-3.39090E-01 7.30546E-01-1.89817E-03-4.95096E-03
 -1      6007-3.02236E-01 1.14778E+00-3.66008E-01 7.73302E-01-1.18456E-02-4.89890E-03
 -1      6008-2.55155E-01 8.87324E-01-2.71445E-01 5.21989E-01 2.90680E-03-4.12881E-03
 -1      6009-3.30632E-01 7.33287E-01-1.72179E-01-6.02797E-01 6.79324E-03 1.10516E-02
 -1      6010-2.27498E-01 7.05921E-01-2.12360E-01-5.74619E-01 1.08519E-02-9.24367E-03
 -1      6011-2.76749E-01 7.87475E-01-2.18065E-01-5.13180E-01 6.16349E-03-3.98424E-03
 -1      6012-4.03081E-01 8.82045E-01-2.04095E-01-4.04498E-01 7.25660E-03 1.29472E-06
 -1      6013-5.30744E-01 8.95930E-01-1.60754E-01-5.19392E-01 3.94679E-03 8.89955E-03
 -1      6014-4.65156E-01 1.05067E+00-2.54329E-01-6.37035E-01-9.64816E-02 6.25524E-02
 -1      6015-4.78642E-01 1.05056E+00-2.40050E-01-4.84473E-01-2.46985E-01 3.06398E-02
 -1      6016-3.42365E-01 6.43263E-01-1.48242E-01-5.99552E-01-1.91029E-01 8.65525E-02
 -1      6017 3.54107E-01-8.94533E-01 2.31789E-01 3.23401E-01-2.00803E-03-2.73859E-03
 -1      6018 5.02131E-01-1.09670E+00 2.56040E-01 2.71583E-01-1.97060E-03 2.72378E-04
 -1      6019 2.90109E-01-8.77626E-01 2.53186E-01 4.49627E-01-3.89533E-03-3.16991E-03
 -1      6020 4.93117E-01-1.25254E+00 3.11549E-01-3.93529E-01 1.51595E-01 2.86225E-02
 -1      6021 3.92506E-01-1.09249E+00 3.04892E-01-3.32653E-01 1.89322E-01 6.74855E-02
 -1      6022 4.44383E-01-1.27091E+00 4.03761E-01-1.08482E-01 3.49004E-01 7.02412E-02
 -1      6023 5.02843E-01-1.52067E+00 4.07857E-01 7.21868E-02 2.66203E-01-1.50235E-02
 -1      6024 6.01964E-01-1.53687E+00 3.91380E-01-1.63440E-01 1.44951E-01 2.83232E-02
 -1      6025 2.61527E-01-6.39452E-01 1.60752E-01-1.24074E-02-4.07716E-03-2.06207E-03
 -1      6026 2.57095E-01-6.08265E-01 1.50232E-01-5.34222E-02-4.13847E-03 8.52489E-04
 -1      6027 2.85289E-01-6.41360E-01 1.54148E-01-1.28823E-01-1.16436E-03-7.64189E-04
 -1      6028-7.84629E-02 4.05952E-01-1.31225E-01-5.65187E-01-3.86691E-03-1.03516E-02
 -1      6029-4.67196E-01 1.50795E+00-4.44621E-01 7.88780E-01-8.18690E-02-3.52625E-02
 -1      6030-3.33924E-01 1.32439E+00-4.18771E-01 8.68809E-01-4.10768E-02-4.60137E-02
 -1      6031 4.35583E-01-1.13130E+00 2.39701E-01 1.97918E-02 6.68951E-02 2.07411E-03
 -1      6032 9.68452E-01-1.67422E+00 3.08140E-01-3.87881E-02-1.97274E-02 3.81814E-03
 -1      6033-2.80681E-01 6.24566E-01-8.13217E-03-9.78636E-01 2.34829E-04-1.48988E-02
 -1      6034-7.29515E-01 3.19747E-01 8.36804E-03-3.92102E-01-1.66962E-03 2.82293E-03
 -1      6035-5.10937E-01 3.99590E-01-2.64847E-03-5.75317E-01 4.26873E-03-1.38694E-02
 -1      6036-6.53604E-01 3.38743E-01 1.95144E-02-4.42204E-01-1.39095E-02 4.96520E-02
 -1      6037-4.57516E-01 4.63502E-01-7.28801E-03-6.78572E-01-2.83418E-03 1.01002E-03
 -1      6038-6.45817E-01 3.37874E-01 1.83564E-02-4.45268E-01 1.65792E-02-5.71147E-02
 -1      6039-4.07622E-01 4.83549E-01-1.01540E-02-7.31734E-01 4.18920E-03 3.62604E-03
 -1      6040-1.29728E-01 7.71082E-01-3.37498E-02-1.22027E+00-3.70838E-02 1.04386E-01
 -1      6041-9.56808E-02 6.97339E-01-3.87785E-02-1.41625E+00 1.86014E-02-7.14667E-02
 -1      6042-7.77298E-01 3.01447E-01 1.59493E-02-3.60120E-01-3.10678E-02 1.02187E-01
 -1      6043-7.76043E-01 2.97514E-01 1.37869E-02-3.62309E-01 3.55157E-02-1.03111E-01
 -1      6044-8.01091E-01 2.94715E-01 5.18159E-03-3.57081E-01-1.16716E-03-7.79596E-03
 -1      6045 1.00317E-01 8.72318E-01 2.11088E-07-1.44180E+00-1.42478E-02 4.65985E-02
 -1      6046-8.92641E-01 2.86752E-01 3.57649E-02-3.30228E-01-3.44062E-02 1.71944E-01
 -1      6047-8.53990E-01 2.95394E-01-5.90191E-05-3.52090E-01-1.90206E-02 6.23877E-02
 -1      6048-8.23307E-01 2.88904E-01 1.92121E-03-3.30293E-01-6.31607E-02 1.91959E-01
 -1      6049-8.56279E-01 3.02831E-01-3.28478E-05-3.64134E-01 2.14483E-02-7.03348E-02
 -1      6050-8.88062E-01 2.92688E-01 2.42881E-02-3.34191E-01 3.80423E-02-1.72655E-01
 -1      6051-8.29676E-01 2.85935E-01 1.79163E-03-3.25301E-01 6.36388E-02-1.94588E-01
 -1      6052-2.63004E-01 7.16305E-01-2.27566E-02-1.07038E+00-2.79360E-02 1.64186E-01
 -1      6053 2.67580E-01 1.11244E+00 8.07899E-07-1.86002E+00-6.35766E-02 2.07927E-01
 -1      6054 3.13147E-01 1.00377E+00-2.08160E-02-1.71543E+00 2.10367E-02 6.06765E-02
 -1      6055 1.49757E-01 1.23017E+00 7.31953E-07-2.03454E+00 5.69693E-02-1.86318E-01
 -1      6056-2.87084E-01 7.05700E-01-1.62255E-02-1.15588E+00 8.34702E-03-1.20432E-01
 -1      6057 5.27690E-01 1.22579E+00-6.53193E-02-2.18403E+00-1.53763E-01-9.70293E-03
 -1      6058-8.81498E-01 3.03420E-01-3.30909E-04-3.53513E-01-3.99314E-03 2.09396E-02
 -1      6059-8.78211E-01 3.03185E-01-5.04052E-06-3.61223E-01 6.69725E-03-2.19263E-02
 -1      6060-7.86846E-01 2.90988E-01 3.06602E-03-3.58159E-01 1.98783E-02-5.27838E-02
 -1      6061-7.85451E-01 2.93731E-01-3.28115E-05-3.59949E-01-1.36012E-02 4.44864E-02
 -1      6062-7.36807E-01 2.99956E-01-9.08409E-07-3.77862E-01 5.00141E-02-1.63572E-01
 -1      6063-6.81887E-01 3.28342E-01 3.35389E-03-4.11183E-01 4.56772E-02-1.18391E-01
 -1      6064-7.07192E-01 3.09882E-01 1.29815E-02-3.98359E-01 2.42365E-02-8.41139E-02
 -1      6065-5.68616E-01 3.59416E-01-4.39646E-07-5.00808E-01 2.03853E-02-6.66708E-02
 -1      6066-4.50730E-01 4.43256E-01-5.64479E-03-6.51160E-01 8.77981E-03-7.05012E-03
 -1      6067-3.28352E-01 5.54501E-01 1.39751E-07-8.56551E-01-1.88001E-02 6.14858E-02
 -1      6068-5.80366E-01 3.63466E-01 5.27125E-03-5.02894E-01 6.83103E-03-3.27091E-02
 -1      6069-4.91651E-01 4.01549E-01-3.25000E-07-5.81472E-01 1.04303E-02-3.41125E-02
 -1      6070-4.30715E-01 4.40846E-01-9.62099E-03-6.56680E-01-3.85112E-04-9.02972E-03
 -1      6071-2.61479E-01 6.17595E-01-1.39776E-02-9.70634E-01-1.48380E-02 3.94952E-02
 -1      6072-6.76580E-01 3.28431E-01 4.48243E-03-4.16212E-01-4.45911E-02 1.12159E-01
 -1      6073-7.34175E-01 3.01142E-01-8.95812E-07-3.80204E-01-4.83478E-02 1.58122E-01
 -1      6074-7.09022E-01 3.10162E-01 1.24617E-02-3.98143E-01-2.23901E-02 8.06736E-02
 -1      6075-4.94317E-01 4.40496E-01-2.20821E-03-6.33310E-01-1.07772E-02 1.51957E-02
 -1      6076-5.44707E-01 3.80789E-01-4.32450E-07-5.39413E-01-2.02326E-02 6.61713E-02
 -1      6077-5.30514E-01 3.92748E-01 2.05787E-04-5.61461E-01-5.31122E-03 2.63711E-02
 -1      6078-3.86042E-01 5.53728E-01 4.15784E-08-8.46468E-01 1.22069E-02-3.99227E-02
 -1      6079-2.99190E-01 6.07053E-01 1.13931E-07-9.46944E-01 1.15482E-02-3.77682E-02
 -1      6080 3.34799E-01 1.02027E+00 9.35334E-08-1.71959E+00-1.58533E-02 5.18491E-02
 -1      6081 4.05633E-01 1.07867E+00 2.13227E-07-1.82591E+00-1.35486E-02 4.43130E-02
 -1      6082 6.58265E-03 8.21605E-01 1.85738E-07-1.34454E+00-1.60643E-02 5.25381E-02
 -1      6083 4.10053E-02 8.66481E-01 2.99872E-07-1.42319E+00-5.90515E-03 1.93147E-02
 -1      6084-3.85811E-01 5.42659E-01 3.06040E-07-8.28402E-01 7.40233E-04-2.42081E-03
 -1      6085-4.43826E-01 4.81673E-01 3.76049E-04-6.99138E-01 2.76207E-03-1.87355E-03
 -1      6086-3.95354E-01 5.15925E-01-5.52578E-03-8.01642E-01-8.14873E-03-5.71140E-03
 -1      6087-1.61407E-01 6.99189E-01-1.33505E-02-1.16071E+00 2.78475E-02-3.04358E-02
 -1      6088-1.90032E-01 6.96046E-01 3.75435E-07-1.10916E+00-6.23692E-03 2.03977E-02
 -1      6089-9.62967E-02 7.46759E-01 2.63070E-07-1.20642E+00-4.42065E-03 1.44581E-02
 -1      6090-7.00139E-01 3.28829E-01 7.56537E-03-4.10207E-01-1.99567E-02 2.81266E-02
 -1      6091-6.61798E-01 3.27889E-01-5.32209E-07-4.35007E-01 3.54735E-04-1.16014E-03
 -1      6092-6.93850E-01 3.26673E-01 1.05956E-02-4.14429E-01 1.80268E-02-2.78731E-02
 -1      6093-7.46495E-01 3.00569E-01 6.52795E-04-3.80504E-01-1.34309E-02 4.28365E-02
 -1      6094-7.50404E-01 2.98046E-01-8.29589E-07-3.72659E-01 1.35626E-02-4.43568E-02
 -1      6095-7.54575E-01 2.99087E-01 5.99005E-03-3.73713E-01-1.78817E-03 2.07983E-04
 -1      6096-5.93801E-01 3.62227E-01-4.65404E-07-5.01553E-01-3.09084E-03 1.01088E-02
 -1      6097-4.59836E-01 4.31650E-01-3.32716E-07-6.35559E-01-3.89931E-04 1.27542E-03
 -1      6098-7.43677E-05 1.20961E-04-3.47406E-05 1.65879E-04 5.59330E-05 1.49748E-05
 -1      6099-1.10409E-04 1.49713E-04-1.53752E-05-1.98266E-04 4.11666E-05-1.73773E-05
 -1      6100 4.00752E-05-1.91675E-05-1.37001E-05-1.06414E-04-1.22872E-05 8.27870E-06
 -1      6101 3.77917E-05-1.39298E-05-1.57336E-05 1.01132E-04-1.26469E-05-3.57015E-06
 -1      6102-6.50071E-05 1.04835E-04-1.69019E-05 1.91037E-05-3.79390E-06 6.63639E-06
 -1      6103 6.73782E-05-6.31825E-06-3.19295E-05-2.07217E-04 7.52172E-06-1.43275E-05
 -1      6104-6.86043E-05 1.34841E-04-2.41991E-05-4.86681E-05-3.71155E-05-2.04184E-05
 -1      6105 8.89213E-05-3.38781E-06-2.79153E-05 2.24093E-04 3.56053E-05-1.01735E-06
 -1      6106 1.37473E-04-1.11200E-04-1.25983E-05 5.08294E-05 1.30661E-05 4.68655E-06
 -1      6107 1.22451E-04-1.13834E-04-5.17372E-06-4.06023E-05 1.01680E-05 2.97818E-06
 -1      6108 1.57271E-04-2.71546E-04 5.01621E-05-1.49387E-04 1.84241E-05 8.75851E-06
 -1      6109 2.29263E-04-4.28033E-04 6.22606E-05 1.37601E-04-2.73916E-05 1.60673E-05
 -1      6110 1.22540E-04-1.44707E-04 2.15270E-05 3.19288E-04-1.40203E-04 2.15422E-05
 -1      6111 2.63589E-04-2.11940E-04-1.06913E-05-2.77780E-04-1.23407E-05-3.92807E-05
 -1      6112 1.24280E-04-9.08744E-05-1.07952E-05 3.60473E-05-1.26637E-06 1.09654E-05
 -1      6113 1.07893E-04-8.45915E-05-4.98740E-06-6.94171E-06-9.71222E-07-8.08002E-06
 -1      6114 2.62703E-04-4.50305E-04 7.98050E-05 2.71127E-04-7.24846E-05 4.70602E-05
 -1      6115 2.00004E-04-3.38428E-04 5.26987E-05-2.51386E-04-6.56461E-05-6.75051E-05
 -1      6116 1.15588E-04-6.83991E-05-2.55674E-05-3.63843E-05-1.35911E-06-6.94890E-07
 -1      6117 1.34215E-04-9.17868E-05-2.46050E-05 2.54614E-05-2.61123E-06 2.40240E-06
 -1      6118 8.55376E-06-4.55080E-04 1.48618E-04 1.98582E-04-3.61658E-05-3.54900E-05
 -1      6119-2.77236E-04 7.53200E-04-1.71006E-04-4.19206E-05-2.11884E-05-3.02590E-05
 -1      6120-1.88878E-04 2.90687E-04 4.89214E-06 1.56502E-04 8.89339E-06-5.59244E-05
 -1      6121 1.22368E-04-4.78894E-04 1.31168E-04 6.76920E-05 8.75380E-05-3.96829E-06
 -1      6122-1.85690E-04 6.32813E-04-1.67709E-04 2.15937E-04-6.48340E-06-2.01011E-05
 -1      6123 8.11104E-05 1.82327E-04-1.06588E-04 2.38103E-04-8.24023E-07 3.10746E-05
 -1      6124-1.01821E-04 5.45067E-04-1.86915E-04-1.86649E-04-3.22386E-05 1.88688E-05
 -1      6125 2.08451E-04-2.33923E-05-6.61251E-05-1.75348E-04 2.21126E-05-3.27785E-05
 -1      6126 9.05819E-05-2.42152E-05-3.53038E-05-7.89315E-05 1.70768E-05 4.20285E-06
 -1      6127 1.61189E-04-6.09769E-05-3.64275E-05-8.22973E-05 3.87053E-06-1.17898E-05
 -1      6128 1.09709E-04 7.43528E-06-5.99755E-05-1.02279E-04 2.50218E-06-6.84691E-06
 -1      6129 1.21357E-04-8.59660E-05-1.99932E-05-4.81977E-05-1.99244E-06-1.13696E-06
 -1      6130-7.94826E-05 6.61899E-05 1.35427E-05 3.61349E-05-3.48077E-05 8.07717E-06
 -1      6131 2.72135E-05-2.14131E-05-1.66526E-05-5.41644E-06 1.51078E-05 9.76234E-06
 -1      6132 9.70525E-05-1.00178E-04 1.52855E-06 1.12299E-04-3.75169E-05-8.65478E-06
 -1      6133 6.02461E-07-1.55254E-04 6.76200E-05 1.49968E-04 4.72086E-07-1.51736E-05
 -1      6134 6.78494E-05-1.26163E-04 2.69893E-05-3.58684E-05-3.24490E-06 3.00920E-06
 -1      6135 6.60563E-05-9.10875E-05 4.97503E-06-1.07260E-04 8.83483E-06-9.86951E-07
 -1      6136 4.32357E-05-4.12143E-07-1.79289E-05-1.03019E-04-2.16844E-05 5.06045E-06
 -1      6137 1.00164E-04-5.60009E-05-2.53388E-05-1.04363E-04 4.78869E-06-1.07567E-06
 -1      6138 8.82394E-05-9.82508E-05 4.81348E-06-4.26955E-05 3.20412E-06 9.42384E-06
 -1      6139 1.34221E-04-6.10314E-05-2.21054E-05-6.80171E-05 1.51279E-05-1.16528E-05
 -1      6140 1.06567E-04-7.35384E-05-1.35232E-05-1.75591E-05 1.87641E-07-4.44868E-06
 -1      6141 9.97326E-05-3.09625E-04 4.78886E-05-1.57971E-04 5.85491E-05 2.39612E-05
 -1      6142 6.62905E-05-1.36693E-04 4.82886E-05-5.30464E-05 1.26477E-05-3.17565E-05
 -1      6143 2.40730E-06 1.11925E-04-5.94149E-05-1.51778E-04-2.14275E-05 1.59819E-05
 -1      6144 4.83773E-05-3.66531E-05 1.93427E-07-9.29460E-05-3.62747E-05-2.10094E-06
 -1      6145 6.31503E-05 1.27894E-04-8.22298E-05-2.07194E-04-5.71065E-06-1.81774E-05
 -1      6146 2.79331E-05-2.94574E-04 1.64956E-04-2.08822E-04-7.81887E-06-1.72849E-05
 -1      6147 5.45021E-06-3.02282E-04 7.65190E-05-1.51245E-04 3.77160E-06 2.63156E-05
 -1      6148-2.40164E-04 6.34914E-04-1.55385E-04 4.26243E-05 1.01274E-07 2.51881E-05
 -1      6149-1.37599E-04 3.08121E-04-7.88580E-05-1.38393E-04 2.75781E-05 4.66055E-05
 -1      6150-1.54105E-04 4.90778E-04-1.35676E-04-2.18630E-04-1.82209E-05 1.78111E-05
 -1      6151-5.16898E-05-4.96726E-04 1.79755E-04-3.97761E-04 7.67984E-05 6.70520E-05
 -1      6152 4.83488E-05-2.55668E-04 9.50795E-05-2.23489E-04 5.88515E-05-2.08753E-05
 -1      6153-1.41356E-04 5.12747E-04-1.51077E-04 1.52436E-05-1.49168E-05-1.06233E-05
 -1      6154-2.74065E-05 1.25895E-05 1.59033E-05-8.69203E-05 3.37169E-05-6.80220E-06
 -1      6155-1.12004E-04 4.85212E-04-1.67554E-04 1.57415E-04-1.35367E-05-1.80823E-05
 -1      6156-1.46310E-04-3.35046E-04 2.58384E-04-4.29490E-04 1.59687E-05-8.62980E-05
 -1      6157-2.17289E-04-4.64799E-04 2.32964E-04-6.99776E-04 3.96038E-05-1.95168E-06
 -1      6158-2.13918E-04 8.76763E-04-2.60690E-04 2.82024E-04-7.72232E-06 1.20194E-05
 -1      6159-1.68445E-04 3.61995E-04-1.11350E-04 1.38421E-04 1.21337E-05 1.29461E-04
 -1      6160 5.57725E-06 6.64806E-04-3.04970E-04 8.18860E-04-5.96136E-05 5.91544E-05
 -1      6161-1.56479E-04-6.24270E-04 2.70841E-04-2.34729E-04-1.07667E-04 2.77244E-05
 -1      6162 1.64452E-04-2.39618E-04 2.32716E-05-2.14337E-05-1.11262E-04-6.63615E-05
 -1      6163 2.09110E-04-6.93879E-04 1.98275E-04-4.47427E-04-5.04043E-05-1.63404E-06
 -1      6164-5.71309E-05-3.18831E-04 2.01176E-04-4.45099E-04 3.69592E-05 2.95856E-05
 -1      6165 2.23411E-04-3.09744E-04 4.07999E-05-2.38073E-04-2.47661E-05-1.61390E-05
 -1      6166 3.54376E-05-3.02584E-04 9.29314E-05-6.38915E-04-5.11597E-06-2.63006E-05
 -1      6167 4.89036E-04-3.13545E-04-8.52753E-05-2.15325E-04-1.56593E-05-4.92064E-05
 -1      6168 4.46854E-04-4.67880E-04-5.25809E-05-1.09330E-04-5.06855E-05-2.62180E-05
 -1      6169 2.68904E-04-1.11863E-04-5.48186E-05 1.77195E-04 2.96198E-05 3.96475E-05
 -1      6170-1.43169E-04-1.16145E-04 1.07286E-04-4.27771E-04-4.18120E-05-6.01930E-05
 -1      6171 1.08930E-04-2.77308E-05 8.99021E-05-7.11854E-04 5.57377E-05 3.69383E-05
 -1      6172-5.88444E-04 5.50644E-04 8.18514E-05 6.07045E-05 1.03147E-04 1.26970E-05
 -1      6173 1.89967E-04-1.27975E-04-2.98144E-05 8.00704E-05-5.44595E-05 1.23568E-04
 -1      6174 8.78503E-04-4.23571E-04-2.07843E-04 2.55135E-05-1.14178E-05 9.52580E-05
 -1      6175 5.06263E-05-3.47043E-04 1.09530E-04 9.51848E-04 2.79307E-05 3.22139E-05
 -1      6176 2.43808E-06-4.39106E-04 2.23125E-04 4.86573E-04 4.60606E-06-1.48119E-05
 -1      6177 6.02971E-04-1.06524E-03 2.47802E-04 4.11402E-04-1.20869E-04-4.56680E-05
 -1      6178 9.63965E-04-9.44606E-04-7.90280E-05 3.52050E-04-2.87637E-05-1.69791E-05
 -1      6179 3.31010E-04-3.39978E-04 1.50348E-08-9.93613E-05 2.39790E-05-5.03192E-05
 -1      6180-2.79716E-04-4.43388E-04 2.75027E-04 7.40921E-04-1.43701E-04 3.86271E-05
 -1      6181-1.02774E-04-3.92973E-04 2.95000E-04 4.60264E-04 4.00616E-05 6.48414E-05
 -1      6182 2.88803E-04-4.17956E-04 4.75885E-05 2.47364E-04-6.01445E-05 1.41376E-05
 -1      6183 4.59474E-05-2.87646E-04 1.11092E-04 2.24630E-04 6.56690E-05 2.56576E-05
 -1      6184 2.62986E-06-5.83086E-04 1.72453E-04 4.02937E-04 1.99531E-05 5.98870E-06
 -1      6185-3.37901E-04 8.82668E-04-2.10217E-04-3.07793E-04 4.04639E-05-4.62440E-05
 -1      6186-3.12230E-04 3.42067E-04 4.81982E-05-1.78820E-04-3.71927E-05-6.90496E-05
 -1      6187-7.26482E-05 7.71763E-04-3.14731E-04-8.56967E-04-2.47882E-05-1.35384E-04
 -1      6188-3.46097E-06-5.96985E-04 2.06975E-04 2.19953E-04-5.93287E-05-1.08522E-04
 -1      6189 2.37719E-04-3.36656E-04 7.76598E-05 3.04708E-05-3.14213E-05 3.47341E-05
 -1      6190 1.75623E-05-3.04946E-04 1.61993E-04 2.14861E-04-3.86580E-05 2.65398E-05
 -1      6191-1.25488E-04 5.19266E-04-1.73100E-04-4.54394E-05-3.89314E-06-4.04335E-06
 -1      6192-1.58790E-05 1.74052E-05 1.00429E-05 7.92155E-05 4.62873E-05 1.79547E-06
 -1      6193 6.78139E-05-1.51823E-04 4.25537E-05 4.33910E-05 5.77993E-05 4.33039E-05
 -1      6194 7.56623E-05-1.34537E-04 9.55281E-06 8.19777E-05 2.04533E-05 2.13863E-06
 -1      6195 8.24281E-05-1.58424E-04 3.27590E-05 1.46059E-05-4.87756E-06-1.20483E-06
 -1      6196-8.24753E-06 1.58306E-04-6.93401E-05 1.63281E-04-2.48823E-05-1.97858E-05
 -1      6197 5.10553E-05-2.31211E-05-3.18928E-06 9.12959E-05-4.51383E-05 2.20280E-06
 -1      6198 1.04241E-04-1.35358E-05-4.16727E-05 7.73169E-05 9.84282E-07 5.47427E-06
 -1      6199 1.49428E-04-1.02115E-04-1.74027E-05 3.91274E-05 1.62948E-05 1.23656E-05
 -1      6200 3.05347E-05 6.48853E-05-3.70537E-05 1.27659E-04-1.45805E-05 2.02624E-07
 -1      6201 1.05311E-04-5.65083E-05-2.59370E-05 1.31981E-04 3.07761E-05-5.08870E-06
 -1      6202 9.83796E-05-3.16574E-05-3.23334E-05 1.06034E-04-4.73697E-06-4.64429E-06
 -1      6203 1.37971E-04-1.26366E-04 1.09050E-05 6.75860E-05 2.49265E-05 7.96267E-06
 -1      6204 1.28634E-04-8.83114E-05-2.12546E-05 2.33567E-05 2.17973E-06 6.20408E-06
 -1      6205 2.36765E-04-5.75606E-05-7.78605E-05 1.32530E-04 2.70282E-05 2.61559E-05
 -1      6206 9.42968E-05-5.01733E-05-2.62279E-05 6.24682E-05 1.52067E-05-4.29187E-06
 -1      6207 1.29559E-04-1.04631E-04-1.57233E-05 3.83841E-05 1.17762E-06 1.88389E-06
 -1      6208 3.43114E-05-2.22146E-05-2.36050E-05 8.88264E-07 1.17137E-05-2.23163E-06
 -1      6209-5.22409E-05 3.72845E-05 1.98962E-05-4.58604E-05-2.59816E-05 7.29587E-07
 -1      6210 8.55099E-05-1.16786E-04 1.37523E-05-1.32775E-04-2.19902E-05 3.31386E-05
 -1      6211 1.75700E-06-1.21514E-04 6.46661E-05-1.29121E-04 3.38604E-07 7.99757E-06
 -1      6212-3.06733E-05 3.05914E-05 2.80848E-05-1.19175E-04-1.42510E-05-1.68399E-05
 -1      6213 2.71099E-06-1.64017E-05-6.78665E-06-4.07021E-05 1.45475E-05 7.93836E-06
 -1      6214-3.69885E-06-1.34376E-05-1.23153E-05 2.62765E-05 9.77768E-06-6.90185E-06
 -1      6215-1.19903E-04 9.05311E-05 2.56714E-05 1.05279E-04-4.10150E-05-2.55008E-05
 -1      6216 6.98588E-05-7.28691E-05 8.53516E-06-1.41027E-05-1.13630E-05 2.14837E-06
 -1      6217 6.75515E-05-1.02907E-04 9.45509E-06 3.31533E-06 8.67950E-06 1.42709E-06
 -1      6218 7.30407E-05-8.81459E-05 4.73953E-06-1.48827E-05 2.64790E-06-9.20496E-08
 -1      6219 5.06288E-05-1.12643E-04 2.75952E-05 1.79670E-05 1.80492E-05 3.30529E-06
 -1      6220 4.11294E-05-8.41080E-05 2.22809E-05 6.34841E-05-1.19770E-05-5.92748E-06
 -1      6221 4.19871E-05-8.37301E-05 1.71615E-05 4.22188E-05 4.81558E-06-4.20155E-06
 -1      6222 3.71014E-04 1.74790E-04-2.27858E-04 5.42514E-04-2.16577E-05 2.08606E-05
 -1      6223 2.77258E-04 5.43504E-05-1.44672E-04 3.14096E-04 2.90564E-05 7.77078E-06
 -1      6224 4.08392E-04-3.66612E-05-1.81493E-04 2.90246E-04-2.63788E-05-1.36176E-05
 -1      6225 3.02336E-04 5.58530E-06-1.41636E-04-3.68059E-04-9.79681E-06-2.28075E-05
 -1      6226 5.59065E-04 1.41662E-04-2.98707E-04-6.00086E-04 4.61633E-05 3.94343E-05
 -1      6227 4.47158E-04-7.50742E-05-1.88011E-04-3.39520E-04-3.90880E-05 3.60053E-05
 -1      6228-7.70555E-05 1.22010E-04-3.35552E-05 1.66467E-04-5.67005E-05-1.59926E-05
 -1      6229-9.80628E-05 1.51074E-04-2.72996E-05-1.87951E-04-2.74767E-05 1.83934E-05
 -1      6230 4.35266E-05-2.24719E-05-1.51185E-05-9.62880E-05 7.19857E-06-7.33037E-06
 -1      6231 4.36985E-05-1.85672E-05-1.35229E-05 9.55302E-05 1.05103E-05 1.01974E-05
 -1      6232-9.05339E-05 1.38148E-04-3.46488E-05 2.13307E-05 1.73000E-05-1.82361E-05
 -1      6233 5.43874E-05 1.03940E-06-2.86114E-05-2.19208E-04-2.50657E-05-3.99219E-06
 -1      6234-7.36005E-05 1.24743E-04-1.48164E-05-5.97548E-05 4.16496E-05 1.88389E-05
 -1      6235 8.26818E-05-1.99587E-05-1.74203E-05 2.43076E-04-3.27755E-05 3.80148E-06
 -1      6236 1.21385E-04-1.15566E-04-3.31478E-06 4.68601E-05-6.33512E-06 6.25619E-07
 -1      6237 1.18153E-04-1.01913E-04-9.21753E-06-3.33077E-05-8.11673E-06-3.35993E-06
 -1      6238 1.55908E-04-2.73461E-04 4.67033E-05-1.51740E-04-7.55404E-06-2.01321E-05
 -1      6239 2.29533E-04-4.36915E-04 5.95567E-05 1.30441E-04 5.21864E-06-2.61372E-05
 -1      6240 2.17997E-04-1.88734E-04-1.11358E-06 2.49561E-04 1.79765E-05-2.44200E-05
 -1      6241 2.62828E-04-1.47400E-04-6.65894E-05-2.66367E-04 2.90214E-05 3.46742E-05
 -1      6242 1.15587E-04-8.75190E-05-6.99747E-06 4.80394E-05 1.53064E-06-1.12601E-05
 -1      6243 1.09614E-04-8.90377E-05-2.29246E-06-1.73936E-05 5.75805E-06 1.04507E-05
 -1      6244 2.73447E-04-4.15536E-04 7.56389E-05 2.45407E-04 7.47798E-05-6.11087E-05
 -1      6245 2.01397E-04-3.93251E-04 8.46553E-05-2.71032E-04 6.74573E-05 4.05090E-05
 -1      6246 1.13753E-04-6.83569E-05-2.61805E-05-3.39454E-05 1.44175E-06 1.19243E-06
 -1      6247 1.19860E-04-8.11136E-05-2.24309E-05 2.40927E-05 3.40790E-06-3.77691E-06
 -1      6248-2.88180E-04 7.42069E-04-1.83184E-04-7.08252E-05 3.58941E-05 4.49319E-05
 -1      6249 8.28526E-06-4.10519E-04 1.16206E-04 1.68303E-04 2.93638E-05 3.26173E-05
 -1      6250-1.47289E-04 2.59731E-04-8.29680E-05 1.54712E-04-1.72424E-05 5.46482E-05
 -1      6251 1.11477E-04-4.44399E-04 1.09226E-04 1.14039E-04-8.12712E-05 4.65851E-06
 -1      6252-1.89498E-04 6.11934E-04-1.73741E-04 2.34927E-04-4.96898E-06 3.63683E-05
 -1      6253 6.91992E-05 1.91089E-04-1.14091E-04 2.48538E-04 5.13742E-06-2.74147E-05
 -1      6254-1.09932E-04 5.47032E-04-1.83654E-04-1.89033E-04 3.46015E-05-2.00851E-05
 -1      6255 1.26342E-05-3.14875E-04 1.67591E-04 2.07862E-04 3.77365E-05-2.71311E-05
 -1      6256 5.95239E-05-1.56744E-04 4.80094E-05 5.22947E-05-5.79385E-05-4.59652E-05
 -1      6257 4.56109E-05-2.85945E-04 1.10817E-04 2.24515E-04-6.56016E-05-2.51494E-05
 -1      6258-1.60460E-06-5.84930E-04 1.75336E-04 4.08838E-04-1.72519E-05-6.91370E-06
 -1      6259-1.58806E-05 1.75033E-05 9.69663E-06 7.90515E-05-4.67046E-05-1.84438E-06
 -1      6260-1.26428E-04 5.18276E-04-1.71970E-04-4.39871E-05 3.74222E-06 2.55980E-06
 -1      6261 7.94790E-05-1.46541E-04 2.35130E-05 9.68083E-05-4.89275E-06 2.95950E-06
 -1      6262 8.33405E-05-1.62283E-04 3.42523E-05 2.13110E-05 5.15764E-06 6.31624E-07
 -1      6263-1.21078E-05 1.62572E-04-6.95424E-05 1.57387E-04 1.38355E-05 1.49342E-05
 -1      6264 4.79917E-05-1.91602E-05-5.86303E-06 9.04914E-05 4.73782E-05 3.99273E-06
 -1      6265 1.06063E-04-1.31264E-05-4.91032E-05 8.13071E-05 1.21047E-06-1.18344E-05
 -1      6266 1.61023E-04-1.07363E-04-1.50706E-05 3.16220E-05 3.66228E-06-1.40086E-05
 -1      6267 9.91893E-05-5.05488E-05-2.95297E-05 1.24487E-04-1.25047E-05 5.54178E-06
 -1      6268 3.08806E-05 6.89471E-05-3.79661E-05 1.28075E-04 2.03311E-05 6.10959E-06
 -1      6269 1.36095E-04-1.18558E-04 2.79907E-06 6.04766E-05-2.19278E-05-1.60671E-05
 -1      6270 8.79151E-05-3.16032E-05-2.87599E-05 1.14108E-04 8.00403E-06 9.72906E-06
 -1      6271 1.07711E-04-8.91314E-05-1.05850E-05 2.17586E-05 2.21046E-06-1.11851E-05
 -1      6272 2.09223E-04-4.45076E-05-5.36436E-05 1.64924E-04-1.49677E-05-1.54928E-05
 -1      6273 8.37258E-05-4.13359E-05-2.51499E-05 5.61960E-05-1.61950E-05 5.53180E-06
 -1      6274 1.26687E-04-8.79333E-05-2.08356E-05 4.01752E-05-5.60303E-07-3.74040E-06
 -1      6275 5.06884E-05-2.77080E-05-3.36967E-05 9.00817E-06-9.27852E-06 7.22367E-07
 -1      6276-6.96434E-05 4.33434E-05 2.44450E-05-5.49051E-05 3.75121E-05 1.42398E-05
 -1      6277 1.38522E-04-1.26784E-04 8.62352E-06-1.04490E-04 2.80118E-05 3.81990E-06
 -1      6278 1.60559E-05-1.51311E-04 6.38176E-05-1.29064E-04-9.31156E-06-1.32836E-06
 -1      6279-8.16091E-05 7.28140E-05 1.01397E-05-1.03939E-04 4.48011E-05-2.98699E-05
 -1      6280 9.78629E-06-1.83808E-05-2.02773E-05-3.32839E-05-9.74355E-06-6.07400E-07
 -1      6281-7.47256E-06-1.17965E-05-8.22225E-06 2.57656E-05-1.05314E-05 1.07488E-05
 -1      6282-6.66633E-05 5.63275E-05 2.43596E-05 1.00312E-04 2.82802E-05 6.05580E-06
 -1      6283-6.77343E-05 4.86162E-05 2.01725E-05 3.59688E-05 2.21878E-05-8.56449E-06
 -1      6284 2.43072E-05-1.95977E-05-1.88989E-05 3.00479E-06-1.11039E-05-1.07254E-05
 -1      6285 9.39151E-05-3.54991E-05-3.41775E-05-7.03213E-05-1.13731E-05-1.21576E-06
 -1      6286 2.32321E-04-4.03517E-05-5.98857E-05-1.80616E-04-1.67216E-05-6.08123E-06
 -1      6287 1.17268E-04-1.10202E-04-2.12576E-05 1.13673E-04-8.31013E-06 2.42831E-05
 -1      6288 1.20590E-05-1.49370E-04 5.87168E-05 1.67780E-04-1.39720E-05 2.85065E-05
 -1      6289 1.62056E-04-6.62955E-05-3.65396E-05-8.30525E-05-4.86483E-06 1.46938E-05
 -1      6290 1.05610E-04 5.37941E-06-5.36190E-05-9.96706E-05-6.12087E-06 5.53641E-07
 -1      6291 1.11247E-04-7.84951E-05-1.61421E-05-4.38227E-05-7.21887E-07 2.70270E-06
 -1      6292 7.16111E-05-1.28737E-04 2.18961E-05-2.83009E-05 8.03640E-06-2.51437E-06
 -1      6293 7.44484E-05-9.43261E-05 4.82568E-06-1.06783E-04-2.21209E-05 5.03945E-06
 -1      6294 4.95682E-05-2.00675E-06-2.25187E-05-9.97070E-05 8.45881E-06-3.75938E-06
 -1      6295 9.89768E-05-7.46406E-05-9.54600E-06-1.03216E-04-2.06110E-05 1.09436E-05
 -1      6296 8.45306E-05-8.65588E-05-1.35934E-06-4.11011E-05 7.73471E-07-5.85894E-06
 -1      6297 1.37414E-04-7.42966E-05-1.21687E-05-8.30816E-05-1.92241E-05 1.56703E-05
 -1      6298 1.09108E-04-7.55983E-05-1.59813E-05-2.11364E-05 3.62600E-06 3.78206E-06
 -1      6299 7.07347E-05-2.92418E-04 8.53322E-05-1.49474E-04-7.69580E-05-3.79157E-05
 -1      6300 6.70888E-05-1.20934E-04 4.71851E-05-4.93353E-05-2.28334E-05 3.25836E-05
 -1      6301 4.39577E-05-3.70656E-05-4.52429E-08-8.81890E-05 3.94041E-05 4.74974E-06
 -1      6302-2.79836E-06 1.16838E-04-5.66474E-05-1.46274E-04 1.60903E-05-8.41151E-06
 -1      6303 4.74368E-05 1.51712E-04-9.17667E-05-2.23741E-04 4.85505E-06 9.10972E-06
 -1      6304 2.34530E-05-2.79781E-04 1.53392E-04-2.06499E-04 4.77984E-06 1.89696E-05
 -1      6305-2.07291E-05-2.79239E-04 7.57703E-05-1.53816E-04 7.41777E-06-4.99126E-05
 -1      6306-2.46769E-04 6.38676E-04-1.63084E-04 3.45489E-05 1.87727E-05-2.65738E-05
 -1      6307-1.24414E-04 2.64490E-04-6.31570E-05-1.57707E-04-2.82347E-05-5.52094E-05
 -1      6308-1.43164E-04 5.03882E-04-1.53510E-04-1.98385E-04 5.17099E-06-1.19908E-05
 -1      6309-4.83934E-05-4.71392E-04 1.32384E-04-4.35357E-04-5.49779E-05-4.75758E-05
 -1      6310 5.38970E-05-2.72158E-04 1.00967E-04-2.25717E-04-5.14228E-05 1.15424E-05
 -1      6311-1.43255E-04 5.13811E-04-1.54206E-04 2.81901E-05 1.65982E-05 1.25196E-05
 -1      6312-1.78710E-05 4.79343E-06 1.17110E-05-8.18139E-05-4.44934E-05 8.71004E-06
 -1      6313-1.24810E-04 5.01704E-04-1.66422E-04 1.52604E-04 2.40597E-05 9.94127E-06
 -1      6314-1.41247E-04-3.46384E-04 2.77970E-04-4.31584E-04-4.74548E-05 6.17914E-05
 -1      6315-3.13324E-04-3.81487E-04 2.59374E-04-7.16413E-04 1.18121E-04 3.23989E-05
 -1      6316-2.24408E-04 4.87917E-04-1.12973E-04 2.05902E-04 1.93095E-05-9.14187E-05
 -1      6317-2.40132E-04 8.55602E-04-2.44499E-04 2.76350E-04 3.77882E-05-1.39195E-05
 -1      6318-7.64390E-05-5.34999E-04 1.93647E-04-2.29738E-04 3.10256E-05-1.03193E-04
 -1      6319 2.95795E-05 7.26470E-04-3.25160E-04 7.90884E-04 2.45423E-05-8.76939E-05
 -1      6320 1.86806E-04-2.92376E-04 8.35053E-05-4.51496E-05 3.35492E-05 3.55897E-05
 -1      6321 2.03883E-04-6.96521E-04 2.04156E-04-4.47153E-04 5.53465E-05-1.15484E-05
 -1      6322-2.91093E-05-3.21981E-04 1.81646E-04-4.21320E-04-3.07430E-05-2.43159E-05
 -1      6323 2.19144E-04-3.25493E-04 4.64123E-05-2.19667E-04 3.08393E-05 1.73457E-06
 -1      6324 4.97408E-04-3.15583E-04-8.86607E-05-2.14486E-04 1.47944E-05 4.97290E-05
 -1      6325 3.94095E-05-3.04292E-04 9.05657E-05-6.39180E-04 4.94497E-06 2.58006E-05
 -1      6326 4.47574E-04-4.69027E-04-5.28674E-05-1.12284E-04 4.96789E-05 2.61539E-05
 -1      6327 2.54725E-04-1.06205E-04-5.85225E-05 1.79868E-04-2.80835E-05-4.38729E-05
 -1      6328 9.76368E-05-1.91324E-05 1.01542E-04-7.17785E-04-4.57205E-05-3.32998E-05
 -1      6329-1.30999E-04-1.19059E-04 1.01423E-04-4.23505E-04 4.04509E-05 5.92392E-05
 -1      6330 2.18893E-04-1.37146E-04-4.01484E-05 7.34850E-05 4.74514E-05-1.20671E-04
 -1      6331-6.03456E-04 5.63550E-04 7.21831E-05 2.96790E-05-9.63777E-05-3.30927E-05
 -1      6332 5.16831E-05-3.57044E-04 1.12220E-04 9.68924E-04-2.82090E-05-3.11244E-05
 -1      6333 8.89806E-04-4.36003E-04-2.06374E-04 3.73373E-05 1.02066E-05-9.20417E-05
 -1      6334-4.17035E-05-4.28106E-04 2.44615E-04 5.22469E-04-2.64967E-05 2.59126E-05
 -1      6335 6.04365E-04-1.07538E-03 2.47902E-04 4.25450E-04 1.10710E-04 2.87725E-05
 -1      6336 9.55138E-04-9.51742E-04-7.03284E-05 3.61182E-04 3.18236E-05 1.45875E-05
 -1      6337 3.38481E-04-3.44625E-04 3.20911E-06-9.85731E-05-3.03884E-05 4.43622E-05
 -1      6338-2.84087E-04-4.55751E-04 2.78276E-04 7.07481E-04 1.45766E-04-5.36507E-05
 -1      6339-1.09192E-04-3.75051E-04 3.01064E-04 4.67359E-04-1.22737E-05-6.91961E-05
 -1      6340 2.89697E-04-4.24149E-04 5.42466E-05 2.53314E-04 5.17205E-05-1.98263E-05
 -1      6341-3.39671E-04 8.86430E-04-2.10767E-04-3.06295E-04-4.18984E-05 4.49676E-05
 -1      6342-3.16624E-04 3.48658E-04 4.64884E-05-1.74512E-04 4.21758E-05 6.73787E-05
 -1      6343-9.24994E-05 7.85211E-04-3.21589E-04-8.69900E-04 2.97953E-05 1.25351E-04
 -1      6344-1.44131E-05-5.84029E-04 1.92650E-04 2.47097E-04 8.01763E-05 1.16344E-04
 -1      6345 2.52183E-04-2.83973E-04 9.71361E-06 3.61179E-05 6.17084E-05-3.76351E-05
 -1      6346 8.24974E-05-7.52889E-05 3.15846E-06-1.94586E-05 2.72270E-05-7.75140E-06
 -1      6347 6.43362E-05-1.03562E-04 1.19960E-05 7.64144E-06-7.46023E-06 1.04254E-05
 -1      6348 6.15106E-05-7.44878E-05 1.17453E-06-1.75946E-05 4.95422E-06 5.18642E-06
 -1      6349 4.72465E-05-1.01304E-04 2.42976E-05 1.94001E-05-9.25814E-06-4.13365E-06
 -1      6350 4.22993E-05-8.49645E-05 2.64352E-05 5.71767E-05 1.40892E-05 5.40318E-06
 -1      6351 4.09529E-05-8.62013E-05 1.59154E-05 4.31985E-05-3.62816E-07-1.08758E-06
 -1      6352 4.91752E-04 1.38696E-04-2.66432E-04 5.51106E-04-2.56962E-05 4.82646E-05
 -1      6353 2.50032E-04 6.38146E-05-1.38697E-04 3.14087E-04-2.23735E-05-2.88895E-05
 -1      6354 3.92065E-04-6.26260E-05-1.63193E-04 3.05983E-04 4.31856E-05 3.22321E-05
 -1      6355 3.14841E-04-8.23086E-06-1.42216E-04-3.64283E-04 1.76898E-06 9.88588E-06
 -1      6356 4.82533E-04 1.55487E-04-2.83246E-04-6.02801E-04-1.56981E-05 2.02245E-07
 -1      6357 4.64598E-04-5.91397E-05-1.92020E-04-3.27790E-04 2.33701E-05-1.68302E-05
 -1      6358 6.60329E-01-3.76580E-02-1.52432E-01-4.71528E-01-3.91975E-03 1.25080E-02
 -1      6359-5.45480E-01 1.68779E-01 1.21742E-02-1.38182E-01-1.70339E-03-2.05752E-03
 -1      6360 6.06212E-01-3.09560E+00 8.44415E-01 1.35164E+00-2.24271E-02 2.33833E-02
 -1      6361-5.81199E-03-6.08688E-01 3.33490E-01 5.41760E-01-6.79300E-02 6.31460E-02
 -1      6362 3.20934E-01 2.83663E-01-3.05660E-01 7.59674E-01-8.46433E-02-8.08512E-02
 -1      6363 1.11138E+00-1.76818E-01-2.90396E-01-5.93964E-01 1.43480E-02-3.77339E-03
 -1      6364 3.24332E-01-4.66431E-02-1.20908E-01-2.73677E-01 6.07740E-03-8.46995E-04
 -1      6365 6.47954E-01 9.23183E-01-4.33237E-01 1.83297E+00 6.87274E-02 1.05030E-01
 -1      6366 8.24770E-01-4.09247E+00 8.99190E-01 1.35433E+00-2.29036E-02-3.76462E-02
 -1      6367 4.42325E-01 1.66837E+00-4.76310E-01 2.23634E+00 2.46381E-03 3.79584E-02
 -1      6368 7.37822E-01 1.65151E+00-5.44895E-01 2.53195E+00-3.13909E-01-1.43280E-01
 -1      6369 1.28442E+00-5.47387E+00 7.64963E-01 5.20853E-01-5.01262E-01 2.34169E-01
 -1      6370 1.37420E+00-5.07265E+00 1.01295E+00 1.47373E+00 1.45547E-02-1.73102E-02
 -1      6371 2.22889E-01-3.11866E-01 8.66667E-02 1.37754E-01 9.49227E-02-1.07268E-01
 -1      6372 3.39533E-01-1.23173E-01-4.09647E-02-1.41027E-01-6.03186E-02 7.61587E-02
 -1      6373-2.15000E-01 5.13163E-02-2.21266E-02 8.76323E-02 1.86340E-02-1.32123E-01
 -1      6374-4.07222E-02 1.68707E-01-1.57241E-01 4.06488E-01 7.74934E-02 1.38672E-01
 -1      6375 6.20502E-03-1.30911E+00 5.64826E-01 9.78941E-01 1.55882E-01-9.75883E-02
 -1      6376 9.34403E-03-1.27536E+00 5.49734E-01 8.50671E-01-1.89474E-01 7.40610E-02
 -1      6377 9.14418E-01-6.52727E-03-3.06435E-01-5.13723E-01-2.78956E-02-1.44119E-02
 -1      6378 1.07746E+00-1.09849E-01-3.42177E-01-5.88561E-01-6.38964E-03-4.81670E-03
 -1      6379-2.11339E-01-8.36293E-03 2.74972E-02-1.92728E-01 6.22561E-03 6.11800E-02
 -1      6380-1.70313E-01-3.63973E-02 3.45082E-02-1.91972E-01-9.58313E-03-6.33917E-02
 -1      6381 6.73094E-01-9.09667E-02-2.08116E-01-3.49625E-01-2.69618E-02 6.23834E-02
 -1      6382 6.47502E-01-7.69322E-02-1.97886E-01-3.19106E-01 1.42731E-02-6.88131E-02
 -1      6383 3.57230E-01 2.98358E+00-3.87043E-01 2.98616E+00 5.31506E-02-1.15777E-01
 -1      6384 1.31653E-01 2.93774E+00-2.07023E-01 3.13407E+00 6.33573E-01 4.83489E-01
 -1      6385 6.21553E-01 5.02065E-01-4.70243E-01 1.06305E+00-3.05767E-01-2.39552E-01
 -1      6386 4.72478E-01 3.36820E+00-2.49682E-01 3.24995E+00-2.38049E-01 6.41104E-02
 -1      6387 2.07167E-01 3.08660E+00-2.69478E-01 3.16736E+00-8.74178E-01-5.14542E-01
 -1      6388 7.06038E-01 4.93450E-01-5.83612E-01 1.22591E+00 2.02441E-01 1.44791E-01
 -1      6389 8.72734E-01-4.39297E+00 1.16791E+00 1.49986E+00 2.89510E-01 6.82871E-02
 -1      6390 2.60535E+00-6.55559E+00 2.05975E-01 5.19998E-01-1.44064E+00 5.24194E-01
 -1      6391 2.16858E+00-6.66344E+00 5.55310E-01 6.70766E-01-3.66978E-01-2.54656E-01
 -1      6392 5.65819E-01-3.38481E+00 1.18778E+00 1.54952E+00-4.70042E-01 1.87149E-01
 -1      6393 2.35693E+00-7.08508E+00 5.86436E-01 1.94432E+00 9.26610E-01-2.30573E-01
 -1      6394 1.95184E+00-6.73444E+00 6.39976E-01 1.59184E+00 3.70509E-01 7.18724E-02
 -1      6395 8.57224E-01 2.03229E+00-3.40115E-01 3.04048E+00 2.53245E-03-2.49186E-02
 -1      6396 5.03028E-01 2.44689E+00-2.31027E-01 2.79861E+00 4.69909E-02 8.81252E-02
 -1      6397 6.62130E-01 1.62548E+00-3.13562E-01 2.36957E+00 2.05294E-01-1.10979E-02
 -1      6398 6.31021E-01 3.51289E-01-4.04424E-01 1.20204E+00-8.78332E-02-9.58770E-02
 -1      6399 6.82561E-01 8.90130E-01-4.86369E-01 1.54076E+00-8.97852E-02-1.15231E-01
 -1      6400 6.63278E-01 1.14529E+00-4.20407E-01 2.15623E+00-9.70075E-03 1.09856E-01
 -1      6401-3.98362E-02-1.56351E+00 7.14069E-01 1.33660E+00 2.82116E-01-1.49107E-01
 -1      6402-6.35204E-02-8.22318E-01 3.96696E-01 7.36903E-01 1.45797E-01-1.53178E-01
 -1      6403 1.08787E+00-5.89039E+00 9.95633E-01 1.33539E+00-2.65676E-01 1.92273E-02
 -1      6404 5.05513E-01-3.07809E+00 1.00172E+00 1.57311E+00 3.16366E-01-4.78626E-02
 -1      6405 2.21892E-01-2.63152E+00 7.61546E-01 1.39415E+00 1.19015E-01-7.21347E-02
 -1      6406 3.81356E-01-4.03007E-02-1.15661E-01-2.84942E-01 9.90346E-02-1.10892E-01
 -1      6407 1.29316E-01-2.62171E-01 1.01675E-01 2.18469E-01 1.31791E-01-1.32156E-01
 -1      6408 1.95405E-02-7.61000E-01 3.03773E-01 5.33835E-01 1.32384E-01-1.14774E-01
 -1      6409 8.24473E-01 1.58436E-03-2.93050E-01-6.11669E-01-1.76703E-02-7.04437E-02
 -1      6410 1.09797E+00-1.71357E-01-3.28235E-01-5.56758E-01-6.34526E-02 4.23020E-02
 -1      6411 4.30637E-01-1.52870E-01-3.96978E-02-1.94601E-01 5.47717E-02-2.92840E-02
 -1      6412 6.44041E-01 3.72809E-02-2.28444E-01-5.60554E-01 2.67481E-02-4.86708E-02
 -1      6413 8.65151E-01 2.00775E-02-2.54392E-01-5.80701E-01 1.22789E-02-6.12575E-03
 -1      6414 9.03666E-01-1.79844E-01-2.77901E-01-4.28899E-01-5.06886E-02 9.70054E-02
 -1      6415 4.88043E-01-9.28865E-02-1.35478E-01-3.26524E-01-1.32533E-02 1.06700E-01
 -1      6416 1.11173E+00-1.32498E-01-3.11718E-01-5.93270E-01 4.21062E-02-1.14126E-02
 -1      6417 1.12896E+00-2.35958E-01-3.16609E-01-5.18467E-01-1.41323E-02 4.56810E-02
 -1      6418 1.00689E+00-1.48513E-01-2.63717E-01-4.80191E-01-1.08030E-03 2.22436E-02
 -1      6419-4.25014E-01 7.83727E-02 8.54785E-02-1.97086E-01 1.15135E-02 5.79511E-02
 -1      6420-7.73499E-02-2.88144E-02-1.67745E-02-2.58129E-01 4.33889E-03 9.85586E-02
 -1      6421 2.70864E-01-5.72024E-02-9.64582E-02-2.73181E-01 9.21640E-03 6.69011E-02
 -1      6422-5.75704E-02 9.27133E-03-4.59991E-02-2.22250E-01-3.23384E-03 3.82635E-02
 -1      6423 5.39486E-01-5.14457E-02-1.82622E-01-3.24704E-01 4.17193E-03 2.62295E-02
 -1      6424 5.18232E-02-1.36676E-02-4.75010E-02 1.40722E-01-4.44947E-02-2.42314E-01
 -1      6425-3.35818E-01 5.57957E-02 4.97382E-02-6.53557E-02 5.95627E-02-3.05363E-02
 -1      6426-5.84595E-01 1.73744E-01 7.02571E-02-1.65835E-01-1.76108E-02 5.71019E-03
 -1      6427-5.18076E-01 1.66919E-01 1.11029E-02-7.02164E-02-2.74772E-02-5.63392E-02
 -1      6428-3.92336E-01 7.88211E-02 3.31901E-02-1.61302E-01-2.17056E-02 3.69053E-02
 -1      6429 3.62575E-01-2.36868E-02-2.54129E-01 3.64545E-01-1.85632E-01-2.05541E-01
 -1      6430-2.89001E-02 2.03197E-01-1.84874E-01 3.51052E-01-3.41292E-02-1.04345E-01
 -1      6431 9.07514E-02-1.61241E+00 7.01772E-01 1.18978E+00-2.85549E-01 1.31254E-01
 -1      6432 2.66177E-02-8.86702E-01 3.55041E-01 6.59947E-01-1.44580E-01 1.17096E-01
 -1      6433 2.95239E-01-2.58048E+00 8.88308E-01 1.67363E+00-2.33923E-01 1.21107E-01
 -1      6434 1.18576E+00-4.30026E+00 8.95876E-01 1.37744E+00 1.18796E-01-8.42428E-02
 -1      6435 1.38336E-01-2.13636E+00 7.28023E-01 1.25830E+00-1.78078E-01 9.11334E-02
 -1      6436 5.59049E-01-6.81620E-02-1.77363E-01-3.15077E-01-1.06677E-02 6.75213E-02
 -1      6437 2.17354E-01-3.05846E-01 8.83474E-02 8.47266E-02-9.49235E-02 9.35792E-02
 -1      6438 1.21620E-01-2.77768E-01 1.33470E-01 1.21226E-01-6.93043E-02 8.67299E-02
 -1      6439 1.29856E-02-5.43417E-01 2.63021E-01 4.20053E-01-8.25459E-02 1.20448E-01
 -1      6440-9.51625E-03-1.01174E+00 4.68374E-01 7.50424E-01-9.35092E-02 5.53428E-02
 -1      6441 1.03644E+00-1.01475E-01-3.22840E-01-5.90235E-01-1.41972E-02 3.35589E-02
 -1      6442 9.69787E-01-7.40941E-02-3.36265E-01-5.86832E-01 1.29339E-02-3.69707E-02
 -1      6443 8.06484E-01-6.59721E-02-2.11987E-01-5.36082E-01-1.11911E-02 5.30574E-02
 -1      6444 4.64112E-01-7.17783E-02-8.02808E-02-2.98338E-01-6.86896E-02 7.78527E-02
 -1      6445 1.03657E+00-8.87315E-02-2.42913E-01-6.40007E-01-5.60274E-03-4.93499E-03
 -1      6446 8.87387E-01-9.12964E-02-2.73051E-01-4.47159E-01 3.24778E-02-6.26240E-02
 -1      6447 5.11006E-01-8.14605E-02-1.51030E-01-2.76183E-01 1.20684E-02-1.23761E-01
 -1      6448 1.06226E+00-1.44062E-01-3.02661E-01-5.56158E-01 5.44129E-03-3.59931E-02
 -1      6449 1.04713E+00-1.45097E-01-3.06601E-01-5.65607E-01-1.94259E-02 2.30812E-02
 -1      6450 9.77059E-01-1.37526E-01-2.58036E-01-4.84375E-01 6.71196E-03-5.27689E-02
 -1      6451-4.46389E-01 7.25308E-02 9.23911E-02-1.97189E-01-9.93573E-03-6.30216E-02
 -1      6452-8.07988E-02-2.08044E-02-1.21735E-02-1.95478E-01-1.78805E-02-1.37295E-01
 -1      6453-5.50287E-02-2.42896E-02-3.75441E-02-2.27754E-01 4.28593E-03-4.07625E-02
 -1      6454 2.55070E-01-6.46005E-02-8.66808E-02-2.18149E-01-1.25670E-03-9.26850E-02
 -1      6455 5.21211E-01-6.49275E-02-1.49681E-01-2.89955E-01-2.89287E-03-3.89345E-02
 -1      6456 1.78147E-01-2.06975E-02-9.88837E-02 2.62442E-01 8.50022E-02 2.72929E-01
 -1      6457-3.13531E-01 6.76136E-02 2.78897E-02-3.90886E-02-9.13739E-03 7.01766E-02
 -1      6458-4.36894E-01 2.16057E-01-5.44347E-02 1.68687E-02 1.92750E-02 3.51842E-02
 -1      6459-5.84742E-01 1.72658E-01 5.85298E-02-1.68553E-01 2.13916E-02 1.10085E-04
 -1      6460-3.87108E-01 8.00865E-02 2.11926E-02-1.65666E-01 1.91606E-02-3.11459E-02
 -1      6461 6.04500E-01 1.77907E-01-3.37716E-01 7.46395E-01 2.65128E-01 2.87264E-01
 -1      6462 3.75470E-01 2.75319E-01-3.78484E-01 8.86351E-01 1.46234E-01 1.49356E-01
 -1      6463 1.76078E+00-6.41166E+00 5.49722E-01 1.63543E+00 1.58901E-01-1.31155E-01
 -1      6464 1.69794E+00-6.52771E+00 5.38677E-01 1.68230E+00-4.14238E-01-2.24523E-01
 -1      6465 1.67928E+00-5.65284E+00 6.13873E-01 1.46195E+00 2.65229E-01 3.62439E-02
 -1      6466 7.38528E-01-3.43473E+00 8.22986E-01 1.22715E+00-1.11942E-01 1.72685E-02
 -1      6467 8.15360E-02-4.35097E-01 2.24691E-01 3.02454E-01-1.97263E-03-1.76532E-02
 -1      6468 2.73509E-01-1.55501E-01 6.10268E-02-8.98245E-02-3.65073E-02 5.87185E-02
 -1      6469 1.00840E+00-8.73777E-02-2.31670E-01-6.75408E-01 1.67955E-02-7.67020E-03
 -1      6470-3.17866E-01 2.65029E-01-1.05593E-01 2.24517E-01-2.54902E-02-4.62402E-02
 -1      6471 1.04878E-01 1.81169E-01-2.28739E-01 5.89166E-01-1.14881E-02-2.52627E-02
 -1      6472-2.37840E-01 9.67997E-02-4.42396E-02-1.51974E-01 9.37534E-03 1.11350E-02
 -1      6473 1.46479E-01-2.21937E+00 7.06382E-01 1.29927E+00 7.09062E-02-5.18414E-02
 -1      6474 1.39414E-01-1.77267E+00 6.30051E-01 1.06540E+00-6.57141E-02 8.72491E-02
 -1      6475 4.59686E-02-9.55656E-01 4.33357E-01 7.35106E-01-1.71414E-02 3.29809E-02
 -1      6476 7.93405E-01-9.50204E-02-2.20843E-01-4.53787E-01 9.36359E-03 3.00929E-05
 -1      6477 1.78086E-04 1.60645E-04-1.36368E-04-3.05703E-04 3.91367E-05-3.05935E-05
 -1      6478 1.24467E-04 1.84233E-04-1.22280E-04-3.30758E-04-5.39215E-05 4.42748E-05
 -1      6479 9.19969E-05 1.65543E-04-9.52330E-05-2.57599E-04-3.61245E-07 5.66162E-07
 -1      6480 5.63428E-05 1.51869E-04-9.69841E-05-1.66466E-04 4.97508E-05-2.82851E-05
 -1      6481 3.20863E-04 1.32625E-04-1.63997E-04-3.80867E-04 3.13448E-05-4.89809E-05
 -1      6482 8.41583E-05 1.33937E-04-1.13896E-04-2.13058E-04 2.68898E-05-2.77944E-05
 -1      6483 4.00515E-04 1.51995E-04-1.16129E-04-4.73297E-04 1.92564E-05-2.51509E-05
 -1      6484 2.54966E-04 1.60059E-04-1.44808E-04-3.94103E-04-3.74128E-05 4.39709E-05
 -1      6485 4.81478E-05 1.53397E-04-9.74709E-05-1.70404E-04-4.74658E-05 3.98901E-05
 -1      6486 3.00693E-04 1.84392E-04-1.21710E-04-4.23153E-04-3.16146E-05 5.94452E-05
 -1      6487 9.71849E-05 1.24682E-04-1.13717E-04-2.29973E-04-4.45019E-05 3.96286E-05
 -1      6488 9.66521E-05 1.10772E-04-1.05047E-04-1.89633E-04-1.03361E-05 6.72056E-06
 -1      6489 7.00247E-05 1.25103E-04-9.71553E-05-2.05266E-04 9.48851E-06-6.26136E-06
 -1      6490 1.24318E-04 1.71211E-04-1.01676E-04-3.06037E-04 1.30533E-05-2.04387E-05
 -1      6491 1.34485E-04 1.81943E-04-1.17299E-04-3.13080E-04-1.06907E-05 2.22322E-05
 -1      6492 2.80168E-04 2.13277E-04-8.77917E-05-4.74439E-04-2.81129E-06 3.72795E-06
 -1      6493 2.75318E-04 2.00750E-04-9.32042E-05-4.05802E-04 1.72966E-05-2.10379E-05
 -1      6494 5.78010E-04-1.87888E-04-1.69171E-04-1.12199E-04-4.77707E-06 3.99038E-06
 -1      6495 6.16419E-04-1.59951E-04-1.84907E-04-1.64029E-04-3.23604E-06-4.92316E-06
 -1      6496 6.28755E-04-1.86095E-04-1.85290E-04-1.38340E-04 6.72911E-07-7.51767E-06
 -1      6497 7.10255E-04-1.36248E-04-1.99480E-04-2.52364E-04-1.51200E-05-4.69096E-06
 -1      6498 5.02721E-04-1.44704E-04-1.64662E-04-1.22711E-04 1.38172E-05 6.77365E-06
 -1      6499 7.65335E-04-1.28758E-04-1.44764E-04-3.15126E-04-7.99101E-06-1.06872E-05
 -1      6500 5.11273E-04-1.46641E-04-2.03316E-04-1.17595E-04-4.17336E-06-1.31699E-05
 -1      6501 5.12289E-04-1.53220E-04-1.68949E-04-1.14061E-04-1.04737E-05-8.54924E-06
 -1      6502 7.06959E-04-1.27349E-04-1.97908E-04-2.32218E-04 1.97998E-05 2.83852E-06
 -1      6503 5.05603E-04-1.37492E-04-2.05988E-04-9.55094E-05 1.75718E-06 8.70983E-06
 -1      6504 6.79531E-04-8.97308E-05-1.44222E-04-2.28018E-04 3.35455E-05-3.15367E-05
 -1      6505 7.11446E-04-1.61853E-04-1.32890E-04-1.95902E-04-1.55403E-05 3.09590E-05
 -1      6506 7.88815E-04-2.20108E-04-1.19034E-04-2.25812E-04 9.15989E-06-2.11672E-05
 -1      6507 6.27720E-04-1.89827E-04-1.62604E-04-1.48263E-04-9.71867E-06-6.82836E-06
 -1      6508 6.50548E-04-1.80290E-04-1.81689E-04-1.31731E-04 1.47778E-06 1.06019E-05
 -1      6509 5.19041E-04-1.62236E-04-1.95420E-04-1.26795E-04-3.48422E-07-5.96249E-06
 -1      6510 5.08482E-04-1.40753E-04-2.04764E-04-1.28169E-04-3.47062E-06 5.33352E-07
 -1      6511 6.27035E-04-1.28229E-04-2.09100E-04-3.02796E-04 1.95769E-05-3.13918E-05
 -1      6512 6.27573E-04-1.33180E-04-2.02426E-04-2.65477E-04-1.06018E-06 3.09387E-05
 -1      6513 6.86862E-04-1.68404E-04-1.76898E-04-2.99876E-04 2.78106E-06 1.54786E-05
 -1      6514 4.69902E-04-9.44977E-05-1.77442E-04-2.28524E-04 2.69633E-05-1.85005E-05
 -1      6515 8.75658E-04-1.68497E-04-2.41685E-04-2.44931E-04-1.43623E-05-3.06201E-05
 -1      6516 7.92366E-04-1.35497E-04-1.56957E-04-2.52249E-04 5.14876E-06-8.40951E-05
 -1      6517 4.41476E-04-6.38938E-05-2.14631E-04-2.45157E-04 3.28560E-06-1.82508E-05
 -1      6518 8.79501E-04-2.02451E-04-2.26239E-04-2.26619E-04 2.21735E-06 4.20074E-05
 -1      6519 4.93735E-04-1.03658E-04-1.83163E-04-2.13636E-04-2.33325E-05 2.63057E-05
 -1      6520 9.39875E-04-1.94931E-04-1.56319E-04-2.36513E-04 2.69319E-05 3.90796E-05
 -1      6521 4.87398E-04-7.93939E-05-2.20941E-04-2.30641E-04 2.48117E-06 9.09118E-06
 -1      6522 4.49928E-04-8.16209E-05-1.94793E-04-2.46020E-04-7.82159E-06 1.02415E-05
 -1      6523 4.64069E-04-1.05920E-04-2.09036E-04-2.46280E-04 2.61876E-06-6.15424E-06
 -1      6524 6.74485E-04-1.39732E-04-1.93560E-04-2.99388E-04 6.76518E-06-9.08520E-06
 -1      6525 6.95107E-04-1.58978E-04-1.86508E-04-2.86242E-04-8.28920E-07 1.32598E-05
 -1      6526 8.83143E-04-1.82297E-04-1.46646E-04-2.54431E-04 3.29674E-06 3.87905E-05
 -1      6527 9.35922E-04-2.11742E-04-1.39570E-04-2.65735E-04 9.26180E-06-3.38427E-05
 -1      6528 6.47159E-04-1.42756E-04-2.04415E-04 2.62061E-04-5.73165E-06-3.39160E-05
 -1      6529 5.53400E-04-1.13991E-04-1.96581E-04 2.66197E-04 2.39846E-06 4.35008E-05
 -1      6530 6.43421E-04-1.56150E-04-1.66121E-04 2.83169E-04-1.83608E-06 5.91379E-06
 -1      6531 8.25792E-04-1.99594E-04-2.10472E-04 2.53048E-04-9.16339E-06 4.80649E-05
 -1      6532 4.56410E-04-9.57024E-05-1.69943E-04 2.07812E-04 2.18917E-05 3.12599E-05
 -1      6533 4.56676E-04-8.05888E-05-2.08678E-04 2.10244E-04 5.64503E-07 1.68734E-05
 -1      6534 8.86366E-04-1.78079E-04-1.66339E-04 2.71674E-04-8.26075E-06 5.67614E-05
 -1      6535 9.03765E-04-2.10328E-04-2.44399E-04 2.22236E-04 1.33327E-05-3.77335E-05
 -1      6536 4.74929E-04-9.16207E-05-1.74464E-04 2.08677E-04-3.89095E-05-1.39462E-05
 -1      6537 4.53933E-04-9.09423E-05-2.08749E-04 2.23448E-04 2.08694E-07-2.74488E-05
 -1      6538 9.28422E-04-1.91469E-04-1.64951E-04 2.31573E-04 6.28313E-06-6.60934E-05
 -1      6539 9.30526E-04-2.12415E-04-1.32220E-04 2.51696E-04-1.83042E-05 5.13323E-05
 -1      6540 8.97854E-04-2.04359E-04-1.36783E-04 2.52279E-04 1.37932E-06-4.14822E-05
 -1      6541 6.41632E-04-1.25363E-04-1.87907E-04 2.91791E-04 8.46313E-06 1.32218E-05
 -1      6542 6.85514E-04-1.69996E-04-1.78408E-04 2.63198E-04 1.65197E-06-9.13689E-06
 -1      6543 4.70666E-04-1.10117E-04-1.94293E-04 2.29931E-04-1.61438E-06-8.33077E-06
 -1      6544 4.42488E-04-6.60100E-05-1.95823E-04 2.24549E-04 7.56049E-06 1.23420E-05
 -1      6545 5.99499E-04-1.48835E-04-1.71393E-04 1.41900E-04-4.47676E-06 1.02673E-05
 -1      6546 5.59197E-04-1.77019E-04-1.57842E-04 1.26018E-04-4.89756E-06-2.35128E-06
 -1      6547 5.83458E-04-1.51702E-04-1.80376E-04 1.39879E-04 1.96291E-06-9.07399E-06
 -1      6548 4.81685E-04-1.45985E-04-1.58812E-04 9.54257E-05 1.27082E-05-1.03610E-06
 -1      6549 6.50893E-04-1.25943E-04-1.77217E-04 2.09585E-04-1.37955E-05 1.58301E-05
 -1      6550 7.04423E-04-9.63178E-05-1.30352E-04 2.99859E-04-5.53321E-06 2.00598E-05
 -1      6551 4.69726E-04-1.28406E-04-1.90492E-04 8.42572E-05-2.06840E-06 2.17370E-05
 -1      6552 6.40384E-04-1.25632E-04-1.78857E-04 1.84468E-04 3.08141E-06-2.02007E-05
 -1      6553 4.85759E-04-1.39980E-04-1.58718E-04 1.03369E-04-1.89844E-05-8.14695E-06
 -1      6554 6.93317E-04-1.19525E-04-1.35628E-04 2.58810E-04 1.65604E-05-1.04996E-05
 -1      6555 4.78078E-04-1.40806E-04-1.93925E-04 1.01743E-04 4.09741E-06-1.01628E-05
 -1      6556 4.87801E-04-1.46389E-04-1.88895E-04 1.24399E-04 6.40574E-07-7.01160E-06
 -1      6557 4.82123E-04-1.32031E-04-1.87007E-04 1.10448E-04 5.52878E-07 6.85131E-07
 -1      6558 5.93558E-04-1.70845E-04-1.58701E-04 1.51321E-04-3.05193E-06 1.20819E-05
 -1      6559 6.00433E-04-1.65625E-04-1.59810E-04 1.57428E-04 5.24374E-06-1.13849E-05
 -1      6560 7.12441E-04-1.67914E-04-1.11069E-04 2.51046E-04 1.10637E-05 1.51685E-05
 -1      6561 6.72749E-04-1.33951E-04-1.14278E-04 2.21049E-04-1.31147E-05-2.89141E-05
 -1      6562 1.37565E-04 1.24137E-04-1.10907E-04 2.39890E-04-3.90554E-05-3.06990E-05
 -1      6563 8.76769E-05 1.27526E-04-7.48720E-05 2.09273E-04 1.38871E-06 8.22234E-07
 -1      6564 1.16649E-04 1.41472E-04-1.00121E-04 2.54165E-04 4.18355E-05 2.87936E-05
 -1      6565 2.35390E-04 1.50765E-04-1.39509E-04 3.25690E-04 3.61108E-05 4.61585E-05
 -1      6566 4.97804E-05 1.18185E-04-8.08552E-05 1.26410E-04 4.22330E-05 2.85468E-05
 -1      6567 7.96333E-05 9.20557E-05-8.60031E-05 1.69721E-04 3.73148E-05 3.69679E-05
 -1      6568 3.09737E-04 1.38005E-04-9.51266E-05 3.83736E-04 3.52357E-05 4.06258E-05
 -1      6569 2.93069E-04 9.56922E-05-1.30076E-04 3.21538E-04-2.51938E-05-3.39114E-05
 -1      6570 5.39364E-05 1.12052E-04-7.81288E-05 1.26963E-04-4.93269E-05-3.05876E-05
 -1      6571 7.23907E-05 9.52878E-05-8.56479E-05 1.63101E-04-3.09614E-05-2.73031E-05
 -1      6572 3.56328E-04 1.25304E-04-9.75629E-05 4.06137E-04-3.19253E-05-3.52216E-05
 -1      6573 2.60541E-04 1.76898E-04-7.47937E-05 4.15806E-04-4.92267E-07-7.29325E-06
 -1      6574 2.64986E-04 1.68428E-04-7.42256E-05 3.74069E-04-4.97713E-06-7.87023E-06
 -1      6575 1.31567E-04 1.32644E-04-8.85632E-05 2.58428E-04 1.85464E-05 2.40509E-05
 -1      6576 1.09537E-04 1.32622E-04-8.08190E-05 2.53406E-04-1.81082E-05-1.68046E-05
 -1      6577 6.25307E-05 8.68740E-05-7.18778E-05 1.54456E-04-1.11109E-05-1.15888E-05
 -1      6578 7.40540E-05 8.42932E-05-7.88452E-05 1.50373E-04 1.33324E-05 1.01420E-05
 -1      6579 8.47768E-05-9.59902E-06-2.49290E-05 5.36156E-05 3.13517E-05 3.75064E-05
 -1      6580 8.09602E-05-1.11960E-05-3.14757E-05 5.62563E-05-7.34345E-09-2.72481E-07
 -1      6581 8.92088E-05-1.24842E-05-2.72856E-05 5.94306E-05-3.34523E-05-3.58899E-05
 -1      6582 6.53232E-05 4.04010E-05-4.10704E-05 9.01754E-05 2.63305E-05 2.83358E-05
 -1      6583 1.12612E-04-6.91597E-05-8.84972E-07 5.08060E-05 4.58394E-05 3.69465E-05
 -1      6584 8.13558E-05-6.81768E-05-5.37335E-06 1.11412E-05 3.41080E-05 3.49834E-05
 -1      6585 7.12957E-05 1.85040E-05-4.82939E-05 8.55376E-05 2.91244E-05 3.34375E-05
 -1      6586 7.47597E-05 1.67037E-05-4.30434E-05 8.18641E-05-2.74198E-05-2.77048E-05
 -1      6587 1.06538E-04-3.41739E-05-1.28402E-05 4.83359E-05-4.12959E-05-4.96190E-05
 -1      6588 8.24859E-05-6.81219E-05-8.38702E-06 1.63842E-05-3.62765E-05-3.40819E-05
 -1      6589 7.08405E-05 8.82049E-06-4.41479E-05 8.94669E-05-2.59077E-05-2.95230E-05
 -1      6590 8.12341E-05 9.63036E-06-5.20191E-05 8.25087E-05-1.06656E-05-1.74399E-05
 -1      6591 8.26885E-05 9.24179E-06-5.08489E-05 8.18448E-05 1.04111E-05 1.70962E-05
 -1      6592 8.20447E-05-1.38035E-05-2.53429E-05 5.04987E-05 1.89568E-05 2.25063E-05
 -1      6593 8.40265E-05-1.56439E-05-2.64546E-05 5.03990E-05-1.59275E-05-2.33941E-05
 -1      6594 5.61465E-05-4.09080E-05-6.61532E-06 1.22713E-05-8.99766E-06-1.59129E-05
 -1      6595 5.57664E-05-4.13115E-05-6.55867E-06 1.06605E-05 7.08393E-06 1.38262E-05
 -1      6596 7.52352E-05-2.78399E-04 8.56825E-05-2.98494E-06 4.91045E-05 3.61953E-06
 -1      6597 7.07066E-05-2.75977E-04 8.60714E-05-1.25558E-06-5.09137E-05-4.34425E-06
 -1      6598 9.20442E-05-2.86509E-04 1.00100E-04-1.85453E-05-1.09683E-06 1.01911E-06
 -1      6599 8.75543E-05-2.68549E-04 5.29670E-05 7.07510E-06 5.20463E-05 1.13567E-05
 -1      6600 1.04329E-04-2.80796E-04 8.88212E-05-1.03117E-05 4.00046E-05 1.59292E-06
 -1      6601 8.00179E-05-2.96874E-04 1.34696E-04-4.59884E-05 4.09130E-05 1.19501E-05
 -1      6602 6.42919E-05-2.44487E-04 5.23104E-05-1.79543E-05 4.91356E-05 9.59366E-06
 -1      6603 8.72211E-05-2.64270E-04 5.26201E-05 2.08689E-05-5.69950E-05-1.30354E-05
 -1      6604 1.08208E-04-2.84726E-04 9.13883E-05-7.13518E-06-4.30385E-05-1.39520E-06
 -1      6605 8.15633E-05-3.05465E-04 1.35259E-04-4.65918E-05-4.15087E-05-1.13837E-05
 -1      6606 5.73796E-05-2.34443E-04 5.23800E-05-1.59301E-05-4.24066E-05-7.51547E-06
 -1      6607 7.93242E-05-2.52998E-04 5.76135E-05-1.99114E-05-2.39859E-05-5.56700E-06
 -1      6608 7.84521E-05-2.50672E-04 5.60515E-05-1.77170E-05 2.24831E-05 8.64446E-06
 -1      6609 8.07640E-05-2.88795E-04 9.07557E-05-1.72855E-05 3.22508E-05 1.21601E-05
 -1      6610 8.23007E-05-2.92585E-04 9.18787E-05-1.59450E-05-3.49697E-05-1.39301E-05
 -1      6611 1.00622E-04-2.98202E-04 1.23896E-04-4.11553E-05-2.54314E-05-4.86370E-06
 -1      6612 1.01012E-04-2.98922E-04 1.21968E-04-4.75522E-05 2.09372E-05 4.99513E-06
 -1      6613 1.43165E-04-5.74015E-04 1.69780E-04-2.62070E-04 1.68158E-06-4.28826E-06
 -1      6614 6.48832E-05-3.88966E-04 1.56039E-04-1.96433E-04 9.29156E-05 3.24142E-05
 -1      6615 1.01577E-04-4.32681E-04 1.55262E-04-1.71376E-04-8.60562E-05-2.56582E-05
 -1      6616 5.54768E-05-3.06358E-04 1.28167E-04-1.49680E-04 7.39383E-05 4.36352E-05
 -1      6617 1.27101E-04-6.95744E-04 2.15194E-04-3.56988E-04 1.13864E-04 5.65434E-05
 -1      6618 1.86459E-04-8.75721E-04 1.57737E-04-3.21754E-04 6.73378E-05 3.56204E-05
 -1      6619 7.05252E-05-3.63533E-04 1.64582E-04-1.57876E-04 7.49831E-05 1.72176E-05
 -1      6620 5.99524E-05-3.08386E-04 1.26476E-04-1.44446E-04-9.10023E-05-4.79711E-05
 -1      6621 1.71177E-04-7.02459E-04 1.97078E-04-3.78714E-04-1.16204E-04-6.37281E-05
 -1      6622 2.04920E-04-9.21101E-04 1.55781E-04-2.68389E-04-7.26434E-05-3.31070E-05
 -1      6623 1.02668E-04-3.82051E-04 1.66255E-04-1.31182E-04-4.78090E-05-7.35492E-06
 -1      6624 9.50058E-05-4.02203E-04 1.65276E-04-1.83170E-04-4.05905E-05-2.33158E-05
 -1      6625 1.28096E-04-4.30466E-04 1.60978E-04-1.87194E-04 3.70392E-05 1.35701E-05
 -1      6626 1.51477E-04-5.75140E-04 1.60296E-04-2.45239E-04 6.41729E-05 2.48449E-05
 -1      6627 1.50788E-04-5.78521E-04 1.69465E-04-2.45054E-04-5.34594E-05-2.68827E-05
 -1      6628 2.30465E-04-9.23977E-04 1.58986E-04-3.43001E-04-3.94219E-05-2.84385E-05
 -1      6629 2.18365E-04-9.75875E-04 1.47790E-04-2.87315E-04 3.97534E-05 2.00963E-05
 -1      6630 7.77254E-05-7.05351E-04 2.76703E-04 4.62734E-04-1.99034E-05 1.05699E-05
 -1      6631 8.11817E-05-7.08598E-04 2.77781E-04 4.59405E-04 1.47642E-05-7.18562E-06
 -1      6632 2.21293E-04-9.73757E-04 2.74488E-04 4.80782E-04 6.02040E-06-5.47623E-07
 -1      6633 1.17237E-04-9.41724E-04 2.81975E-04 6.15064E-04-3.74399E-06 1.18144E-05
 -1      6634 1.01596E-04-6.92942E-04 2.92703E-04 4.33833E-04-7.53346E-06 2.49032E-05
 -1      6635 1.25003E-04-7.23146E-04 3.26932E-04 4.10108E-04 2.46111E-05-9.47795E-06
 -1      6636 1.60231E-04-1.05678E-03 2.24682E-04 5.24441E-04 8.62693E-06 9.77968E-06
 -1      6637 1.01391E-04-6.93115E-04 2.92609E-04 4.30316E-04 7.63320E-06-2.39317E-05
 -1      6638 1.37190E-04-9.23912E-04 2.65013E-04 6.36551E-04-2.24753E-06-7.68498E-06
 -1      6639 1.51413E-04-1.07876E-03 2.32737E-04 5.30697E-04-2.45702E-06-3.85672E-06
 -1      6640 1.30215E-04-7.21369E-04 3.25096E-04 4.04045E-04-2.72701E-05 1.27632E-05
 -1      6641 2.07835E-04-1.20407E-03 2.11876E-04 3.61086E-04-6.35371E-05 1.49761E-05
 -1      6642 1.97495E-04-1.16826E-03 2.10022E-04 4.12752E-04 3.26591E-05-1.65785E-05
 -1      6643 1.52354E-04-9.05763E-04 2.78392E-04 4.89181E-04 7.51621E-06 1.12078E-05
 -1      6644 1.45461E-04-8.86299E-04 2.66729E-04 4.76694E-04-1.40987E-05-9.52818E-06
 -1      6645 1.66093E-04-7.93650E-04 3.31166E-04 4.23419E-04-3.59730E-06 1.54174E-06
 -1      6646 1.70052E-04-7.97875E-04 3.37815E-04 4.26528E-04 1.18120E-05-4.95458E-07
 -1      6647 3.76227E-04-1.25242E-03 3.54594E-04 3.26657E-04 5.09715E-05-3.11112E-05
 -1      6648 3.74134E-04-1.24921E-03 3.52785E-04 3.23854E-04-5.14476E-05 3.08083E-05
 -1      6649 3.71839E-04-1.30499E-03 2.66644E-04 5.06112E-04-5.18834E-09-4.14137E-07
 -1      6650 2.20898E-04-8.61664E-04 3.20174E-04 1.25451E-04 5.93193E-05-8.06150E-06
 -1      6651 3.26281E-04-1.57501E-03 4.21298E-04 6.22153E-04 3.45406E-05-8.84143E-05
 -1      6652 2.23199E-04-1.76337E-03 3.25993E-04 7.42919E-04 3.78404E-05-6.89299E-05
 -1      6653 2.81212E-04-9.85123E-04 3.78299E-04 2.50333E-04 4.92699E-05-3.47343E-05
 -1      6654 3.22881E-04-1.57479E-03 4.22868E-04 6.25756E-04-3.08889E-05 8.78519E-05
 -1      6655 2.20059E-04-8.57950E-04 3.19008E-04 1.25319E-04-5.91576E-05 8.81442E-06
 -1      6656 2.81824E-04-9.82633E-04 3.75183E-04 2.45963E-04-4.92091E-05 3.53653E-05
 -1      6657 2.22524E-04-1.76225E-03 3.25618E-04 7.41590E-04-3.91507E-05 6.82460E-05
 -1      6658 2.97584E-04-9.99222E-04 3.49565E-04 2.76910E-04-2.16327E-05-5.35143E-06
 -1      6659 2.94619E-04-9.96984E-04 3.49737E-04 2.79830E-04 2.25871E-05 4.92024E-06
 -1      6660 3.48335E-04-1.38149E-03 3.22185E-04 5.15081E-04 4.20982E-06 2.96990E-06
 -1      6661 3.47080E-04-1.37807E-03 3.21015E-04 5.13994E-04-5.30242E-06-3.51450E-06
 -1      6662 2.02105E-04-1.65114E-03 1.89016E-04 9.00872E-04 7.92080E-05-9.31032E-05
 -1      6663 2.07820E-04-1.65100E-03 1.89442E-04 8.96593E-04-8.07893E-05 9.11787E-05
 -1      6664-6.40002E-04-4.06005E-04 1.36076E-04 1.27521E-03-1.94797E-06 4.30445E-06
 -1      6665-8.26954E-04-2.47449E-04 3.68650E-04 1.05909E-03 1.30420E-04-1.26258E-04
 -1      6666-8.50111E-04-2.79484E-04 3.84566E-04 1.13942E-03-1.41849E-04 1.32134E-04
 -1      6667-7.95841E-04-6.75822E-04 4.74601E-04 1.28464E-03-1.38605E-04 4.92099E-05
 -1      6668-7.07970E-04-2.27427E-04 3.96954E-04 8.13969E-04-9.40411E-05 1.64185E-04
 -1      6669-5.59457E-04-2.00276E-04 2.30953E-04 8.57555E-04-1.82708E-04 1.60928E-04
 -1      6670-8.22894E-04-6.24685E-04 2.50711E-04 1.24495E-03-2.03992E-04 1.66656E-04
 -1      6671-7.93811E-04-6.73815E-04 4.72379E-04 1.28512E-03 1.26997E-04-4.57098E-05
 -1      6672-6.80565E-04-1.80275E-04 3.68928E-04 7.67921E-04 9.79226E-05-1.58578E-04
 -1      6673-5.83733E-04-1.23002E-04 2.24047E-04 8.19256E-04 1.68726E-04-1.58981E-04
 -1      6674-8.45082E-04-6.30045E-04 2.50253E-04 1.24793E-03 2.00028E-04-1.66722E-04
 -1      6675-6.95246E-04-7.11603E-04 1.34480E-04 1.35536E-03-9.18875E-06-7.26047E-06
 -1      6676-6.97709E-04-7.12042E-04 1.37700E-04 1.35717E-03 4.38298E-06 1.01686E-05
 -1      6677-7.55470E-04-3.49340E-04 2.01803E-04 1.20677E-03-9.81015E-05 1.16299E-04
 -1      6678-7.49875E-04-3.61068E-04 2.01936E-04 1.19287E-03 9.86306E-05-1.08555E-04
 -1      6679-4.45591E-04-2.74842E-04 1.18625E-04 9.59606E-04 7.09868E-05-6.93264E-05
 -1      6680-4.48339E-04-2.74101E-04 1.12117E-04 9.49142E-04-6.72315E-05 7.09314E-05
 -1      6681 8.77137E-05-6.99295E-04-4.16109E-05 6.99029E-04 3.09496E-06-1.60870E-05
 -1      6682-1.15133E-04-6.70767E-04 5.35989E-05 8.04072E-04-3.16019E-04 1.31858E-04
 -1      6683-9.24416E-05-6.59111E-04 5.91489E-05 7.74960E-04 3.04606E-04-1.22104E-04
 -1      6684-2.73604E-04-5.81175E-04 2.47913E-04 7.43715E-04-1.72476E-04 1.29699E-04
 -1      6685 4.33998E-04-1.12558E-03-4.50996E-06 6.95088E-04-3.16898E-04 1.84555E-04
 -1      6686 5.32069E-04-8.78624E-04-9.63814E-05 6.65224E-04-2.61858E-04 1.69085E-04
 -1      6687-1.62380E-04-5.06454E-04 1.21340E-04 8.31012E-04-2.27182E-04 1.05372E-04
 -1      6688-1.11696E-04-6.35857E-04 2.60606E-04 6.86096E-04 1.59118E-04-1.00468E-04
 -1      6689 4.19353E-04-1.12499E-03-1.44561E-05 7.10586E-04 3.26134E-04-1.84761E-04
 -1      6690 5.22514E-04-9.03516E-04-1.30282E-04 6.42157E-04 2.28082E-04-1.97852E-04
 -1      6691-9.90878E-05-5.25113E-04 9.55846E-05 8.23430E-04 2.08219E-04-9.87978E-05
 -1      6692-2.00514E-05-5.24757E-04 2.63698E-05 7.55335E-04 8.15386E-05-6.78947E-05
 -1      6693-1.50811E-05-5.30315E-04 8.09227E-06 7.45824E-04-7.30643E-05 4.66582E-05
 -1      6694 3.33511E-05-5.99680E-04-7.71888E-05 7.75318E-04-1.87078E-04 1.01543E-04
 -1      6695-1.36678E-05-6.29470E-04-3.97921E-05 6.88338E-04 1.93999E-04-1.26805E-04
 -1      6696 7.75302E-04-9.06697E-04-7.95396E-05 5.89940E-04 9.99450E-05-5.32868E-05
 -1      6697 6.17640E-04-9.33992E-04-1.20285E-04 6.67531E-04-6.19230E-05-6.81118E-05
 -1      6698 2.78806E-03-1.03207E-03-5.62735E-04 2.47124E-05 4.49845E-05 1.06789E-04
 -1      6699 2.78768E-03-1.03082E-03-5.60824E-04 2.94640E-05-4.54786E-05-1.05081E-04
 -1      6700 3.08775E-03-1.13273E-03-6.54071E-04 2.74216E-04 5.66517E-06-4.78067E-06
 -1      6701 2.25926E-03-6.98569E-04-4.05683E-04 3.85460E-04-5.36993E-05 1.20761E-04
 -1      6702 2.61930E-03-8.30907E-04-7.03141E-04-2.63573E-04 1.62687E-05 1.52596E-04
 -1      6703 2.58154E-03-9.60775E-04-6.90662E-04-3.81429E-04-4.90144E-05 9.82069E-05
 -1      6704 2.26685E-03-8.15772E-04-4.51671E-04 4.07816E-04-1.26072E-04 2.26579E-04
 -1      6705 2.25202E-03-6.98976E-04-4.02944E-04 3.97315E-04 5.78679E-05-1.26011E-04
 -1      6706 2.63390E-03-8.39346E-04-7.06843E-04-2.65224E-04-1.65229E-05-1.52583E-04
 -1      6707 2.59319E-03-9.57647E-04-6.95268E-04-3.73250E-04 4.85686E-05-1.01162E-04
 -1      6708 2.26408E-03-8.11341E-04-4.49599E-04 4.01838E-04 1.21066E-04-2.29632E-04
 -1      6709 2.44757E-03-9.21436E-04-4.29515E-04 7.99084E-04 9.38765E-05-3.52537E-07
 -1      6710 2.44328E-03-9.30776E-04-4.31755E-04 8.13652E-04-8.78684E-05-1.80327E-05
 -1      6711 2.92384E-03-9.89054E-04-5.59700E-04 2.86979E-05-2.89500E-05 1.32973E-04
 -1      6712 2.92643E-03-9.97742E-04-5.51727E-04 3.29831E-05 3.57486E-05-1.36261E-04
 -1      6713 2.83210E-03-1.03719E-03-7.00488E-04-3.08305E-04 7.62937E-06-1.80915E-04
 -1      6714 2.82112E-03-1.02050E-03-7.18664E-04-3.12989E-04 8.17834E-08 1.79834E-04
 -1      6715 2.52221E-03-3.34865E-04-6.61335E-04-1.64780E-03 1.52123E-05-1.50956E-05
 -1      6716 2.56379E-03-3.31473E-04-7.34805E-04-1.75403E-03-3.40286E-06 2.95994E-04
 -1      6717 2.57681E-03-3.49448E-04-7.22132E-04-1.75674E-03-8.41832E-08-2.71745E-04
 -1      6718 2.51845E-03-4.79641E-04-7.96546E-04-1.20320E-03-2.45450E-05 2.55739E-04
 -1      6719 3.51394E-03-5.34890E-04-8.34749E-04-1.70461E-03-7.56343E-06 1.45278E-04
 -1      6720 3.54359E-03-4.95188E-04-5.52851E-04-1.79652E-03-1.48673E-04 3.56340E-05
 -1      6721 2.59465E-03-5.71976E-04-7.94169E-04-1.47231E-03-1.76953E-06 2.34270E-04
 -1      6722 3.55218E-03-5.47685E-04-8.38046E-04-1.72737E-03 5.16052E-06-1.59475E-04
 -1      6723 2.54029E-03-4.96248E-04-7.93975E-04-1.21217E-03 2.28538E-05-2.47429E-04
 -1      6724 3.21333E-03-3.93799E-04-5.38032E-04-1.80132E-03 1.49595E-04 2.00658E-05
 -1      6725 2.60004E-03-5.73667E-04-7.88599E-04-1.46839E-03 8.63931E-06-2.39794E-04
 -1      6726 2.52867E-03-4.63153E-04-7.53159E-04-1.48531E-03 1.19803E-04-2.16201E-04
 -1      6727 2.53409E-03-4.51364E-04-7.53448E-04-1.49085E-03-1.06147E-04 1.92565E-04
 -1      6728 2.73570E-03-3.58508E-04-6.94133E-04-1.93028E-03-1.11831E-04 1.39529E-04
 -1      6729 2.92584E-03-4.00209E-04-6.88022E-04-1.85652E-03 1.16667E-04-1.40450E-04
 -1      6730 3.41759E-03-6.27760E-04-5.28110E-04-1.75534E-03-1.30238E-04-1.42515E-05
 -1      6731 3.12068E-03-4.10937E-04-5.77424E-04-1.65027E-03 6.22818E-05-3.46150E-05
 -1      6732 1.74953E-03-3.43085E-04-5.07297E-04 8.65517E-04-1.06641E-05-1.56676E-05
 -1      6733 1.51244E-03-2.21312E-04-5.43735E-04 8.59097E-04-1.05121E-04-3.74158E-04
 -1      6734 1.55146E-03-2.21236E-04-5.78891E-04 8.70180E-04 1.01768E-04 4.15297E-04
 -1      6735 2.77180E-03-6.64618E-04-6.61880E-04 7.39136E-04-8.54878E-05-3.77986E-04
 -1      6736 1.28281E-03-2.75268E-04-4.42831E-04 4.66723E-04-9.36845E-05-2.83486E-04
 -1      6737 1.38275E-03-2.74573E-04-5.60765E-04 7.16880E-04-9.26715E-05-3.06388E-04
 -1      6738 3.00406E-03-5.83736E-04-4.23955E-04 9.13421E-04-1.08185E-04-3.50245E-04
 -1      6739 2.73255E-03-6.49426E-04-6.52253E-04 7.37074E-04 9.81468E-05 4.10623E-04
 -1      6740 1.29869E-03-2.75796E-04-4.55243E-04 4.69428E-04 9.45812E-05 3.01115E-04
 -1      6741 1.39819E-03-2.71122E-04-5.89436E-04 7.27877E-04 8.59620E-05 3.00805E-04
 -1      6742 3.50887E-03-6.28055E-04-5.44418E-04 9.07926E-04 1.61168E-04 4.12141E-04
 -1      6743 3.78121E-03-8.60502E-04-5.48202E-04 9.68968E-04-2.37199E-06 1.39416E-04
 -1      6744 3.39584E-03-7.24127E-04-4.08725E-04 7.87702E-04-5.08830E-05-1.87332E-04
 -1      6745 2.04648E-03-4.13077E-04-5.37055E-04 1.05446E-03-8.14717E-05-2.69711E-04
 -1      6746 1.81623E-03-3.76365E-04-5.56286E-04 1.16770E-03 8.87783E-05 2.37627E-04
 -1      6747 1.43912E-03-2.66502E-04-5.65534E-04 7.41170E-04 9.91757E-05 2.24214E-04
 -1      6748 1.43293E-03-2.75479E-04-5.66055E-04 7.30339E-04-1.00210E-04-2.37992E-04
 -1      6749 9.08882E-04-3.37641E-04-2.24417E-04-1.17914E-04-3.14169E-05-2.23722E-04
 -1      6750 1.05946E-03-4.00905E-04-3.51513E-04-2.74418E-04-2.71435E-06 1.21258E-06
 -1      6751 9.08418E-04-3.37121E-04-2.26024E-04-1.18760E-04 3.33626E-05 2.20395E-04
 -1      6752 1.01648E-03-3.50000E-04-2.70844E-04-1.41520E-05-2.27365E-05-2.12594E-04
 -1      6753 4.60611E-04-2.07272E-04-7.69827E-05-3.97285E-04-5.04696E-05-2.46704E-04
 -1      6754 4.02859E-04-1.55141E-04-1.47844E-04-3.53404E-04-6.17868E-05-2.51907E-04
 -1      6755 1.01020E-03-3.43394E-04-4.24200E-04 1.57764E-04-7.63940E-05-1.94029E-04
 -1      6756 1.02097E-03-3.51271E-04-2.72599E-04-1.70300E-05 2.40356E-05 2.12320E-04
 -1      6757 4.65161E-04-2.08575E-04-7.98877E-05-3.95854E-04 5.12827E-05 2.47215E-04
 -1      6758 4.07760E-04-1.55790E-04-1.48795E-04-3.50855E-04 6.37945E-05 2.46667E-04
 -1      6759 1.00588E-03-3.44900E-04-4.26496E-04 1.61239E-04 7.65106E-05 1.90056E-04
 -1      6760 1.13506E-03-3.85852E-04-4.49885E-04 1.09258E-04 2.83118E-05 2.17296E-04
 -1      6761 1.14138E-03-3.92807E-04-4.42769E-04 1.05997E-04-3.05479E-05-2.14534E-04
 -1      6762 9.67401E-04-2.98208E-04-2.84932E-04-1.51765E-04-2.04811E-05-2.06714E-04
 -1      6763 9.67161E-04-2.96660E-04-2.88344E-04-1.49888E-04 1.88220E-05 2.05644E-04
 -1      6764 5.42077E-04-3.64250E-04-1.70206E-04-5.66528E-04 3.15828E-06 8.58528E-05
 -1      6765 5.36943E-04-3.64117E-04-1.65508E-04-5.69180E-04-7.34272E-06-8.60962E-05
 -1      6766-3.39154E-05-7.24035E-04 1.88922E-04-7.69407E-04-4.43111E-06 9.98441E-07
 -1      6767-9.21126E-05-6.84437E-04 2.22084E-04-7.55956E-04-1.16051E-04-5.42192E-05
 -1      6768-1.34451E-04-6.86756E-04 2.18741E-04-7.94094E-04 1.20274E-04 6.75770E-05
 -1      6769-1.17114E-05-8.60784E-04 1.66988E-04-7.85806E-04-1.73909E-04-1.21806E-04
 -1      6770-9.44751E-05-5.85604E-04 2.99730E-04-6.28662E-04-5.52524E-05-3.40679E-05
 -1      6771-1.24921E-04-5.67463E-04 2.42677E-04-7.59157E-04-8.11202E-05-3.79427E-05
 -1      6772-5.93428E-05-7.16165E-04 8.22729E-05-7.80598E-04-1.13558E-04-1.48173E-04
 -1      6773-2.22869E-04-5.48534E-04 2.93929E-04-6.64006E-04 6.54490E-05 4.31860E-05
 -1      6774-6.33043E-06-8.61120E-04 1.75896E-04-7.89010E-04 1.73862E-04 1.18912E-04
 -1      6775-1.86251E-04-5.55783E-04 2.65955E-04-7.83404E-04 8.54998E-05 4.03183E-05
 -1      6776-3.39132E-05-7.11459E-04 1.17197E-04-7.52514E-04 1.01049E-04 9.49205E-05
 -1      6777 1.41802E-05-7.56412E-04 1.14685E-04-7.84448E-04 3.22225E-05 1.31160E-05
 -1      6778-5.68646E-06-7.56517E-04 1.44933E-04-7.80259E-04-3.53685E-05-2.62320E-05
 -1      6779-5.75090E-05-6.82236E-04 1.66350E-04-7.53740E-04-7.73966E-05-4.81712E-05
 -1      6780-4.68241E-05-6.81244E-04 1.57666E-04-7.60013E-04 7.19902E-05 5.11429E-05
 -1      6781-8.24215E-05-5.87838E-04 2.14909E-04-7.48846E-04-5.05617E-05-1.77375E-05
 -1      6782-8.02937E-05-5.94831E-04 2.16366E-04-7.51206E-04 4.59306E-05 1.68841E-05
 -1      6783-8.12154E-04-6.12477E-05 3.24820E-04-9.13886E-04-1.29100E-04-1.05724E-04
 -1      6784-7.97043E-04-2.56825E-04 3.77144E-04-1.06744E-03 1.11950E-04 8.59144E-05
 -1      6785-6.37673E-04-4.07474E-04 2.16188E-04-1.21287E-03-9.99633E-07 8.75382E-07
 -1      6786-6.36932E-04-1.40647E-04 3.39893E-04-6.77294E-04-7.91020E-05-1.25857E-04
 -1      6787-8.89427E-04-2.73129E-04 3.78708E-04-1.24847E-03-7.46349E-05-6.99492E-05
 -1      6788-9.62352E-04-4.53694E-04 2.74950E-04-1.27775E-03-9.11351E-05-8.55003E-05
 -1      6789-5.37574E-04-1.76265E-04 2.87187E-04-7.72893E-04-1.13635E-04-8.63896E-05
 -1      6790-6.64399E-04-2.25869E-04 3.76245E-04-7.52777E-04 5.66690E-05 1.25884E-04
 -1      6791-7.66421E-04-5.98627E-04 4.39388E-04-1.19684E-03 9.83275E-05 1.06432E-05
 -1      6792-7.94473E-04-5.76272E-04 2.50213E-04-1.16748E-03 1.64906E-04 1.43029E-04
 -1      6793-5.28695E-04-2.35212E-04 3.06198E-04-8.06205E-04 1.27310E-04 1.00323E-04
 -1      6794-4.60579E-04-2.95789E-04 2.29172E-04-9.07763E-04 4.02662E-05 3.96526E-05
 -1      6795-4.52663E-04-2.96684E-04 2.35900E-04-9.14253E-04-4.72144E-05-4.11714E-05
 -1      6796-7.13713E-04-3.25793E-04 2.50494E-04-1.10320E-03-7.82567E-05-9.22724E-05
 -1      6797-7.30521E-04-3.41815E-04 2.56919E-04-1.13344E-03 7.86333E-05 9.15844E-05
 -1      6798-6.83207E-04-6.86058E-04 1.91306E-04-1.28116E-03-4.08365E-06 3.23806E-06
 -1      6799-7.09467E-04-6.86162E-04 1.84989E-04-1.31575E-03 4.64812E-06-2.35063E-06
 -1      6800 3.68460E-04-1.18515E-03 3.40402E-04-2.31829E-04 6.18862E-05 2.37040E-05
 -1      6801 3.07768E-04-1.06134E-03 3.32385E-04-1.86488E-04-5.95929E-05-2.65875E-05
 -1      6802 3.38569E-04-1.28317E-03 2.67412E-04-5.32771E-04-2.59051E-06 2.06760E-06
 -1      6803 3.46911E-04-1.53099E-03 4.14374E-04-4.88590E-04 5.37976E-05 4.70748E-05
 -1      6804 1.82454E-04-7.78482E-04 3.03123E-04-1.10819E-04 4.58501E-05 2.65518E-06
 -1      6805 2.34665E-04-8.51163E-04 3.31923E-04-1.51850E-04 7.16127E-05 2.21969E-05
 -1      6806 3.14612E-04-1.73186E-03 2.89208E-04-7.26080E-04 4.18151E-05 7.32652E-05
 -1      6807 3.31013E-04-1.49759E-03 4.06189E-04-4.55432E-04-6.35426E-05-3.27044E-05
 -1      6808 1.95650E-04-7.73722E-04 3.01866E-04-1.23822E-04-5.82613E-05-2.53941E-05
 -1      6809 2.69921E-04-9.11311E-04 3.38904E-04-2.09837E-04-6.98396E-05-3.51634E-05
 -1      6810 3.90880E-04-1.74240E-03 2.82459E-04-6.12171E-04-3.68553E-05-5.37265E-05
 -1      6811 1.63848E-04-1.59950E-03 2.04516E-04-9.25764E-04 2.73432E-05 5.67187E-05
 -1      6812 1.36891E-04-1.60357E-03 1.87959E-04-9.52380E-04-2.17538E-05-7.12035E-05
 -1      6813 3.75001E-04-1.27310E-03 2.88051E-04-4.22080E-04 5.77538E-05-7.96266E-06
 -1      6814 3.68005E-04-1.23717E-03 2.91339E-04-3.59926E-04-2.95421E-05 1.88446E-05
 -1      6815 3.01215E-04-9.51674E-04 3.22779E-04-2.96271E-04-4.37431E-05 4.75372E-06
 -1      6816 2.55108E-04-9.28014E-04 3.20380E-04-2.85882E-04 3.25631E-05 2.15900E-06
 -1      6817 1.03076E-04-6.62179E-04 2.45163E-04-3.82872E-04 4.55247E-06 2.45453E-06
 -1      6818 1.15506E-04-7.39765E-04 2.58980E-04-3.92336E-04-7.69306E-06 4.22315E-06
 -1      6819 1.35710E-04-7.89224E-04 2.51919E-04-3.99716E-04-6.35251E-06-9.72698E-07
 -1      6820 1.02311E-04-6.37711E-04 2.63196E-04-3.68714E-04-3.79302E-07-2.64279E-05
 -1      6821 1.24659E-04-8.54475E-04 2.44382E-04-4.26877E-04 2.27973E-05 1.09168E-05
 -1      6822 1.99096E-04-1.01140E-03 1.91035E-04-4.39482E-04 1.02583E-05 2.11660E-05
 -1      6823 1.29147E-04-6.81618E-04 2.89448E-04-3.58712E-04 2.52033E-05 1.95159E-05
 -1      6824 1.66975E-04-9.25058E-04 2.47819E-04-4.15931E-04-1.59363E-05-7.01666E-06
 -1      6825 9.64833E-05-6.49526E-04 2.64867E-04-3.74762E-04-7.76290E-06 2.64276E-05
 -1      6826 1.46416E-04-9.80445E-04 1.93800E-04-3.47546E-04 3.66023E-05-1.11161E-05
 -1      6827 1.19815E-04-6.48726E-04 3.04087E-04-3.49463E-04-2.35466E-05-8.18713E-06
 -1      6828 1.36945E-04-7.00639E-04 2.99997E-04-3.67038E-04-4.35643E-06-9.39666E-06
 -1      6829 1.22520E-04-7.08828E-04 3.06034E-04-3.87108E-04 2.46549E-06 5.28414E-06
 -1      6830 1.25275E-04-7.68115E-04 2.45155E-04-4.36705E-04 1.18072E-05 7.16416E-06
 -1      6831 1.32735E-04-8.10961E-04 2.44824E-04-4.14097E-04-2.23541E-05-2.49734E-06
 -1      6832 2.40337E-04-1.09651E-03 1.77182E-04-3.39709E-04 2.76335E-05-5.63125E-07
 -1      6833 1.89264E-04-1.02377E-03 1.65449E-04-3.34122E-04-6.84861E-05 2.05988E-05
 -1      6834 1.23266E-04-4.13913E-04 1.28780E-04 1.34933E-04 7.34440E-05-1.99521E-05
 -1      6835 1.13053E-04-4.34418E-04 1.36230E-04 1.55687E-04-7.57555E-05 3.31491E-05
 -1      6836 1.92760E-04-6.14019E-04 1.36055E-04 1.75706E-04 5.28950E-06-8.49406E-06
 -1      6837 1.74061E-04-6.57505E-04 1.82165E-04 1.22333E-04 9.88216E-05-2.17689E-06
 -1      6838 5.66978E-05-2.53146E-04 9.83963E-05 1.00243E-04 6.49677E-05-4.27771E-05
 -1      6839 5.39622E-05-2.83790E-04 1.24009E-04 1.00969E-04 6.56336E-05-1.63304E-05
 -1      6840 2.10286E-04-8.76954E-04 1.51479E-04 1.42185E-04 7.76401E-05-6.87300E-06
 -1      6841 1.93089E-04-7.19863E-04 1.92832E-04 1.28382E-04-9.77938E-05 1.13594E-05
 -1      6842 5.08508E-05-2.66739E-04 1.07360E-04 1.01572E-04-5.45420E-05 4.66204E-05
 -1      6843 3.80816E-05-2.57583E-04 1.26739E-04 1.25533E-04-6.80733E-05 1.96194E-05
 -1      6844 1.52050E-04-7.30499E-04 1.18004E-04 1.33804E-04-1.14474E-04 1.16613E-05
 -1      6845 1.70854E-04-7.71548E-04 1.20803E-04 1.46767E-04 8.04070E-06 1.72114E-06
 -1      6846 2.54620E-04-9.25270E-04 1.30559E-04 1.21660E-04 2.84810E-05-1.71357E-05
 -1      6847 1.91442E-04-5.76894E-04 1.30231E-04 1.65958E-04 3.92379E-05-2.93554E-05
 -1      6848 1.66980E-04-5.57382E-04 1.34282E-04 1.62804E-04-5.16975E-05 2.53347E-05
 -1      6849 9.36214E-05-3.22928E-04 1.29958E-04 1.25613E-04-1.66558E-05 1.33484E-05
 -1      6850 6.39146E-05-2.98112E-04 1.23116E-04 1.21668E-04 3.20587E-05-1.83483E-05
 -1      6851 5.22369E-05-1.69679E-04 4.93949E-05-1.34494E-05 5.46773E-05-7.55527E-06
 -1      6852 6.26839E-05-1.88245E-04 5.67927E-05 5.62939E-08-4.85798E-05 8.86211E-06
 -1      6853 5.24407E-05-1.64830E-04 6.13195E-05-1.40484E-05-1.24765E-07 7.48745E-07
 -1      6854 8.32463E-05-1.98296E-04 5.95056E-05 3.39764E-06 3.98125E-05-2.50091E-06
 -1      6855 6.29104E-05-1.42118E-04 1.76914E-05-5.01435E-05 6.12145E-05-1.81480E-05
 -1      6856 4.14955E-05-8.93115E-05 2.08994E-05-4.80314E-05 5.40445E-05-1.10187E-05
 -1      6857 5.18683E-05-2.11742E-04 8.60598E-05 2.58710E-05 4.63244E-05-9.18696E-06
 -1      6858 8.24737E-05-2.01765E-04 6.34639E-05 4.60478E-06-3.85196E-05 8.05613E-06
 -1      6859 6.18404E-05-1.41447E-04 2.25865E-05-4.70611E-05-5.71446E-05 1.20129E-05
 -1      6860 5.05066E-05-1.07576E-04 3.34545E-05-2.81611E-05-5.14980E-05 1.13695E-05
 -1      6861 6.27026E-05-2.31614E-04 8.88474E-05 3.49661E-05-3.75533E-05 7.55724E-06
 -1      6862 6.50934E-05-2.18602E-04 9.22191E-05 2.48060E-05-1.81278E-05-1.49556E-06
 -1      6863 6.28009E-05-2.12843E-04 9.20187E-05 2.23579E-05 2.53300E-05-1.60887E-06
 -1      6864 5.16299E-05-1.68241E-04 6.27412E-05-1.48869E-05 3.20558E-05-7.07278E-06
 -1      6865 5.45166E-05-1.70511E-04 5.75391E-05-1.04272E-05-3.39641E-05 4.01215E-06
 -1      6866 4.26550E-05-1.05966E-04 2.71292E-05-2.86403E-05-1.69561E-05 1.26175E-05
 -1      6867 4.11766E-05-9.04956E-05 2.26756E-05-4.59862E-05 1.54771E-05-1.06123E-05
 -1      6868 1.26459E-04 8.77943E-06-5.47106E-05-1.24823E-04 2.38840E-05-2.81585E-05
 -1      6869 1.26021E-04 2.33984E-05-5.48129E-05-1.33101E-04-2.84210E-05 3.42320E-05
 -1      6870 1.28280E-04 7.83979E-06-5.62127E-05-1.11489E-04-3.19368E-06 3.03844E-06
 -1      6871 1.53438E-04-7.81579E-06-4.19693E-05-1.33550E-04 3.31007E-05-3.56886E-05
 -1      6872 1.15264E-04 2.19071E-05-6.59580E-05-1.23519E-04 1.94734E-05-1.74375E-05
 -1      6873 1.02156E-04 3.24453E-05-7.47806E-05-1.41810E-04 2.46103E-05-2.51818E-05
 -1      6874 1.15671E-04 1.54621E-06-3.27344E-05-1.04953E-04 2.93305E-05-3.11082E-05
 -1      6875 1.49911E-04-1.10067E-05-3.66600E-05-1.31799E-04-3.60882E-05 3.65284E-05
 -1      6876 1.03832E-04 5.64805E-05-6.36127E-05-1.39103E-04-2.68318E-05 1.76401E-05
 -1      6877 1.10236E-04 4.48376E-05-8.12099E-05-1.48043E-04-2.68150E-05 3.05415E-05
 -1      6878 1.12929E-04 9.92621E-06-3.07092E-05-1.13244E-04-3.10993E-05 3.36603E-05
 -1      6879 1.22844E-04 2.42229E-05-7.84480E-05-1.29172E-04-7.94186E-06 1.20128E-05
 -1      6880 1.08967E-04 2.64633E-05-8.26437E-05-1.31788E-04 8.81571E-06-1.84166E-05
 -1      6881 1.28421E-04 1.10555E-05-5.47365E-05-1.16727E-04 1.41899E-05-2.26147E-05
 -1      6882 1.23600E-04 1.41548E-05-5.24640E-05-1.23736E-04-1.71434E-05 2.48072E-05
 -1      6883 1.13030E-04 1.15282E-05-2.68261E-05-1.06892E-04-1.98686E-05 1.26526E-05
 -1      6884 1.10654E-04 5.82405E-06-2.54317E-05-1.03636E-04 1.04801E-05-1.13138E-05
 -1      6885-2.12895E-01 5.93135E-01-1.83152E-01-7.29150E-01-6.38509E-03 1.77421E-03
 -1      6886 1.41498E-02-7.92788E-02 2.78107E-02 8.82122E-02 5.01108E-04 1.36697E-04
 -1      6887-1.92918E-02-5.74490E-03 1.07706E-02 2.38870E-01-6.23561E-05 4.32574E-05
 -1      6888 9.62716E-01-1.57363E+00 2.60032E-01 2.15821E-01 1.44303E-03-2.88542E-04
 -1      6889 6.39661E-03 1.23031E-01-5.46548E-02-7.78483E-01 4.48920E-03-2.88417E-03
 -1      6890-2.75961E-01 7.41732E-01-1.96075E-01 1.07004E-01 2.76793E-03 3.27468E-03
 -1      6891-4.35755E-01 1.13543E+00-3.02644E-01 4.99469E-01-1.32924E-03-6.88948E-03
 -1      6892-4.68864E-01 1.02715E+00-2.35606E-01 3.56828E-01 1.29687E-03-4.16696E-03
 -1      6893 1.32115E-01-4.62071E-01 1.41331E-01 1.86339E-01-1.26972E-04 1.26069E-04
 -1      6894 6.86127E-01-2.12248E+00 7.70271E-01 5.54741E-01-7.96905E-04 2.33266E-03
 -1      6895 1.04632E+00-1.39155E+00 9.03482E-02-3.29945E-01 3.77712E-02-5.47645E-04
 -1      6896 8.00845E-01-1.73950E+00 4.29611E-01-2.41679E-01 4.95673E-03-6.20439E-03
 -1      6897 5.93754E-01-2.54594E+00 1.07509E+00-5.39722E-02 5.37891E-03 1.19494E-03
 -1      6898 6.17214E-01-1.33248E+00 3.07671E-01 4.67487E-01-3.93715E-04 1.30739E-03
 -1      6899 2.81735E-01-8.93037E-01 2.66958E-01-8.26815E-02 7.62507E-04-2.22835E-03
 -1      6900-1.10387E-01 1.89145E-01-3.85513E-02-1.01145E+00-4.24349E-04-6.66154E-03
 -1      6901-5.52973E-01 2.70026E+00-1.17195E+00 1.06178E-01-1.20128E-02 2.53738E-03
 -1      6902-5.12160E-01 1.70573E+00-5.84159E-01 7.75118E-01-1.35874E-04 9.24106E-03
 -1      6903-1.91112E-02-2.97610E-03 9.54307E-03 9.48666E-02-1.21043E-05-1.11374E-04
 -1      6904 6.05151E-01-1.23189E+00 2.70949E-01 5.58325E-02-1.26827E-03-1.94276E-03
 -1      6905 7.82906E-01-1.35109E+00 2.49669E-01 8.09172E-02 1.50300E-03-1.90704E-03
 -1      6906-1.07499E+00 1.34606E+00-7.85588E-02-1.88679E-01-4.97585E-04 1.06804E-02
 -1      6907-4.07650E-01 1.22902E+00-4.24725E-01-5.73208E-01 1.69291E-03 2.22678E-03
 -1      6908-2.52073E-01 6.79884E-01-1.85780E-01-2.15826E-01-5.66721E-03 3.33749E-04
 -1      6909-7.51609E-01 1.52199E+00-3.36251E-01 3.90645E-01-6.36568E-03-8.38452E-03
 -1      6910 3.24467E-01-7.27364E-01 1.72518E-01-3.87778E-02 4.06281E-03 6.68358E-05
 -1      6911 9.45293E-02-3.50360E-01 9.85693E-02-7.54703E-01-3.53895E-03 3.67793E-03
 -1      6912 4.15991E-01-9.61446E-01 2.67623E-01-5.12468E-01 5.92478E-04-1.67255E-04
 -1      6913-4.60770E-01 9.10884E-01-1.88619E-01-4.15215E-01 1.26303E-04 5.73224E-04
 -1      6914-6.06257E-01 1.59860E+00-4.77672E-01 1.26757E-01 1.65607E-03-1.27943E-04
 -1      6915 2.75605E-01-2.39960E-01-2.57051E-02-4.27071E-01 1.29085E-03 3.38623E-04
 -1      6916 2.77983E-01-1.44630E+00 6.93443E-01-9.26627E-01 3.23701E-02 1.23411E-02
 -1      6917 3.47418E-02-6.60235E-01 3.74292E-01-4.18027E-01 2.29084E-03 2.87623E-02
 -1      6918-1.05315E+00 1.87618E+00-3.39953E-01 1.98630E-01-1.29916E-02 3.39485E-02
 -1      6919-4.04352E-01 2.61796E+00-1.21360E+00 8.42230E-01 1.87974E-01 5.01191E-02
 -1      6920-6.48331E-01 3.48168E+00-1.02518E+00 1.40723E+00-1.00694E-02 8.46044E-03
 -1      6921-3.27865E-01 8.87987E-01-2.35809E-01 3.63115E-01 2.09055E-03-1.01767E-03
 -1      6922-4.67674E-01 2.10882E+00-9.10084E-01-8.21567E-01 3.68189E-02-5.56475E-03
 -1      6923-5.00384E-01 9.89014E-01-2.05774E-01 1.02861E-01-2.39168E-04-4.33416E-04
 -1      6924 3.39647E-01-6.91051E-01 1.46972E-01-3.37829E-01 5.22179E-04 1.81855E-03
 -1      6925-4.69493E-01 1.15730E-01 1.39554E-01-6.66220E-01-4.81471E-03 9.34945E-04
 -1      6926 3.00140E-01-7.40669E-01 1.87550E-01 1.23110E-01-2.11984E-03-3.72423E-04
 -1      6927-1.49231E-03-1.97556E-03 1.19097E-03 1.92198E-05 5.73175E-05 9.97812E-05
 -1      6928 9.61016E-01-1.37615E+00 1.76939E-01 2.38988E-01-1.36724E-02 1.19887E-02
 -1      6929 8.86117E-01-1.22282E+00 1.34582E-01 2.28566E-01-6.32238E-05-1.06000E-02
 -1      6930-1.53011E-04-4.08600E-04 1.92250E-04-3.49586E-04 9.61482E-06 1.97619E-06
 -1      6931-1.61175E+00 7.41152E+00-2.49545E+00 8.70740E-01-3.16828E-04 4.74646E-03
 -1      6932 4.26273E-01-3.30097E-01-5.37704E-02-1.23025E+00-1.89720E-02-4.32211E-03
 -1      6933 2.06325E-01-5.76454E-01 1.58416E-01 1.26394E-02 1.10080E-03 2.75093E-04
 -1      6934 1.54991E+00-6.23138E+00 2.01116E+00 5.31185E-01 1.73614E-03-2.18931E-04
 -1      6935-2.07317E-01 6.08127E-01-1.79075E-01-5.70287E-01 7.33034E-03 2.24069E-03
 -1      6936-5.68764E-01 1.21323E+00-3.02851E-01 2.23258E-01-3.74058E-04-6.59729E-03
 -1      6937 8.15119E-01-1.60582E+00 3.57903E-01 3.82723E-01-3.57858E-03-2.32272E-03
 -1      6938 3.91201E-01-9.36411E-01 2.29662E-01 2.92799E-01 1.87306E-03 1.29203E-03
 -1      6939-2.82787E-01 1.12205E+00-3.68965E-01 7.43141E-01 1.16584E-02 5.74989E-03
 -1      6940 4.97564E-02 1.53755E-01-8.56672E-02-6.16293E-01-8.07194E-04 3.38518E-03
 -1      6941-1.72277E-01 8.96953E-01-3.14638E-01 6.70076E-01 1.88683E-03-5.79882E-03
 -1      6942 6.07709E-01-5.68602E-01-2.84314E-02 3.07595E-02 9.17377E-03 7.75408E-03
 -1      6943 5.06291E-02-1.30121E-01 3.95560E-02-8.72048E-01 1.50569E-02 6.94016E-03
 -1      6944 8.54161E-01-1.56197E+00 3.11808E-01 1.76841E-02 1.53350E-03 2.52008E-04
 -1      6945 8.48154E-01-1.54802E+00 3.03968E-01 1.06956E-02-3.40055E-03-3.04887E-03
 -1      6946-1.55107E-01 6.70375E-01-1.95865E-01-6.31819E-01 1.33871E-04 5.16498E-03
 -1      6947-5.57319E-04 7.29706E-04 1.60706E-04-2.81290E-04 1.15560E-05-4.13686E-06
 -1      6948-5.42473E-03 2.37921E-03 1.34419E-03 1.30697E-03 2.02362E-05 1.12138E-05
 -1      6949-5.82686E-04 5.67901E-04 2.96711E-04-2.88964E-04-4.25527E-06 1.60008E-04
 -1      6950-5.47119E-03 2.44351E-03 1.38409E-03 1.26162E-03-4.76241E-05-7.19341E-05
 -1      6951-1.14761E-02-8.72311E-04 5.53648E-03-1.03394E-02 8.78790E-04-6.52909E-05
 -1      6952-3.72907E-02 8.96108E-03 1.17122E-02-7.25832E-03 9.77822E-04 1.67399E-04
 -1      6953-2.70904E-02 8.44624E-03 7.79471E-03-7.90135E-03 2.33558E-05-3.42804E-04
 -1      6954-4.37679E-02 1.59314E-02 1.16626E-02-8.20555E-04-1.51560E-04 5.91012E-05
 -1      6955-3.66587E-02 9.02547E-03 1.10431E-02-7.72019E-03-8.31249E-04-2.07202E-04
 -1      6956-6.74583E-03 2.61468E-03 1.77099E-03 2.04008E-03 1.13843E-05 2.36072E-05
 -1      6957 1.71130E-04 1.26870E-04 6.66346E-05-6.58820E-04-3.42939E-06 1.00921E-04
 -1      6958-2.22616E-04 2.38918E-04 1.47276E-04-4.86615E-04-5.40888E-05-8.51404E-06
 -1      6959-4.35338E-01 1.31583E+00-4.05630E-01 6.15793E-01 1.45003E-04 9.88241E-03
 -1      6960-4.56233E-01 1.48162E+00-4.74782E-01 7.35811E-01-1.07678E-02 6.78958E-03
 -1      6961-4.59769E-01 1.25073E+00-3.41945E-01 5.91639E-01-2.37928E-03-1.54638E-03
 -1      6962-5.76850E-01 1.33569E+00-3.27978E-01 4.54345E-01-1.37158E-02-9.34831E-03
 -1      6963-6.11541E-01 1.45085E+00-3.65444E-01 5.31345E-01-1.41365E-03-6.43845E-03
 -1      6964-5.86360E-01 1.50781E+00-4.21845E-01 5.59867E-01 8.29574E-06-2.44916E-03
 -1      6965 6.02293E-01-1.98823E+00 6.99072E-01-2.12825E-02 1.37719E-01 2.38475E-02
 -1      6966 5.80159E-01-2.35873E+00 9.44635E-01 2.75929E-01-9.43331E-04 2.10936E-03
 -1      6967 6.61969E-01-1.92121E+00 6.02438E-01 3.03900E-01 8.49945E-02 1.26429E-02
 -1      6968 7.15302E-01-1.51333E+00 3.58422E-01 8.20528E-03 3.44061E-02 1.46415E-02
 -1      6969 7.42733E-01-1.70562E+00 4.73322E-01 3.20856E-01-3.14058E-03 9.08948E-05
 -1      6970 6.74400E-01-1.71204E+00 5.41886E-01 1.10267E-02 1.99998E-03-6.06066E-04
 -1      6971 6.04989E-01-2.00373E+00 7.09113E-01-1.65274E-02-1.35723E-01-2.35406E-02
 -1      6972 6.62108E-01-1.92373E+00 6.06724E-01 3.04798E-01-8.57899E-02-1.25152E-02
 -1      6973 7.16874E-01-1.51600E+00 3.56610E-01 1.23625E-02-3.73505E-02-1.35004E-02
 -1      6974-1.56426E-01 4.55793E-01-1.37747E-01-7.35219E-01-5.46084E-03-9.40124E-03
 -1      6975-4.48259E-02 2.56954E-01-8.85961E-02-7.76636E-01-2.88731E-03-8.88766E-03
 -1      6976-2.95569E-01 7.89190E-01-2.05685E-01-4.35923E-01-3.72217E-03 4.83260E-03
 -1      6977-1.54402E-01 4.94149E-01-1.48409E-01-4.97470E-01 3.11580E-03-2.70312E-03
 -1      6978-1.09174E-01 3.94612E-01-1.24296E-01-5.52007E-01-1.99896E-03-4.09407E-03
 -1      6979 9.26071E-01-4.22408E+00 9.53615E-01 8.60465E-01 1.00896E-02 1.10221E-02
 -1      6980 5.82912E-01-3.26463E+00 1.26214E+00 2.49838E-01-5.17147E-01 1.73980E-01
 -1      6981 6.55804E-01-3.29508E+00 1.28595E+00 2.51798E-01 5.14583E-01-1.75326E-01
 -1      6982 4.78317E-01-2.74825E+00 1.09580E+00-2.26654E-01 4.69659E-01-1.41340E-01
 -1      6983 3.94049E-01-2.04911E+00 9.20836E-01-4.57378E-01 2.21058E-02 2.01675E-03
 -1      6984 4.77240E-01-2.78277E+00 1.04402E+00-2.13340E-01-4.13029E-01 1.44039E-01
 -1      6985-3.02013E-01 1.07053E+00-1.87436E-01-1.08097E+00-1.37296E-02-3.32408E-03
 -1      6986-8.27912E-02 3.35304E-02-1.82447E-02-1.18821E+00-1.31778E-01-1.75601E-02
 -1      6987-1.91355E-01 5.24456E-01-1.66088E-01-1.09737E+00-5.25891E-02 1.16800E-01
 -1      6988-1.66462E-02-3.20263E-01 1.29944E-01-1.08304E+00-7.99350E-02-1.39500E-01
 -1      6989-1.64542E-01 5.61840E-01-1.69487E-01-1.03432E+00 7.08217E-02-1.57433E-01
 -1      6990-3.10668E-02-3.98153E-01 2.07460E-01-1.02114E+00 8.21607E-02 1.48415E-01
 -1      6991 1.60223E-01-1.13165E+00 2.32461E-01-1.09383E+00 3.58476E-02-9.07710E-03
 -1      6992 1.50718E-01-1.32497E+00 5.91998E-01-8.98784E-01 1.96219E-01 1.58934E-01
 -1      6993 1.84689E-01-1.39315E+00 5.52639E-01-9.74109E-01-1.58406E-01-1.07264E-01
 -1      6994 7.24634E-02-5.92362E-01 2.84473E-01-9.63990E-01 7.87186E-03 1.07367E-02
 -1      6995 9.75214E-01-1.52004E+00 2.30824E-01 2.18079E-01 1.57324E-03 6.12495E-03
 -1      6996 9.83593E-01-1.44660E+00 2.00000E-01 2.26823E-01-1.42034E-02 1.18682E-02
 -1      6997 9.83727E-01-1.55849E+00 2.46499E-01 2.31976E-01-6.96149E-04 6.41006E-03
 -1      6998 9.35596E-01-1.40795E+00 1.91749E-01 2.11146E-01 1.71850E-03-4.81652E-03
 -1      6999 9.43656E-01-1.34424E+00 1.74574E-01 2.18594E-01-1.54607E-03 1.96814E-03
 -1      7000 9.26332E-01-1.25422E+00 1.34503E-01 2.40572E-01-1.94413E-02 7.47253E-03
 -1      7001-3.71022E-01 1.64813E+00-5.92449E-01-8.83858E-01-1.50881E-01 1.19961E-01
 -1      7002-3.09559E-01 1.09278E+00-4.21240E-01-9.35767E-01 1.81494E-02-1.17698E-02
 -1      7003-3.43768E-01 1.58020E+00-5.59188E-01-8.70016E-01 1.78236E-01-1.55193E-01
 -1      7004 5.47813E-01-1.34961E+00 3.71557E-01-2.80294E-01 5.39635E-02 1.51399E-02
 -1      7005 5.93484E-01-1.15730E+00 2.57202E-01-1.96939E-01 9.20398E-04-1.11793E-03
 -1      7006 4.94178E-01-1.61399E+00 5.99254E-01-2.74655E-01 4.53580E-03 3.73408E-05
 -1      7007 5.48920E-01-1.35247E+00 3.73698E-01-2.77986E-01-5.51789E-02-1.56579E-02
 -1      7008 7.34111E-02-3.61748E+00 1.28334E+00 2.51972E+00 5.05368E-01-2.50645E-01
 -1      7009 3.38934E-02-2.57691E+00 1.20093E+00 1.58389E+00-2.61046E-03 1.97757E-03
 -1      7010 3.51387E-01-2.56823E+00 1.06887E+00 1.09839E+00 3.85681E-01-1.50805E-01
 -1      7011 4.66216E-01-3.07080E+00 1.23527E+00 7.77068E-01 5.20295E-01-2.50648E-01
 -1      7012 3.71133E-01-2.98890E+00 1.26515E+00 1.15434E+00-9.07089E-03 1.18728E-02
 -1      7013 3.70609E-01-2.56501E+00 1.06650E+00 1.09596E+00-3.91769E-01 1.50296E-01
 -1      7014 5.54424E-02-3.59200E+00 1.29736E+00 2.51021E+00-5.15802E-01 2.40596E-01
 -1      7015 4.76116E-01-3.12597E+00 1.25195E+00 8.20652E-01-5.02154E-01 2.42745E-01
 -1      7016 6.36750E-01-2.00268E+00 6.26395E-01 5.96918E-01-1.39105E-01-5.27864E-04
 -1      7017 4.43589E-01-1.81037E+00 7.03367E-01 6.25954E-01-2.34097E-01 1.44400E-02
 -1      7018 6.23187E-01-2.16816E+00 7.56092E-01 2.89687E-01-1.98106E-01-2.41799E-02
 -1      7019 3.67589E-01-2.09876E+00 8.26717E-01 5.00191E-01-3.11516E-01 1.02773E-02
 -1      7020 4.37583E-01-1.81025E+00 7.04967E-01 6.26577E-01 2.31186E-01-1.47342E-02
 -1      7021 6.40625E-01-2.00367E+00 6.24491E-01 5.94396E-01 1.38819E-01 4.99283E-03
 -1      7022 3.79334E-01-2.10822E+00 8.17638E-01 4.97074E-01 3.19318E-01-1.57673E-02
 -1      7023 6.28376E-01-2.16524E+00 7.45629E-01 2.80339E-01 2.01812E-01 2.50140E-02
 -1      7024 5.38133E-02-1.78137E+00 7.15584E-01 1.26332E+00-9.27746E-01 4.45669E-01
 -1      7025 5.20273E-02-1.78605E+00 7.18565E-01 1.25193E+00 9.23046E-01-4.42863E-01
 -1      7026-3.06700E-02-2.86052E-02 2.99729E-02-9.63319E-01-1.98195E-02-2.80813E-02
 -1      7027-3.95572E-02 1.42836E-01-3.66091E-02-8.65864E-01 6.68838E-04-2.70225E-03
 -1      7028 1.95202E-02-3.55780E-02 1.36672E-02-8.59110E-01-5.15573E-03-2.16298E-03
 -1      7029 2.30134E-01-6.11174E-01 1.86862E-01-7.34154E-01-2.16224E-02-1.43225E-02
 -1      7030 2.06325E-01-4.15721E-01 1.00388E-01-6.75318E-01 2.60865E-05-1.25916E-03
 -1      7031 1.42141E-01-4.63090E-01 1.73253E-01-7.76764E-01-2.11346E-03-6.96032E-03
 -1      7032-3.56149E-02 1.90578E-02 7.09412E-03 1.97932E-02-4.67099E-05 5.79868E-05
 -1      7033-3.40481E-02 1.74240E-02 7.23107E-03 1.27898E-02-1.28469E-04-1.04332E-06
 -1      7034-4.07525E-02 1.95243E-02 9.10026E-03 1.03808E-02-7.86784E-06 1.27624E-05
 -1      7035-4.14868E-02 2.17079E-02 8.66561E-03 1.78076E-02-5.31471E-05 6.46826E-05
 -1      7036 1.21340E+00-4.15463E+00 1.26014E+00 6.03935E-01-1.30352E-04 9.70314E-04
 -1      7037 1.03279E+00-3.65612E+00 1.12721E+00 5.42946E-01 1.08622E-03-8.96616E-04
 -1      7038 1.20484E+00-4.69486E+00 1.50354E+00 4.74415E-01-3.77597E-03-4.79787E-03
 -1      7039 1.42149E+00-5.23690E+00 1.63599E+00 5.48218E-01 1.42264E-03 9.70232E-03
 -1      7040 1.42262E+00-5.23995E+00 1.64113E+00 5.43355E-01 7.14040E-04-5.08823E-03
 -1      7041 2.77939E-01-8.12606E-01 2.32149E-01-4.27269E-02 1.05225E-03-6.04423E-03
 -1      7042 3.17076E-01-8.30675E-01 2.21775E-01 1.26783E-02 6.01091E-04-1.60423E-03
 -1      7043 2.81018E-01-7.39500E-01 1.95837E-01 4.14513E-02-8.41068E-04-1.22863E-03
 -1      7044 2.32390E-01-6.51194E-01 1.80583E-01 2.79695E-03-1.85857E-04-2.36546E-03
 -1      7045 2.53197E-01-6.53224E-01 1.73913E-01 5.37154E-02 7.65712E-04-1.79121E-03
 -1      7046 2.54913E-01-7.36412E-01 2.07683E-01-1.87902E-02-2.04639E-04-1.44841E-04
 -1      7047 4.79687E-01-1.98371E+00 7.39853E-01 1.99190E-01-2.82791E-01-3.16845E-02
 -1      7048 4.96422E-01-1.97637E+00 7.32953E-01 1.82903E-01 2.80263E-01 3.31916E-02
 -1      7049 8.38318E-01-3.14661E+00 9.89119E-01 4.60079E-01 1.43693E-03-1.59936E-03
 -1      7050 1.20244E+00-4.67817E+00 1.49905E+00 4.80501E-01 6.46734E-03 6.26943E-03
 -1      7051 3.10034E-01-7.93109E-01 2.12635E-01-2.14747E-02 1.39535E-03-1.30335E-03
 -1      7052 3.10788E-01-7.69624E-01 2.02874E-01-1.54142E-02 8.15578E-04-2.45119E-03
 -1      7053 2.79788E-01-8.52586E-01 2.50672E-01-3.70607E-02 4.87108E-03-6.26219E-03
 -1      7054 2.62148E-01-1.02509E+00 3.29660E-01-9.74345E-02-4.54471E-03-3.30133E-03
 -1      7055 2.82557E-01-9.94159E-01 2.97190E-01-7.43073E-02 1.17542E-02-7.57601E-03
 -1      7056 3.57462E-01-9.32593E-01 2.49713E-01-2.98255E-02-6.72039E-04-2.28471E-03
 -1      7057 2.35130E-01-6.21945E-01 1.65570E-01 7.12044E-02-7.38606E-04-8.12784E-04
 -1      7058 1.97213E-01-5.47315E-01 1.50368E-01 2.31988E-02-2.48597E-04-6.77588E-04
 -1      7059 6.77208E-01-4.09221E+00 1.12491E+00 1.60490E+00 2.25579E-02 3.61411E-02
 -1      7060 2.43778E-01-3.81470E+00 1.22838E+00 2.19874E+00-1.79084E-02-3.12722E-03
 -1      7061 2.54874E-01-8.91215E-01 2.72631E-01 3.78809E-01 6.45968E-04 3.53712E-05
 -1      7062 1.21292E-01-4.56148E-01 1.42614E-01 3.98057E-01-1.38151E-03-6.75951E-05
 -1      7063 1.48635E-01-5.53211E-01 1.72597E-01 4.03839E-01-5.99714E-04-3.50956E-04
 -1      7064 1.41627E-01-5.29186E-01 1.67335E-01 4.26174E-01 1.44780E-03-3.63220E-05
 -1      7065 1.63659E-01-5.95185E-01 1.85622E-01 4.15868E-01 1.55899E-03-2.34932E-03
 -1      7066 2.88455E-01-1.00331E+00 3.06426E-01 4.00368E-01 7.24305E-04-1.19717E-03
 -1      7067 3.27411E-01-1.13395E+00 3.47905E-01 5.74504E-01 1.89474E-03-7.09555E-04
 -1      7068 2.89465E-01-1.02497E+00 3.16067E-01 5.84531E-01 2.37475E-03 5.85578E-05
 -1      7069 5.58742E-01-1.89867E+00 5.74817E-01 5.49123E-01 5.32451E-04-8.92708E-04
 -1      7070 2.56353E-01-8.94462E-01 2.72155E-01 3.67904E-01-5.98975E-04-7.18492E-04
 -1      7071 1.21094E-01-4.59773E-01 1.44494E-01 3.88550E-01-1.67879E-03-1.05618E-03
 -1      7072 8.01136E-01-3.61484E+00 7.53208E-01 2.70915E-01 1.03154E-01-3.25141E-02
 -1      7073 3.78417E-01-2.26030E+00 8.40518E-01-7.16186E-01-3.34202E-01 1.07408E-02
 -1      7074 2.13101E-01-7.58729E-01 2.35318E-01 4.67555E-01 8.79017E-04-1.65958E-03
 -1      7075 3.69888E-01-1.27589E+00 3.88105E-01 4.50048E-01 6.58073E-04-1.11790E-03
 -1      7076 1.88936E-01-6.89212E-01 2.15897E-01 4.79058E-01 1.42853E-03-4.13025E-05
 -1      7077 2.65937E-01-9.37114E-01 2.89218E-01 5.20471E-01-1.59683E-03 1.68159E-03
 -1      7078 2.37779E-01-8.52991E-01 2.66136E-01 5.31280E-01-3.35669E-04 2.78348E-04
 -1      7079 4.58980E-01-1.57259E+00 4.76944E-01 4.99090E-01-6.19176E-04 1.83291E-03
 -1      7080 2.78064E-01-6.39655E-01 1.57608E-01-1.09341E-01 1.13308E-03-4.65817E-04
 -1      7081 3.35204E-01-7.16540E-01 1.64333E-01-5.82911E-02 4.69169E-03 1.41643E-03
 -1      7082 2.54881E-01-6.12565E-01 1.53933E-01-4.60086E-02 3.40391E-03 1.54063E-04
 -1      7083 3.33669E-01-7.21649E-01 1.68572E-01-6.29660E-02 2.44931E-04-1.99045E-04
 -1      7084 2.81486E-01-6.43100E-01 1.55139E-01-1.10449E-01-3.22439E-04 8.60480E-04
 -1      7085 2.55392E-01-6.14749E-01 1.53916E-01-5.13353E-02-4.31571E-04-1.00932E-04
 -1      7086-9.98973E-03 6.79292E-04 4.04222E-03-8.32989E-03-1.19571E-04 2.21595E-04
 -1      7087-1.09214E-02-9.82871E-04 4.87489E-03-9.86612E-03-9.50489E-04-1.31445E-04
 -1      7088-3.11138E-02 1.37018E-01-4.15914E-02-8.32889E-01 3.43786E-03 3.90877E-03
 -1      7089-5.75249E-02 1.48617E-01-3.86207E-02-8.98958E-01 2.70058E-03-1.10545E-02
 -1      7090 3.62549E-01-1.24500E+00 3.77030E-01 3.65725E-01 5.88978E-04-1.48117E-03
 -1      7091 6.97954E-01-2.36447E+00 7.12850E-01 5.02865E-01 8.04055E-04-1.75995E-03
 -1      7092 4.30365E-01-1.89149E+00 7.57860E-01-2.53871E-02-3.31732E-01-8.23699E-02
 -1      7093 3.03283E-01-1.97364E+00 5.58898E-01 3.73858E-01-1.05500E+00 2.15886E-01
 -1      7094 3.12601E-01-1.34852E+00 5.68386E-01-5.22120E-01-2.89662E-01-9.32219E-02
 -1      7095 6.70967E-01-3.10636E+00 5.84191E-01-3.66515E-01 8.95307E-02 2.75368E-02
 -1      7096 3.34745E-01-2.23720E+00 9.29234E-01-6.94622E-01 3.83495E-01 1.85050E-02
 -1      7097 5.74571E-01-1.95472E+00 5.89995E-01 4.57906E-01-2.73428E-04 3.09565E-03
 -1      7098 6.31550E-01-1.52633E+00 4.07637E-01 4.39063E-01 8.73965E-02-4.88694E-02
 -1      7099 5.55820E-01-1.57563E+00 5.05398E-01 2.62876E-01 5.03305E-02-4.39196E-02
 -1      7100 9.07610E-01-1.76834E+00 3.55656E-01-4.69521E-03 3.50334E-02-4.69172E-03
 -1      7101 1.01034E+00-1.54490E+00 2.41558E-01 1.78041E-01 1.92542E-02-1.58834E-03
 -1      7102 9.17552E-01-1.70100E+00 3.08771E-01 7.63065E-02-2.68660E-02-3.39940E-03
 -1      7103 5.57956E-01-1.26884E+00 3.26501E-01 4.57295E-01 3.83879E-02 9.34565E-03
 -1      7104 4.62363E-01-1.58170E+00 4.78433E-01 4.11906E-01 4.33079E-05-2.25829E-03
 -1      7105 3.45056E-01-1.17595E+00 3.57666E-01 3.56170E-01 9.43743E-04-1.35997E-03
 -1      7106 3.03005E-01-1.06909E+00 3.26407E-01 5.61827E-01 1.56147E-03 2.49617E-03
 -1      7107 5.09254E-01-1.73561E+00 5.25603E-01 5.26400E-01-7.63858E-05 7.43248E-04
 -1      7108 2.54961E-01-9.01336E-01 2.76608E-01 5.55997E-01 1.80230E-03-6.27730E-04
 -1      7109 6.72021E-01-2.26493E+00 6.84303E-01 4.92742E-01 3.68293E-04 1.64155E-03
 -1      7110 2.07682E+00-6.91884E+00 2.07502E+00 4.27681E-01 2.17960E-04 2.37649E-04
 -1      7111 1.82739E+00-6.09573E+00 1.82643E+00 4.93538E-01 6.97225E-04 2.38586E-03
 -1      7112 1.64305E+00-5.46672E+00 1.63887E+00 5.57446E-01 1.86713E-03-5.58694E-04
 -1      7113 3.81210E-01-1.31755E+00 4.01438E-01 4.90302E-01-9.73888E-04-5.99675E-04
 -1      7114 2.46294E-01-8.78501E-01 2.69708E-01 5.09008E-01-1.52395E-03-1.69684E-03
 -1      7115 4.14639E-01-1.42289E+00 4.32307E-01 4.76979E-01-1.36726E-03-6.83119E-04
 -1      7116 5.50874E-01-1.86418E+00 5.64211E-01 4.47299E-01-1.36480E-03 7.32648E-04
 -1      7117 2.07116E-01-7.39739E-01 2.27193E-01 5.03085E-01-2.59177E-03-4.69473E-04
 -1      7118 1.94703E-01-7.05999E-01 2.18200E-01 4.56473E-01 4.66822E-04 1.44680E-03
 -1      7119 3.31220E-01-1.14220E+00 3.47972E-01 4.27815E-01-3.58316E-04 5.89322E-04
 -1      7120 4.42174E-01-1.50053E+00 4.55517E-01 4.00832E-01-1.21353E-03 2.03787E-03
 -1      7121-1.20991E+00 1.56281E+00-1.69438E-01 3.60813E-01-5.62174E-02 8.90884E-03
 -1      7122-4.12264E-01 1.12286E+00-2.56465E-01 3.16613E-01-4.14532E-02-9.24936E-02
 -1      7123-9.36915E-01 2.25159E+00-3.07145E-01 6.27545E-01-5.65281E-02 7.70817E-02
 -1      7124-8.04802E-01 1.70465E+00-2.72604E-01 3.49501E-01-7.23530E-02 2.20252E-02
 -1      7125-6.81620E-01 1.19054E+00-3.02522E-01 3.49881E-03-2.32543E-02-1.03513E-01
 -1      7126-4.48305E-01 1.09493E+00-2.55751E-01 2.87737E-01 7.20886E-03-9.63336E-03
 -1      7127 2.25901E+00-7.52746E+00 2.25879E+00 3.51391E-01 1.94856E-04 2.11851E-03
 -1      7128 2.51213E+00-8.37089E+00 2.51095E+00 2.77722E-01-1.58289E-03 1.78119E-04
 -1      7129 1.62786E-01-5.94154E-01 1.83870E-01 4.50581E-01-8.85787E-05 3.99133E-04
 -1      7130 9.56915E-01-1.59376E+00 2.73961E-01 2.33780E-01-4.83591E-03-5.29000E-04
 -1      7131 8.55514E-01-1.51790E+00 2.80680E-01 2.32151E-01-3.43595E-03 4.99106E-03
 -1      7132 9.09415E-01-1.58380E+00 2.92163E-01 1.53047E-01-7.24011E-03-2.34679E-03
 -1      7133 7.96704E-01-1.46628E+00 2.85959E-01 1.58434E-01-5.24821E-03 5.79478E-04
 -1      7134 9.16657E-01-1.57612E+00 2.83843E-01 1.13322E-01-2.88465E-03 3.43928E-04
 -1      7135 1.47655E-01-1.89603E+00 6.45572E-01 1.02947E+00-8.62248E-01 2.74860E-01
 -1      7136 1.10473E-01-1.86286E+00 6.61854E-01 1.01860E+00 8.70347E-01-2.81761E-01
 -1      7137-3.62892E-02 1.54495E-02 9.13397E-03 1.67061E-03-2.21552E-04 1.35898E-04
 -1      7138-2.28111E-02 8.59149E-03 5.99888E-03-2.67577E-03 5.42011E-05 8.08996E-05
 -1      7139 7.24753E-01-2.46025E+00 7.42369E-01 6.18424E-01 1.10890E-03 1.70539E-03
 -1      7140 3.36002E-01-1.17457E+00 3.59320E-01 6.61307E-01-1.26524E-03 1.18913E-03
 -1      7141 6.78467E-01-2.30710E+00 6.97431E-01 6.34366E-01-2.16334E-05 1.34963E-03
 -1      7142-8.54609E-04 6.92649E-04 3.23094E-04-4.12203E-04 3.43898E-05-7.39418E-05
 -1      7143-8.52344E-03 3.53025E-03 2.17947E-03 2.06446E-03-7.35931E-05-1.36452E-05
 -1      7144-3.85910E-03 1.40659E-03 9.70563E-04 1.74331E-04 1.24362E-05-5.70548E-05
 -1      7145 7.27556E-01-1.88724E+00 5.54859E-01 4.90784E-01 5.24804E-02 5.38797E-03
 -1      7146 7.98595E-01-1.59534E+00 3.48343E-01 2.14602E-01 1.71043E-02 4.74663E-03
 -1      7147 7.23756E-01-1.88175E+00 5.56940E-01 4.86352E-01-4.80022E-02-6.05153E-03
 -1      7148 8.10191E-01-1.59700E+00 3.44143E-01 2.13803E-01-1.46987E-02-6.36469E-03
 -1      7149 3.12722E-01-1.08106E+00 3.31064E-01 4.03823E-01 1.36861E-04 4.12044E-04
 -1      7150-2.69626E-01 5.51099E-01-1.45711E-01 5.02434E-01 3.19117E-02 7.06752E-02
 -1      7151-3.97135E-01 8.27122E-01-1.89767E-01 3.21825E-01 6.34877E-03 2.72204E-02
 -1      7152-2.12929E-01 4.93216E-01-1.54716E-01 3.22997E-01 3.25074E-02 3.89998E-02
 -1      7153-4.88155E-01 1.11703E+00-2.79581E-01 5.20369E-01 6.07687E-02 5.46461E-02
 -1      7154-5.80615E-01 1.20502E+00-2.77330E-01 3.08831E-01-8.23292E-03-9.75563E-03
 -1      7155-6.73352E-01 1.33337E+00-2.80380E-01 4.55750E-01 1.91862E-02 3.55273E-02
 -1      7156 4.77617E-01-2.47152E-01-1.02214E-01-2.92829E-01-4.58914E-03-7.10893E-03
 -1      7157 5.44750E-01-1.25944E-01-1.63359E-01-3.65997E-01-1.27622E-02 4.03122E-03
 -1      7158 6.59007E-01-8.49152E-02-2.29827E-01-2.93347E-01-4.98496E-02-1.28400E-02
 -1      7159 6.24232E-01-3.96409E-01-8.85697E-02-1.18612E-01-1.11261E-02-6.69789E-03
 -1      7160 6.60319E-01-2.67356E-01-1.54581E-01-1.84596E-01-1.08785E-02 6.59752E-03
 -1      7161 4.76663E-01-3.78396E-01-3.29686E-02-2.06618E-01 1.72138E-03 3.55808E-03
 -1      7162-5.05721E-01 1.21269E+00-3.03068E-01 4.04104E-01-2.72507E-03 2.51812E-03
 -1      7163-5.03480E-01 1.17086E+00-2.74117E-01 3.78198E-01-1.79996E-02-9.51732E-03
 -1      7164-5.62456E-01 1.20067E+00-2.70149E-01 3.24084E-01-1.71125E-02 2.36919E-03
 -1      7165-5.77761E-01 1.27914E+00-3.00726E-01 3.12966E-01-1.21217E-02-1.99929E-02
 -1      7166-5.79335E-01 1.25279E+00-3.03650E-01 4.26701E-01-2.76239E-03-2.19932E-02
 -1      7167 1.24380E+00-4.12322E+00 1.23534E+00 6.42498E-01 2.51728E-03-1.41471E-03
 -1      7168 1.22672E+00-4.08444E+00 1.22433E+00 6.41450E-01 2.54715E-03-8.78282E-04
 -1      7169-1.38277E+00 4.48733E+00-1.33093E+00 5.38786E-01-3.32796E-04 1.84069E-03
 -1      7170-1.43379E+00 4.65190E+00-1.37770E+00 5.11836E-01-8.90844E-04-1.24088E-03
 -1      7171-1.02149E+00 3.29189E+00-9.73027E-01 6.22613E-01 8.95316E-05-3.30289E-04
 -1      7172-9.70162E-01 3.12750E+00-9.23438E-01 6.43461E-01-4.37918E-04 2.26509E-03
 -1      7173-1.25909E-02 5.07898E-03 3.20113E-03 4.75592E-03-1.24470E-05-2.29399E-05
 -1      7174-5.40686E-03 2.37797E-03 1.38958E-03 1.22375E-03-1.96626E-05 1.77845E-05
 -1      7175 1.26254E-01-1.99501E-01 3.31562E-02-7.60050E-01-5.36168E-03 2.06075E-03
 -1      7176-4.51721E-02 1.77651E-02 1.14686E-02 8.35985E-03-2.08906E-04 2.04450E-04
 -1      7177 6.69914E-01-1.72002E+00 4.88111E-01 6.11217E-01 2.80909E-02 1.03520E-02
 -1      7178 5.07680E-01-1.87063E+00 6.19047E-01 8.06018E-01 1.01944E-01-4.83261E-02
 -1      7179 6.76813E-01-1.43836E+00 3.30929E-01 4.86419E-01 2.09195E-03 3.01218E-03
 -1      7180 5.22105E-01-1.44416E+00 4.02566E-01 6.89656E-01 5.49935E-02-3.30923E-02
 -1      7181 6.63243E-01-1.64112E+00 4.82220E-01 5.73090E-01-9.26622E-05 7.20988E-03
 -1      7182 3.26613E-01-1.13696E+00 3.47321E-01 5.88368E-01 2.19855E-03-1.14235E-03
 -1      7183 5.93872E-01-2.01213E+00 6.08721E-01 5.50382E-01 5.42581E-04-1.01776E-03
 -1      7184-4.18998E-01 8.46586E-01-1.85000E-01 3.34753E-01-2.58581E-02-3.20577E-02
 -1      7185-6.54191E-01 1.30193E+00-2.74155E-01 4.58727E-01-1.07419E-02-1.55325E-02
 -1      7186-7.37097E-01 1.45396E+00-2.75988E-01 5.61197E-01-3.53049E-02-1.80459E-02
 -1      7187-8.58245E-01 1.65033E+00-3.39055E-01 3.65793E-01-3.01874E-02-1.82936E-02
 -1      7188-7.20863E-01 1.35759E+00-2.81476E-01 4.21827E-01-1.21836E-02-8.69673E-03
 -1      7189 1.63470E-01-7.39414E-01 3.32067E-01-8.88101E-01-5.57575E-02-4.43320E-02
 -1      7190 3.49977E-01-1.10625E+00 4.17391E-01-6.77746E-01 1.11368E-02 4.63247E-03
 -1      7191-1.57376E-02-1.86686E-02 1.46686E-02 4.14153E-01-8.87289E-04 5.74873E-05
 -1      7192 1.10678E-02-1.01033E-01 3.95545E-02 4.20533E-01-5.58889E-04 6.22157E-04
 -1      7193 1.42522E+00-4.75154E+00 1.42523E+00 5.91015E-01 1.75674E-03 7.28369E-04
 -1      7194 3.97682E-01-1.36146E+00 4.14767E-01 4.53589E-01-5.38525E-04 1.20620E-03
 -1      7195 4.90223E-01-1.67047E+00 5.07233E-01 5.03185E-01 2.77369E-04-1.32780E-03
 -1      7196 6.10617E-02-2.76067E-01 9.02949E-02 6.01606E-01 1.35710E-03 1.11927E-03
 -1      7197 2.40422E-02-1.50564E-01 5.45195E-02 6.15342E-01 6.36740E-04 1.85788E-04
 -1      7198-1.58771E-01 4.56978E-01-1.27309E-01 7.02105E-01-4.71297E-04-3.87092E-04
 -1      7199 1.01548E-01-4.15577E-01 1.32420E-01 7.20699E-01 1.39970E-03 2.29513E-03
 -1      7200 2.86523E-01-1.01698E+00 3.12978E-01 7.07888E-01 8.76157E-04 8.07236E-04
 -1      7201-3.84563E-03-5.49233E-02 2.52661E-02 4.50911E-01-3.22678E-04-4.98668E-04
 -1      7202 1.99343E-02-1.30374E-01 4.59209E-02 4.38768E-01-3.92907E-04-2.10525E-03
 -1      7203 3.47829E-02-1.83924E-01 6.32485E-02 4.93722E-01 3.34809E-06-2.93788E-03
 -1      7204 1.12445E-02-1.05232E-01 4.04862E-02 5.07388E-01-5.14922E-06 1.32818E-03
 -1      7205 1.89150E+00-6.30045E+00 1.89133E+00 4.94249E-01 1.95020E-03-2.03372E-03
 -1      7206 4.91551E-02-2.27517E-01 7.51184E-02 5.49322E-01-1.77935E-05 2.41758E-03
 -1      7207 2.05753E-02-1.34253E-01 4.88009E-02 5.61669E-01 4.98359E-04 9.30936E-05
 -1      7208 5.13997E-01-1.75348E+00 5.30098E-01 5.17803E-01-5.54140E-04-6.14970E-04
 -1      7209-1.99609E-02-2.86603E-01 1.16931E-01-7.23038E-01-1.87073E-01-3.00853E-01
 -1      7210-9.53915E-02 1.43994E-01-2.44932E-02-9.20420E-01 1.00011E-02-1.32461E-01
 -1      7211 1.05208E-01-6.25528E-01 2.88021E-01-8.76644E-01-7.51770E-02-1.17709E-01
 -1      7212 6.36980E-01-2.16654E+00 6.54272E-01 6.62045E-01 1.30957E-04 3.16071E-03
 -1      7213 2.33199E+00-7.77478E+00 2.33110E+00 3.52109E-01 1.01382E-03-1.91668E-03
 -1      7214 4.19529E-01-1.43957E+00 4.36400E-01 4.67242E-01-1.80518E-04-1.47766E-03
 -1      7215 2.08809E-01-7.53744E-01 2.33996E-01 4.92861E-01-1.81138E-03-8.90334E-04
 -1      7216-1.41811E-01 6.49039E-01-2.34831E-01 6.36927E-01-4.62529E-02-5.60692E-02
 -1      7217-5.70694E-02 5.66675E-01-2.26758E-01 4.68759E-01-2.58169E-02-1.38692E-02
 -1      7218-5.09884E-01 1.19169E+00-2.88680E-01 6.23193E-01-5.83249E-02-3.09237E-02
 -1      7219 2.70474E-01-9.56807E-01 2.97708E-01-1.05793E-01 2.55483E-03-1.67152E-02
 -1      7220 2.68404E-01-1.11221E+00 3.57636E-01-1.19469E-01 4.70326E-03-1.79200E-02
 -1      7221-5.50805E-01 1.74686E+00-5.13917E-01 6.88707E-01 1.56819E-03-2.01735E-04
 -1      7222-8.14384E-01 2.59944E+00-7.68347E-01 6.49653E-01 7.71910E-04 2.40369E-03
 -1      7223-5.90124E-01 1.91642E+00-5.66913E-01 7.40572E-01 1.52959E-04-3.13956E-04
 -1      7224-9.59065E-01 3.10092E+00-9.20089E-01 6.90946E-01 4.20977E-04 3.19986E-03
 -1      7225-1.12280E+00 3.65847E+00-1.08612E+00 6.74505E-01 6.13601E-04 2.25575E-04
 -1      7226-2.98141E-01 4.87311E-01-9.57218E-02 3.89032E-01 1.15184E-02-7.36055E-02
 -1      7227-2.25302E-01 4.28899E-01-1.08343E-01 1.61554E-01 5.66958E-03-1.64690E-02
 -1      7228 2.37048E-01-6.24415E-01 1.65398E-01 1.14181E-01 5.76024E-04 2.19526E-04
 -1      7229 3.08754E-01-7.58062E-01 1.93176E-01 7.47559E-02 1.95220E-03 1.45104E-03
 -1      7230 2.51112E-01-6.68953E-01 1.80356E-01 2.00766E-02 3.35550E-04 2.22263E-04
 -1      7231 1.95511E-01-5.49330E-01 1.51573E-01 4.84856E-02 2.03614E-03-6.73058E-04
 -1      7232-8.97660E-02 1.20882E-01-1.90404E-02-9.34764E-01-8.92880E-03 1.31042E-01
 -1      7233-1.41450E-02-2.90374E-01 1.12785E-01-7.00149E-01 1.94407E-01 2.96782E-01
 -1      7234 1.06409E-01-5.87383E-01 2.58107E-01-8.52898E-01 8.06816E-02 1.31428E-01
 -1      7235 3.33604E-01-1.15283E+00 3.51889E-01 4.18686E-01 8.57582E-05-5.99112E-04
 -1      7236-9.64005E-01 3.16999E+00-9.41295E-01 7.11810E-01-1.05786E-03-5.32222E-04
 -1      7237-1.58949E+00 5.19087E+00-1.54417E+00 5.68280E-01-2.22185E-03-1.86885E-04
 -1      7238-8.72978E-01 4.05669E+00-1.37114E+00 6.05179E-01 5.23086E-03-3.42162E-03
 -1      7239-1.23484E+00 5.01095E+00-1.61530E+00 7.05368E-01 2.65751E-03 1.03362E-03
 -1      7240-1.18906E+00 5.52505E+00-1.86288E+00 6.53688E-01 1.18430E-03 4.69136E-03
 -1      7241-1.58987E+00 6.52476E+00-2.11277E+00 7.39298E-01-2.66370E-03 1.57529E-04
 -1      7242 9.51239E-01-1.64821E+00 3.05493E-01 5.65277E-02 1.55425E-02-4.96757E-03
 -1      7243 7.99020E-01-1.61350E+00 3.62507E-01-6.99969E-02 6.86144E-03 4.04596E-03
 -1      7244 9.26625E-01-1.56345E+00 2.80726E-01 1.12126E-01-2.84381E-03 4.72535E-03
 -1      7245 7.79855E-01-5.89588E-01-7.54556E-02-3.69864E-02-5.96653E-03-1.64495E-02
 -1      7246 7.20531E-01-6.95221E-01-9.72737E-03 3.66421E-02-2.05206E-03-1.60997E-02
 -1      7247 7.64881E-01-8.91889E-01 5.29170E-02 1.22913E-01 8.93875E-03-4.02513E-03
 -1      7248 3.75455E-01-1.31011E+00 3.99215E-01 6.67218E-01 1.30729E-03 1.68324E-03
 -1      7249 3.00313E-02-1.66400E-01 6.01280E-02 6.92941E-01-4.76138E-04 1.85528E-03
 -1      7250 8.65050E-01-2.91499E+00 8.80939E-01 6.05737E-01-2.42673E-04 3.00529E-03
 -1      7251 2.57944E-01-8.97186E-01 2.73853E-01 3.59581E-01-4.08710E-04-6.15430E-04
 -1      7252 3.22506E-01-2.01104E+00 5.67171E-01 3.48260E-01 1.08283E+00-2.11773E-01
 -1      7253 4.23570E-01-1.86648E+00 7.51653E-01-4.72039E-02 3.26313E-01 9.03912E-02
 -1      7254 2.83442E-01-1.23031E+00 5.29004E-01-5.07704E-01 2.81448E-01 1.11071E-01
 -1      7255 5.14659E-01-1.95163E+00 7.09810E-01-1.08321E-01-2.37927E-01-5.15248E-02
 -1      7256 3.99954E-01-1.59697E+00 5.60727E-01-5.33672E-01-2.10015E-01-5.51623E-02
 -1      7257 1.79038E-01-6.50618E-01 2.04128E-01 7.07610E-01 6.15794E-05-1.55897E-03
 -1      7258 6.68471E-01-2.28223E+00 6.92704E-01 6.46661E-01-6.26058E-04-3.75764E-04
 -1      7259 2.69130E-01-1.33067E+00 4.08265E-02-2.19442E-02-9.92374E-01-2.35882E-02
 -1      7260-1.45544E-01 3.95302E-01-1.06892E-01 4.04967E-01-1.60222E-03 3.25225E-04
 -1      7261-1.17487E-01 3.11836E-01-8.40725E-02 4.15869E-01-1.40778E-03-1.09904E-04
 -1      7262-3.67789E-01-2.00756E+00 9.56283E-01 1.75883E+00 4.11407E-01-1.99022E-01
 -1      7263-4.00006E-01-1.35904E+00 7.24990E-01 1.43548E+00 6.03314E-01-2.94492E-01
 -1      7264 8.25794E-02-1.87842E+00 8.78456E-01 1.19569E+00 2.37160E-01-8.66520E-02
 -1      7265 1.10007E-01-2.08027E+00 1.02511E+00 1.33957E+00-2.66382E-03 2.10671E-03
 -1      7266-4.01277E-01-1.36072E+00 7.27186E-01 1.43877E+00-6.00458E-01 2.90523E-01
 -1      7267-3.67874E-01-2.00708E+00 9.56290E-01 1.76095E+00-4.10730E-01 1.97255E-01
 -1      7268 8.77056E-02-1.88005E+00 8.75745E-01 1.19467E+00-2.41322E-01 8.85393E-02
 -1      7269 1.89968E-01-6.72524E-01 2.08045E-01 3.19430E-01 2.68637E-05 3.11247E-04
 -1      7270 8.64327E-02-3.45701E-01 1.11997E-01 3.35943E-01 4.82192E-04 3.61370E-04
 -1      7271 1.89385E-01-6.71835E-01 2.06718E-01 3.29547E-01 1.81207E-04-3.26102E-04
 -1      7272 8.77753E-02-3.44024E-01 1.08855E-01 3.44760E-01 1.41222E-03-5.26875E-04
 -1      7273 1.00391E+00-1.61919E+00 2.64920E-01 1.87734E-01 1.39165E-02-9.80110E-03
 -1      7274 9.12873E-01-1.57768E+00 2.87930E-01 1.19035E-01 3.31331E-03-1.73554E-03
 -1      7275-1.54320E+00 5.03149E+00-1.49500E+00 5.54581E-01-2.12253E-03 3.52524E-03
 -1      7276 3.71062E-03-8.69018E-02 3.44534E-02 6.24647E-01 2.32847E-04 3.13963E-03
 -1      7277 3.05110E-01-1.07401E+00 3.30116E-01 5.99173E-01 1.61795E-03 2.66252E-03
 -1      7278 1.47173E+00-4.91438E+00 1.47468E+00 5.92634E-01 2.68758E-03-1.43561E-03
 -1      7279-8.51452E-01 4.27818E+00-1.47071E+00 4.21198E-01 2.02266E-03-5.18116E-03
 -1      7280 8.86784E-01-1.25685E+00 1.63496E-01 2.12731E-01-2.21556E-03 1.97648E-02
 -1      7281 8.46170E-01-1.18083E+00 1.38514E-01 1.75735E-01 2.00216E-03 3.19202E-03
 -1      7282-9.19617E-01 4.13092E+00-9.18192E-01 9.20611E-01-3.01958E-02 3.42833E-02
 -1      7283-7.79486E-01 4.18556E+00-1.11946E+00 1.25140E+00-6.16745E-01-2.40304E-01
 -1      7284-7.45561E-01 3.94925E+00-9.71571E-01 1.19398E+00 6.13033E-01 1.47283E-01
 -1      7285-6.17934E-01 3.01551E+00-1.00095E+00-5.34578E-02 4.31400E-01 1.67693E-01
 -1      7286-5.87131E-01 3.04176E+00-1.04145E+00 1.67151E-01 2.73083E-02 1.31030E-02
 -1      7287-5.83877E-01 3.05774E+00-1.13619E+00-6.77558E-02-3.95705E-01-1.70745E-01
 -1      7288 6.74428E-01-2.22977E+00 6.63943E-01 6.38090E-01 1.36641E-03-1.01790E-03
 -1      7289 5.19154E-01-1.72528E+00 5.22269E-01 5.48750E-01-1.74054E-04-8.68643E-04
 -1      7290 4.10123E-02-1.98524E-01 6.75800E-02 4.31645E-01 8.22924E-05-6.53951E-04
 -1      7291 4.36835E-01-1.52901E+00 4.62682E-01 3.77286E-01-3.84419E-04-3.18601E-04
 -1      7292 3.32682E-01-7.27840E-01 1.81967E-01-6.25299E-01-4.67161E-03 5.66934E-03
 -1      7293 3.81383E-01-1.33098E+00 4.07234E-01 6.49080E-01-2.91342E-03-1.32490E-05
 -1      7294 7.72006E-01-2.60865E+00 7.87475E-01 5.98072E-01-1.35729E-03 2.19942E-03
 -1      7295 9.53336E-02-3.86539E-01 1.24516E-01 5.96332E-01 1.86885E-03 5.51855E-04
 -1      7296-3.88161E-02 2.20246E-02 7.18903E-03 2.60276E-02 2.35615E-05 2.00914E-04
 -1      7297-4.47529E-02 2.54729E-02 8.54251E-03 2.32251E-02 7.23713E-05 1.96981E-04
 -1      7298-2.76034E-01 8.15362E-01-2.31579E-01 3.94550E-01-7.73286E-04 6.21140E-05
 -1      7299 1.66065E-01-6.00400E-01 1.85589E-01 4.31457E-01 1.04266E-03-3.22093E-04
 -1      7300-6.51890E-03-5.00344E-02 2.47134E-02 4.59717E-01 5.73405E-04-1.12814E-03
 -1      7301 7.52966E-02-3.18496E-01 1.04013E-01 5.40879E-01-1.77800E-03 4.21539E-04
 -1      7302-1.41147E+00 6.50851E+00-2.17101E+00 7.69300E-01 1.83877E-03-1.44447E-02
 -1      7303-1.42857E+00 6.55179E+00-2.19909E+00 7.69451E-01-4.85785E-03 1.96105E-02
 -1      7304-1.05998E+00 5.18190E+00-1.78252E+00 4.98919E-01-6.63297E-03 8.42969E-03
 -1      7305-2.93967E-02 1.49020E-02 6.26695E-03 1.62707E-02-5.64322E-05-5.29033E-06
 -1      7306 5.67065E-02-2.55339E-01 8.49412E-02 4.86231E-01 7.41595E-04-8.24023E-05
 -1      7307-1.63350E-02-1.73867E-02 1.43326E-02 6.32354E-01 4.97405E-04 1.06705E-03
 -1      7308 3.01146E-01-7.57453E-01 1.93928E-01 7.68120E-02-2.40125E-03-3.30627E-03
 -1      7309 8.36319E-03-9.70310E-02 3.71851E-02 5.70176E-01-2.56523E-04-1.59194E-03
 -1      7310 2.69863E-01-9.47897E-01 2.90582E-01 5.35107E-01 1.50918E-03-1.74550E-03
 -1      7311 4.45263E-02-2.21220E-01 7.51927E-02 5.83138E-01 5.07994E-04 3.05896E-03
 -1      7312-2.41821E-03-6.59050E-02 2.92470E-02 5.77995E-01 1.03530E-03-7.09254E-04
 -1      7313 3.79577E-01-1.31816E+00 4.01587E-01 6.39006E-01-2.36747E-03 2.16651E-03
 -1      7314 6.92384E-01-1.10595E+00 1.77732E-01 2.05667E-01 3.56765E-02-4.99392E-02
 -1      7315 5.82237E-01-8.76202E-01 1.68487E-01 2.22530E-01 1.41730E-02-2.60570E-02
 -1      7316 2.17766E-01-7.74366E-01 2.39307E-01 4.82094E-01-2.32707E-03 1.15759E-03
 -1      7317 2.29960E-03-8.12399E-02 3.23307E-02 5.15156E-01-6.62732E-04-2.60296E-03
 -1      7318 1.39270E-01-4.28338E-01 1.24853E-01-1.00122E-01 4.00575E-03 1.69791E-03
 -1      7319 1.32621E-01-4.48484E-01 1.36493E-01-1.62693E-01 3.55747E-03 1.24370E-03
 -1      7320 2.08195E-01-5.40312E-01 1.43197E-01-1.00002E-01 1.30781E-03-4.97038E-04
 -1      7321 1.34816E-01-4.50876E-01 1.36069E-01-1.64817E-01-1.52955E-03 4.55658E-04
 -1      7322 1.39230E-01-4.29487E-01 1.25569E-01-1.01277E-01-1.76789E-03-9.56283E-04
 -1      7323-3.02916E-02 1.51204E-02 6.60793E-03 2.34026E-02-8.65825E-05 1.34245E-04
 -1      7324-4.69651E-01 1.74554E+00-4.52985E-01 7.83996E-01-1.45041E-02-3.28950E-02
 -1      7325-4.26480E-01 1.52172E+00-5.62007E-01 6.47617E-01-1.27064E-02 8.23261E-02
 -1      7326-2.44292E-02 8.78450E-03 7.04117E-03 1.29224E-01 1.66506E-04-1.29394E-04
 -1      7327-2.52922E-02 1.08487E-02 6.20773E-03 1.38410E-01 1.16037E-04-1.29381E-04
 -1      7328-4.96783E-03-4.08953E-02 2.01771E-02 1.27238E-01 2.00935E-04-2.03214E-04
 -1      7329-5.01141E-01 1.56947E+00-4.59381E-01 7.00646E-01 1.58363E-03 2.69642E-03
 -1      7330-7.54036E-03-4.64562E-02 2.31627E-02 6.87960E-01-6.99163E-04-5.14873E-04
 -1      7331-2.33539E-03 6.87489E-04 6.15561E-04-2.39990E-04-2.33439E-05-1.69549E-05
 -1      7332-9.37964E-05 1.54863E-04 2.00860E-04-6.10583E-04 3.12524E-05-3.69912E-05
 -1      7333 8.04063E-01-1.48199E+00 2.87313E-01 3.07131E-01 3.34009E-03-1.60233E-04
 -1      7334 6.72099E-01-1.35391E+00 2.95562E-01 3.61684E-01-5.98301E-03 5.43789E-03
 -1      7335 7.53615E-01-1.42318E+00 2.92551E-01 2.33126E-01-6.18944E-04 3.79335E-03
 -1      7336 5.13628E-01-1.19395E+00 2.89386E-01 4.54405E-01-2.54389E-03 1.64100E-03
 -1      7337 3.59669E-01-9.95519E-01 2.75256E-01 4.85017E-01-5.32408E-03-2.14577E-03
 -1      7338 4.26816E-01-1.00368E+00 2.47857E-01 3.45113E-01-3.67528E-04 2.67689E-03
 -1      7339 2.62307E-01-8.12624E-01 2.30476E-01 3.85808E-01-1.68477E-03-4.47395E-03
 -1      7340 5.04597E-01-1.12592E+00 2.72308E-01 3.81435E-01 7.16634E-04-1.63705E-04
 -1      7341-1.34771E+00 4.37418E+00-1.29529E+00 5.25431E-01-1.06964E-03 7.22867E-04
 -1      7342 5.81237E-01-1.97828E+00 5.98075E-01 6.00585E-01-3.32122E-04-3.13940E-03
 -1      7343 8.43185E-01-2.83532E+00 8.54420E-01 5.28425E-01 5.37728E-04-2.71110E-03
 -1      7344 1.09036E+00-3.65043E+00 1.09761E+00 4.70560E-01 3.14433E-04-2.05061E-03
 -1      7345 8.28785E-01-2.79652E+00 8.41074E-01 5.44539E-01-1.40086E-03-2.80970E-03
 -1      7346-5.76698E-03-5.25611E-02 2.48432E-02 5.23803E-01-6.22591E-04-1.98539E-03
 -1      7347 3.29964E-02-1.80290E-01 6.39638E-02 5.30197E-01 5.79156E-04-1.89925E-03
 -1      7348 4.66503E-01-1.60106E+00 4.85537E-01 5.40600E-01 1.54162E-03 2.80905E-04
 -1      7349 8.36898E-01-2.81239E+00 8.46684E-01 4.59887E-01 1.23753E-03-1.87281E-04
 -1      7350 2.61031E-01-6.21616E-01 1.52791E-01-2.43904E-01 2.05288E-03-1.73152E-04
 -1      7351 3.35630E-01-7.04699E-01 1.52687E-01-2.00986E-01-1.48528E-03 2.34573E-03
 -1      7352 3.40712E-01-7.24118E-01 1.60048E-01-1.71452E-01 4.10826E-03-7.99801E-04
 -1      7353 5.31425E-01-1.44618E+00 3.93658E-01 6.79373E-01-5.90398E-02 2.56363E-02
 -1      7354 4.12256E-01-1.17928E+00 3.25641E-01 6.10071E-01-4.71663E-03 1.40734E-02
 -1      7355 6.77997E-01-1.44861E+00 3.38956E-01 4.98856E-01-1.53120E-03-5.15113E-03
 -1      7356 4.09739E-01-1.17761E+00 3.24844E-01 6.09553E-01 4.31610E-03-1.29929E-02
 -1      7357 4.82028E-01-1.50349E+00 4.35938E-01 6.91751E-01 2.27491E-03 2.35455E-03
 -1      7358 1.01812E+00-3.41984E+00 1.02808E+00 6.56713E-01 6.32198E-04 4.20709E-03
 -1      7359 6.87919E-01-2.31781E+00 6.98485E-01 4.17636E-01-7.99627E-04 1.45490E-03
 -1      7360-7.14398E-01 1.43477E+00-3.06774E-01 3.76315E-01-2.78186E-03-2.05620E-03
 -1      7361-4.95499E-01 1.06646E+00-2.42000E-01 2.31693E-01-4.70573E-03-1.11213E-02
 -1      7362-6.25850E-01 1.43104E+00-3.62116E-01 2.36155E-01 3.69435E-03-4.48053E-03
 -1      7363-4.86769E-01 1.21075E+00-3.27192E-01 8.74893E-02 1.02615E-03-2.61266E-03
 -1      7364-6.72167E-01 1.50536E+00-3.79698E-01 2.79466E-01 7.81162E-04 6.19698E-04
 -1      7365-1.10579E-01 2.31021E-01 8.18689E-03-6.99040E-01 2.10348E-01-3.33711E-01
 -1      7366-1.00780E-01 2.62159E-01-1.26094E-02-7.44069E-01-2.07289E-01 3.24758E-01
 -1      7367 2.36941E-01-8.34041E-01 2.55568E-01 3.90159E-01 1.08934E-03-5.64695E-04
 -1      7368 4.35335E-01-1.46969E+00 4.44029E-01 3.32062E-01 6.76299E-04-8.87199E-04
 -1      7369-7.90133E-03-4.16986E-02 2.22809E-02 6.80064E-01 4.99358E-05 2.27204E-03
 -1      7370 3.05714E-01-1.06301E+00 3.24826E-01 4.40222E-01 9.38976E-04 1.33662E-04
 -1      7371 5.54055E-01-1.87122E+00 5.64571E-01 3.75208E-01 4.08185E-04 2.02277E-04
 -1      7372 2.93186E-02 8.23250E-03-1.28233E-02-8.28569E-01 8.29375E-03 3.58553E-03
 -1      7373-2.65266E-02-6.37085E-03 2.21971E-02-9.08510E-01 9.49516E-03 6.47395E-03
 -1      7374 2.28959E-01-5.48129E-01 1.60859E-01-6.94347E-01 1.33702E-02 2.80715E-03
 -1      7375-7.95904E-03-1.50292E-02 9.89286E-03 5.20589E-02-8.57460E-06-6.77752E-05
 -1      7376-1.62074E-02-3.73011E-03 8.51316E-03 5.78537E-02-1.75440E-04-1.38082E-04
 -1      7377-5.39365E-03-2.16495E-02 1.16541E-02 5.88136E-02 5.26865E-05-2.14993E-04
 -1      7378-1.83999E+00 6.00141E+00-1.78352E+00 3.99055E-01-4.34604E-04 1.46901E-04
 -1      7379-1.78683E-02-1.24126E-02 1.31731E-02 3.59872E-01 4.37550E-04-4.38848E-04
 -1      7380-2.12857E-01 1.37076E+00-4.50807E-01 1.08507E+00 1.24246E-01 7.36401E-02
 -1      7381-2.05691E-01 1.68217E+00-6.29972E-01 1.24639E+00-1.26778E-02 2.85061E-02
 -1      7382-1.38865E-02-2.38535E-02 1.68932E-02 4.05492E-01-1.01818E-04 1.28027E-03
 -1      7383 1.23280E-01-4.62893E-01 1.44626E-01 3.79687E-01-1.40949E-03 7.66754E-04
 -1      7384 2.29904E-02-1.44376E-01 5.32937E-02 4.75767E-01 3.81523E-04 1.91917E-03
 -1      7385-9.40305E-03-4.29418E-02 2.24763E-02 4.69130E-01-4.14371E-04-2.26004E-04
 -1      7386 4.64222E-01-1.27223E+00 3.45401E-01-1.83640E-01-2.16676E-03 5.96152E-05
 -1      7387 3.48234E-01-9.88309E-01 2.74907E-01-1.21421E-01 6.11651E-03 1.04861E-03
 -1      7388 5.62099E-01-1.37367E+00 3.54250E-01-1.79708E-01 5.52463E-03 8.80807E-03
 -1      7389 6.50919E-01-1.35039E+00 3.05187E-01-7.71448E-02 6.61665E-03 6.34130E-03
 -1      7390 5.48561E-01-1.25767E+00 3.04179E-01-8.23326E-02 9.90034E-04 6.58509E-03
 -1      7391-4.92791E-01 1.22084E+00-3.10536E-01 4.73829E-01-7.79502E-03-3.31320E-04
 -1      7392-5.52510E-01 1.27660E+00-3.08581E-01 3.96657E-01-1.51847E-02-2.59396E-02
 -1      7393 4.06008E-01-1.37106E+00 4.12858E-01 3.00936E-01 1.83006E-04-9.75062E-04
 -1      7394 4.03055E-01-1.37209E+00 4.15646E-01 3.14235E-01 7.18889E-04 1.79796E-04
 -1      7395 6.27971E-01-2.12816E+00 6.42807E-01 5.55342E-01 1.46631E-03 1.08470E-03
 -1      7396 2.88978E-01-1.01661E+00 3.10915E-01 6.12459E-01 3.33126E-03 1.27695E-03
 -1      7397-4.94738E-01 1.06996E+00-2.49107E-01 2.25350E-01 6.66182E-03 9.62713E-03
 -1      7398-7.07622E-01 1.43428E+00-3.15147E-01 3.71873E-01 1.36618E-02 1.24779E-03
 -1      7399-6.26271E-01 1.43422E+00-3.62023E-01 2.30681E-01 8.88551E-04 3.57895E-03
 -1      7400 3.35112E-01-1.15480E+00 3.51561E-01 4.09688E-01 5.90801E-05 1.86601E-04
 -1      7401 2.82152E+00-9.40335E+00 2.82105E+00 1.41881E-01-2.39397E-03-5.13263E-04
 -1      7402 2.56375E+00-8.54812E+00 2.56598E+00 2.25928E-01-6.30653E-04 5.02119E-04
 -1      7403 2.82166E+00-9.40355E+00 2.82085E+00 1.39004E-01 2.86943E-03 4.88198E-04
 -1      7404 2.58689E-01-9.23407E-01 2.85825E-01 5.46771E-01 2.69744E-03-9.76684E-04
 -1      7405 5.21556E-01-1.77288E+00 5.36478E-01 5.07258E-01 2.33749E-04-2.05071E-03
 -1      7406 1.62680E-01-6.04064E-01 1.90926E-01 4.40241E-01 4.72542E-04-1.09333E-03
 -1      7407 3.96443E-01-4.43391E-03-1.72527E-01-4.74883E-01 2.26880E-02-3.85062E-02
 -1      7408 4.00908E-01-8.64353E-02-1.34107E-01-4.23236E-01 3.54276E-03-1.65254E-02
 -1      7409 4.67347E-01-1.37557E-01-1.41590E-01-4.27756E-01 1.25471E-02-2.90514E-03
 -1      7410 2.49075E-01-8.95933E-02-6.99812E-02-5.19626E-01 1.09835E-02-2.06436E-02
 -1      7411 8.37894E-01-5.42079E+00 1.66114E+00 2.28346E+00 6.54454E-01-8.11012E-02
 -1      7412 5.99546E-01-4.87205E+00 1.63318E+00 2.92607E+00 4.80398E-01-6.91484E-02
 -1      7413 6.17435E-01-4.80944E+00 1.62801E+00 2.90972E+00-5.14816E-01 9.54699E-02
 -1      7414 1.12611E-01-4.27579E-01 1.35453E-01 3.63597E-01 3.55797E-04-1.16937E-03
 -1      7415 1.02732E-01-3.99363E-01 1.27698E-01 3.74265E-01 6.14179E-04 3.60891E-04
 -1      7416 2.19584E-01-7.71171E-01 2.35932E-01 3.51182E-01-4.40940E-04-5.48384E-04
 -1      7417-9.92795E-03-3.77073E-02 2.05868E-02 6.70426E-01-3.01211E-04 1.83149E-03
 -1      7418-4.21573E-03-3.98180E-02 1.85561E-02 1.19099E-01-3.27552E-05-1.37507E-04
 -1      7419 1.53838E-02-8.89665E-02 3.15056E-02 1.15730E-01 4.34100E-05-8.63403E-06
 -1      7420-3.78481E-02 2.72522E-01-1.03969E-01-6.75000E-01-4.67550E-03-8.79220E-03
 -1      7421 1.45839E-02 1.82153E-01-7.96584E-02-7.08385E-01 4.27591E-03-3.36428E-03
 -1      7422-9.95231E-02 3.81182E-01-1.25767E-01-4.20397E-01-1.16516E-02 1.11829E-03
 -1      7423-7.76029E-01 1.18667E+00-1.61433E-01 7.59768E-02 3.78663E-03-1.31420E-02
 -1      7424-6.73130E-01 1.18298E+00-1.67434E-01 2.16214E-01-3.77067E-03-2.96832E-03
 -1      7425-5.98327E-01 1.09035E+00-2.22309E-01 2.84946E-01 1.66639E-04-4.15263E-03
 -1      7426-5.53824E-01 1.04436E+00-2.10370E-01 1.72726E-01 2.13538E-03-9.04184E-03
 -1      7427-5.84483E-01 1.04219E+00-2.02002E-01 2.04075E-01 2.82410E-03-1.97208E-03
 -1      7428-7.16496E-01 1.11636E+00-1.60219E-01-1.90641E-02-4.62960E-03 1.69316E-04
 -1      7429-6.53720E-01 1.40468E+00-3.22635E-01 4.21438E-01-5.84402E-03 3.90345E-03
 -1      7430-4.56831E-01 1.23345E+00-3.36187E-01 5.83268E-01-3.03811E-04 5.35491E-03
 -1      7431-5.35886E-01 1.33766E+00-3.54107E-01 5.34315E-01-6.16255E-03-4.65895E-03
 -1      7432-3.63580E-01 1.13467E+00-3.32983E-01 6.06771E-01 3.45653E-03-3.13910E-03
 -1      7433 4.24083E-01-1.44617E+00 4.38532E-01 4.58017E-01-6.51521E-04 6.00484E-04
 -1      7434-4.55132E-02 7.19870E-03 1.57833E-02 2.35243E-03 6.79067E-05 8.60695E-04
 -1      7435-4.50752E-02 1.16500E-02 1.43869E-02 7.69091E-03 1.77585E-04-3.19434E-04
 -1      7436-4.53289E-02 6.88516E-03 1.57921E-02 2.27393E-03-1.83574E-04-6.87957E-04
 -1      7437-1.80703E-02-1.12891E-02 1.35340E-02 3.50485E-01 2.95362E-05 1.05234E-03
 -1      7438 6.20829E-01-1.58673E+00 4.06946E-01-2.89942E-01 1.35140E-02 1.55858E-02
 -1      7439 3.66475E-01-1.11722E+00 3.26921E-01-2.01948E-01 1.66831E-02 1.85339E-02
 -1      7440 5.92380E-01-1.57418E+00 4.31909E-01-2.91692E-01-2.21400E-02-3.51796E-02
 -1      7441 5.68260E-01-1.36860E+00 3.57982E-01-1.75830E-01-1.14074E-02-1.22099E-02
 -1      7442 3.73194E-01-1.12292E+00 3.35131E-01-1.86929E-01-6.20059E-03-2.04661E-02
 -1      7443 3.48861E-01-9.89364E-01 2.71755E-01-1.22164E-01-8.36281E-03-4.22711E-03
 -1      7444 1.00877E-01-3.93944E-01 1.25477E-01 3.53162E-01-4.39282E-04-9.95357E-04
 -1      7445-5.42920E-03-5.24857E-02 2.60940E-02 3.68187E-01 1.32430E-04-8.05089E-04
 -1      7446-1.08664E-01 2.80714E-01-7.28939E-02 4.79117E-01-1.59147E-03-4.88633E-04
 -1      7447-2.70645E-01 8.17566E-01-2.33834E-01 4.74588E-01-3.23727E-04-4.38911E-05
 -1      7448-1.29288E-01 3.59779E-01-9.75273E-02 4.87620E-01-1.28714E-03 1.41639E-03
 -1      7449-3.29869E-01 1.00318E+00-2.89016E-01 5.27586E-01 4.16143E-05 6.26007E-04
 -1      7450-1.54815E-01 4.40058E-01-1.22056E-01 5.40834E-01-1.03599E-03 1.39456E-03
 -1      7451-1.28321E-01 3.41298E-01-9.04977E-02 5.34626E-01-1.82356E-03-7.89153E-05
 -1      7452-6.56596E-01 1.41481E+00-3.27526E-01 4.19601E-01 1.09389E-02-6.12922E-03
 -1      7453-5.05194E-01 1.21153E+00-3.03467E-01 4.64548E-01 1.24644E-02 1.47216E-03
 -1      7454-5.88055E-01 1.31134E+00-3.04621E-01 4.01293E-01 2.05213E-02 1.83257E-02
 -1      7455-5.81046E-01 1.44028E+00-3.31537E-01 3.93224E-01-1.26166E-02-5.33739E-03
 -1      7456-2.05760E-02-2.42467E-04 9.18532E-03 2.49856E-01-2.36096E-04 3.01317E-05
 -1      7457-1.97270E-02-4.19693E-03 9.66730E-03 2.45372E-01 4.85174E-04 9.56023E-04
 -1      7458-2.00362E-02-3.88883E-03 1.02469E-02 2.45949E-01-1.50592E-04-6.67500E-04
 -1      7459 5.62195E-02-2.37377E-01 7.73407E-02 2.22918E-01 8.87841E-06-2.27861E-04
 -1      7460 5.62776E-02-2.34514E-01 7.61852E-02 2.15799E-01-9.04728E-05 3.39936E-04
 -1      7461 5.70989E-02-2.36087E-01 7.64558E-02 2.21957E-01 1.00313E-04 5.54432E-04
 -1      7462 1.09433E+00-3.67695E+00 1.10782E+00 5.31174E-01-3.24390E-04-3.26991E-04
 -1      7463 6.49481E-01-1.33623E+00 2.97025E-01-7.04901E-02-1.07724E-02-4.70003E-03
 -1      7464 7.96089E-01-1.61272E+00 3.59444E-01-6.83485E-02 5.51451E-04-9.02347E-03
 -1      7465 5.37368E-01-1.24894E+00 3.06038E-01-8.44848E-02 3.11514E-04-1.06898E-02
 -1      7466-2.33291E-02 6.37694E-03 7.29677E-03 1.20859E-01 1.59214E-04-2.60221E-05
 -1      7467 3.70895E-01-8.09171E-01 1.87291E-01-2.70717E-02 7.25808E-03 4.78736E-03
 -1      7468 3.67923E-01-1.00790E+00 2.88443E-01-1.34004E-03 8.64171E-03-5.30668E-03
 -1      7469-3.87609E-01 1.06398E+00-2.92928E-01 4.99170E-01-7.84985E-03-1.63777E-03
 -1      7470-2.82534E-01 9.36424E-01-2.87616E-01 5.29038E-01-8.28012E-03-5.85295E-03
 -1      7471-3.87114E-01 1.11540E+00-3.14874E-01 5.62930E-01-2.28231E-03 3.20275E-05
 -1      7472-7.76185E-01 1.51088E+00-3.22900E-01 3.55805E-01 4.75852E-03-1.45981E-02
 -1      7473-8.88806E-01 1.64066E+00-3.41179E-01 4.26078E-01 5.33256E-02-4.85952E-03
 -1      7474 7.94578E-01-2.67647E+00 8.07208E-01 4.39095E-01 4.13227E-04 2.67605E-04
 -1      7475 1.28531E+00-4.30915E+00 1.29578E+00 4.89051E-01 1.54089E-03 1.32276E-03
 -1      7476 6.49818E-01-2.19312E+00 6.61007E-01 3.96422E-01-1.01290E-03-5.19029E-04
 -1      7477-1.82326E-02-1.06826E-02 1.23889E-02 6.50333E-01 1.49309E-04-7.23406E-04
 -1      7478 2.86782E-01-1.01755E+00 3.13378E-01 6.21566E-01 2.05984E-03 2.68823E-04
 -1      7479-1.70419E-02-1.39909E-02 1.33010E-02 6.40082E-01 4.74828E-05 1.84100E-04
 -1      7480 2.81803E-01-9.72249E-01 2.94270E-01 3.18567E-01-1.31746E-03-1.76313E-03
 -1      7481 1.89644E-01-6.69343E-01 2.05468E-01 3.10368E-01-1.28665E-06 3.43885E-04
 -1      7482 5.18821E-01-1.75784E+00 5.31273E-01 3.54331E-01-5.57936E-04-5.66376E-04
 -1      7483-9.18387E-01 2.95580E+00-8.72201E-01 6.67651E-01-7.59359E-04 3.11687E-03
 -1      7484 1.70115E-01-4.85621E-01 1.34316E-01 9.68812E-02-7.97205E-04-5.84493E-04
 -1      7485 1.21985E-01-3.81176E-01 1.11051E-01 8.58310E-02 5.22044E-04 5.47093E-04
 -1      7486 1.42339E-01-4.19890E-01 1.19712E-01 3.99673E-02 1.19385E-03-7.81909E-04
 -1      7487 1.95260E-01-5.34391E-01 1.44718E-01-2.19521E-01 2.73680E-03-7.96138E-04
 -1      7488 7.12495E-01-1.31312E+00 2.63736E-01-4.32094E-02-6.30600E-04-6.15468E-04
 -1      7489 5.35168E-01-1.10869E+00 2.57942E-01-3.34523E-01 9.54061E-03-1.18934E-03
 -1      7490 7.14317E-01-1.31257E+00 2.63796E-01-4.16890E-02 1.33861E-03 6.27754E-04
 -1      7491 5.35036E-01-1.11081E+00 2.60324E-01-3.33133E-01-7.92712E-03 7.00109E-04
 -1      7492 3.47611E-01-7.04371E-01 1.54132E-01-2.08448E-01 1.51782E-03 2.50203E-03
 -1      7493 2.66577E-01-6.22812E-01 1.50597E-01-2.49675E-01 4.75533E-04 1.15611E-03
 -1      7494-4.12967E-03-4.22008E-02 1.94675E-02 1.35658E-01 7.32974E-05 1.60418E-04
 -1      7495 1.55641E-02-9.25613E-02 3.32093E-02 1.23707E-01-7.82022E-05-1.43480E-04
 -1      7496 1.58429E-02-9.42910E-02 3.37601E-02 1.32098E-01-2.13828E-04 3.00223E-04
 -1      7497 6.11031E-01-2.08032E+00 6.28263E-01 5.70447E-01 1.30730E-04 1.42465E-03
 -1      7498-3.52195E-01 9.59991E-01-2.83283E-01-4.06712E-01-7.75059E-03 2.22208E-03
 -1      7499-3.70475E-01 1.01551E+00-3.03973E-01-6.02683E-01-2.19450E-02-1.35093E-03
 -1      7500-5.18472E-01 1.43547E+00-4.54026E-01-2.09812E-01 4.91623E-03 3.96919E-03
 -1      7501-4.73158E-01 1.24150E+00-3.47504E-01-2.56455E-01-1.13776E-02-1.54610E-03
 -1      7502-4.68310E-01 1.16576E+00-3.28293E-01-2.74457E-02 1.77994E-03 1.63264E-03
 -1      7503-4.74289E-02 2.33581E-02 1.04304E-02 1.54101E-02-1.26497E-04 1.29702E-04
 -1      7504-2.27012E-01 6.54015E-01-1.81406E-01 3.29369E-01 5.31071E-04-1.00953E-03
 -1      7505-1.22191E-01 3.20309E-01-8.50036E-02 3.39871E-01 7.24981E-04-5.16503E-04
 -1      7506-1.22557E-01 3.17837E-01-8.25854E-02 3.48499E-01 1.05708E-04-1.70141E-03
 -1      7507-1.53476E-01 4.24327E-01-1.16590E-01 3.94017E-01 1.56413E-04 4.56888E-04
 -1      7508-5.78848E-02 6.90728E-02-4.92689E-03 5.70002E-02 2.09623E-04 3.23808E-04
 -1      7509-5.45261E-02 5.70983E-02-1.27119E-03 4.99470E-02 1.65881E-04 3.06847E-05
 -1      7510-6.20332E-02 6.91980E-02-3.10736E-03 3.42417E-02 1.56329E-04 5.44098E-06
 -1      7511-6.52131E-02 8.21062E-02-7.40129E-03 4.16688E-02 2.26160E-04 2.05018E-04
 -1      7512-1.86391E-01 5.44165E-01-1.52844E-01 5.96373E-01 1.60207E-03 3.75562E-04
 -1      7513-1.51673E-01 4.18686E-01-1.14751E-01 5.88487E-01 2.31734E-03 3.72835E-04
 -1      7514 4.59545E-01-1.72275E+00 5.38471E-01-3.16909E-01-2.84506E-02-7.24095E-02
 -1      7515 3.45604E-01-1.33073E+00 4.07995E-01-2.32315E-01 4.41190E-03-1.50169E-02
 -1      7516 3.93460E-01-1.58758E+00 4.45647E-01-3.63113E-01 2.95280E-02-1.15420E-02
 -1      7517 9.87895E-03-8.14003E-01 4.58899E-01-6.53260E-01-4.68925E-02-7.51732E-02
 -1      7518 4.86930E-01-1.65791E+00 5.02364E-01 3.33497E-01 6.90887E-04 1.57920E-03
 -1      7519 4.64572E-01-1.57574E+00 4.75263E-01 3.36018E-01 8.18907E-04 6.12718E-04
 -1      7520-1.16443E-01 3.09860E-01-8.26199E-02 4.33137E-01-4.84801E-04-2.04983E-03
 -1      7521-2.26722E-01 6.65523E-01-1.87768E-01 4.20240E-01-3.84867E-04-8.90142E-04
 -1      7522-9.37936E-02 2.31280E-01-6.02840E-02 4.24924E-01-1.11768E-03-1.48605E-03
 -1      7523 7.78032E-01-1.48080E+00 3.03417E-01 3.65604E-01 2.42812E-03-2.41129E-03
 -1      7524 9.55659E-01-1.59191E+00 2.73005E-01 2.38390E-01 2.44029E-03-3.78377E-04
 -1      7525 9.10843E-01-1.58579E+00 2.91989E-01 1.56585E-01 2.13076E-03-2.12216E-03
 -1      7526 7.48089E-01-1.42491E+00 2.98424E-01 2.39200E-01-1.61330E-03-4.01245E-03
 -1      7527-8.63102E-01 2.44345E+00-2.82772E-01 8.57743E-01-9.49829E-03-1.38391E-02
 -1      7528-5.32578E-01 1.16897E+00-3.08507E-01 1.10816E-01 3.48081E-02 4.03442E-02
 -1      7529-7.49670E-01 1.34414E+00-3.10439E-01 3.92920E-02 1.36965E-02 1.17449E-02
 -1      7530 7.58510E-01-2.56023E+00 7.72682E-01 4.15636E-01-1.81141E-05-2.19939E-03
 -1      7531 7.28014E-01-2.45207E+00 7.38425E-01 4.17359E-01-8.17795E-04-1.64567E-04
 -1      7532 6.15323E-01-2.08386E+00 6.29450E-01 3.73729E-01 5.46230E-04 1.61284E-03
 -1      7533 5.89638E-01-1.99092E+00 5.99658E-01 3.76802E-01 8.06154E-04 7.34951E-04
 -1      7534-3.95487E-01 1.22985E+00-3.57368E-01 5.78405E-01 1.23345E-03-2.52792E-04
 -1      7535 2.97924E-01-1.29723E+00 4.06365E-01-2.89792E-01 1.77313E-03 4.39948E-02
 -1      7536 8.53223E-02-3.36469E-01 1.07841E-01 3.27862E-01-5.75889E-04 9.29523E-04
 -1      7537 8.81189E-01-2.96619E+00 8.92290E-01 4.59623E-01 6.87082E-04-4.82124E-04
 -1      7538-1.84513E+00 7.54336E+00-2.43149E+00 8.62311E-01-1.42377E-02-1.78561E-02
 -1      7539-3.21293E-02 1.56227E-02 7.09808E-03 5.16595E-03-1.74899E-04-3.35673E-05
 -1      7540-2.48170E-02 9.46207E-03 6.67628E-03 1.47516E-01 1.47518E-04 5.13564E-04
 -1      7541-4.53877E-02 6.19665E-02-6.44288E-03 1.34804E-01 4.17961E-04 4.31584E-04
 -1      7542-6.43402E-02 1.11465E-01-2.02898E-02 1.32176E-01 1.98171E-05 1.69772E-04
 -1      7543-4.51748E-02 6.38611E-02-7.73208E-03 1.44881E-01-1.84340E-04 1.84803E-04
 -1      7544-4.39547E-02 5.69850E-02-5.45368E-03 1.27284E-01 5.88996E-04-1.99605E-04
 -1      7545 1.88952E+00-6.29772E+00 1.89135E+00 2.94490E-01 3.90816E-04-9.71992E-04
 -1      7546 1.86935E+00-6.23666E+00 1.87194E+00 3.18735E-01 6.47024E-04-1.67986E-03
 -1      7547 1.44951E+00-4.84669E+00 1.45661E+00 4.67113E-01 2.95042E-03-1.13279E-03
 -1      7548 1.47036E+00-4.92494E+00 1.48050E+00 4.46918E-01 2.02028E-03 2.97142E-04
 -1      7549 2.65330E-01-9.10500E-01 2.77067E-01 3.06488E-01-8.76822E-05 5.93814E-04
 -1      7550 1.76888E-01-6.33099E-01 1.95304E-01 3.39132E-01-8.19551E-04-1.81953E-04
 -1      7551 2.72477E-01-9.64964E-01 2.95686E-01 6.31237E-01 2.05973E-03-3.28743E-03
 -1      7552 2.64720E+00-8.81893E+00 2.64371E+00 2.26711E-01 1.64815E-04-1.11555E-03
 -1      7553-4.48399E-01 9.86999E-01-2.30553E-01 3.13556E-01-2.44686E-03 3.50728E-03
 -1      7554-4.51878E-01 1.02113E+00-2.33252E-01 3.17268E-01 3.26562E-03 7.50995E-03
 -1      7555-5.91597E-01 1.10111E+00-2.25808E-01 2.78394E-01 8.59222E-03 3.62849E-03
 -1      7556-5.60858E-01 1.04485E+00-2.09113E-01 1.79448E-01-8.94969E-04 4.70062E-03
 -1      7557-4.18259E-01 9.37008E-01-2.20979E-01 2.48205E-01-1.54113E-03 9.50637E-04
 -1      7558 6.91465E-01-2.81664E+00 9.04521E-01 2.74620E-01 6.35082E-04-5.49380E-03
 -1      7559 1.02934E+00-4.31165E+00 1.41559E+00 2.79371E-01 3.02813E-03-7.41017E-03
 -1      7560 2.38393E-01-8.29654E-01 2.53460E-01 3.55086E-01-4.15709E-04 7.60668E-04
 -1      7561-2.84056E-01 8.43644E-01-2.39530E-01 3.81101E-01 2.63495E-04-2.18597E-04
 -1      7562-5.69429E-01 1.56963E+00-4.57775E-01 6.16551E-01-1.06345E-02 5.98250E-03
 -1      7563-7.08868E-01 1.50787E+00-3.44571E-01 4.36642E-01-1.08896E-02-1.43755E-03
 -1      7564 2.00902E+00-6.70136E+00 2.01121E+00 4.35340E-01 1.24041E-03 5.14483E-04
 -1      7565-3.91841E-04 2.44706E-04 1.29909E-04-7.94400E-04-4.29645E-05-4.58943E-05
 -1      7566-3.93961E-04 2.95711E-04 5.17265E-05-7.78634E-04 2.64170E-05 3.18733E-05
 -1      7567-3.54312E-03-8.64208E-05 1.24164E-03-5.97851E-04 1.48242E-04 2.46336E-06
 -1      7568-4.59174E-04-5.23118E-04 4.11243E-04-5.32481E-04 2.87949E-05 2.76963E-05
 -1      7569-3.56471E-03-7.41015E-05 1.27205E-03-5.99020E-04-1.87143E-04 7.06666E-05
 -1      7570 5.13283E-01-1.93920E+00 7.01665E-01-1.18184E-01 2.28582E-01 4.87401E-02
 -1      7571 3.89926E-01-1.52781E+00 5.27394E-01-5.26215E-01 2.14038E-01 5.50147E-02
 -1      7572-3.16551E-01 9.41882E-01-2.67054E-01 3.08337E-01 1.23466E-03-8.66624E-04
 -1      7573-3.26969E-01 9.80773E-01-2.80003E-01 3.16856E-01 8.82728E-04-1.83313E-03
 -1      7574-4.06693E-01 1.23139E+00-3.53713E-01 2.78901E-01-1.07332E-04-7.63110E-04
 -1      7575 1.55689E-03-6.35171E-02 2.67515E-02 1.65227E-01-4.51797E-04 3.12550E-04
 -1      7576-2.38738E-02 7.52063E-03 7.10222E-03 1.66566E-01-2.15998E-04 5.91884E-04
 -1      7577 4.92875E-04-5.73498E-02 2.48516E-02 1.56080E-01-2.63322E-04 6.33384E-04
 -1      7578 2.73660E-02-1.31836E-01 4.47940E-02 1.55232E-01-1.29859E-04 1.73864E-04
 -1      7579-6.81728E-01 1.40956E+00-3.23207E-01 2.08704E-01 5.80240E-03 3.26134E-02
 -1      7580-7.23558E-01 1.46234E+00-3.25767E-01 2.93134E-01-2.36098E-03 3.49166E-02
 -1      7581-3.55468E-03-4.61936E-02 2.08956E-02 1.44866E-01 1.63627E-04 4.06245E-04
 -1      7582 6.82981E-01-1.31633E+00 2.74688E-01 1.69112E-01-9.32903E-04 1.10502E-03
 -1      7583 5.51065E-01-1.16760E+00 2.65472E-01 2.44528E-01-2.60989E-03 3.83412E-04
 -1      7584 6.31598E-01-1.28126E+00 2.78519E-01 2.51690E-01-1.23818E-03-5.79659E-05
 -1      7585-1.55231E-02-3.64085E-03 8.13793E-03 4.85490E-02-1.93488E-04-5.46392E-05
 -1      7586 1.67708E-01-1.05874E-01-2.56744E-02-6.14258E-01 6.72684E-04-6.31476E-04
 -1      7587 2.12654E-01-1.76026E-01-1.93449E-02-6.09266E-01-6.74552E-03-4.01634E-03
 -1      7588 5.13831E-02 4.10429E-02-4.08026E-02-7.68437E-01 4.37093E-03-5.81090E-03
 -1      7589 6.73155E-02 1.07113E-01-6.91285E-02-7.14158E-01 1.45966E-03-8.92174E-03
 -1      7590 1.72580E-01-1.07630E-02-5.55017E-02-6.27244E-01-4.56030E-04 6.10581E-04
 -1      7591 1.42941E+00-5.81621E+00 1.87683E+00 4.63286E-01-1.05796E-03-2.13005E-03
 -1      7592 1.03139E+00-4.30894E+00 1.40814E+00 2.91449E-01-2.27298E-03 8.04203E-03
 -1      7593 1.42122E+00-5.80731E+00 1.88040E+00 4.63996E-01 3.18902E-03 2.88801E-03
 -1      7594 5.95641E-01-2.02309E+00 6.12039E-01 5.86375E-01 1.41021E-03 3.28931E-05
 -1      7595 5.36076E-01-1.80183E+00 5.43845E-01 2.94377E-01 7.69419E-04-1.99235E-04
 -1      7596 3.97640E-01-2.41233E+00 7.77263E-01 2.67150E-01-4.15050E-02-4.52118E-02
 -1      7597 7.14337E-01-2.69297E+00 8.56377E-01 2.89953E-02-7.62732E-02-4.42019E-02
 -1      7598 7.25558E-01-2.25562E+00 6.18371E-01-7.42914E-02 6.52606E-02 3.69354E-02
 -1      7599 3.86927E-01-1.69965E+00 5.53110E-01 3.02775E-02-3.58257E-02-1.34499E-02
 -1      7600-2.41601E-02 7.66607E-03 7.13299E-03 6.42098E-02-9.99101E-06 9.47988E-07
 -1      7601-1.34077E-02-1.02176E-02 1.00795E-02 6.49011E-02-1.37023E-04 7.13199E-05
 -1      7602-1.88706E-02-8.29285E-03 1.17210E-02 3.42714E-01-7.00014E-05 6.14562E-04
 -1      7603 7.69832E-01-1.47742E+00 2.98487E-01 3.67858E-01-2.51439E-03 9.50628E-04
 -1      7604 1.01741E+00-3.40909E+00 1.02671E+00 4.05103E-01 1.77589E-03-4.62193E-04
 -1      7605 2.80768E-01-1.36066E+00 4.29041E-02-2.54906E-02 1.02758E+00 4.05300E-02
 -1      7606-6.04659E-02 1.04571E-01-1.87169E-02 1.45090E-01-3.84270E-04-1.03426E-04
 -1      7607-7.93909E-02 1.52155E-01-3.16382E-02 1.29137E-01-1.38404E-04-1.37762E-04
 -1      7608 4.54892E-01-1.56783E+00 4.78080E-01 6.94447E-01-5.45817E-04 1.45902E-04
 -1      7609 9.87492E-01-3.32685E+00 1.00221E+00 6.27359E-01 1.59730E-03 1.16997E-03
 -1      7610 5.44416E-02-2.25246E-01 7.34052E-02 2.15142E-01-1.24501E-04-2.43910E-04
 -1      7611 1.07779E-01-3.87280E-01 1.19705E-01 1.99803E-01-8.03471E-04-5.02527E-05
 -1      7612 1.07089E-01-3.87528E-01 1.20171E-01 2.00272E-01 9.84838E-04 1.25177E-04
 -1      7613 5.38552E-02-2.26307E-01 7.42196E-02 2.14438E-01-2.41363E-05 6.39439E-04
 -1      7614-1.13843E-02-3.21433E-02 1.85273E-02 3.98751E-01-2.24199E-04 1.14329E-03
 -1      7615 1.27496E-03-1.04935E-03-6.49591E-05 4.36295E-04 1.41455E-04-1.19318E-04
 -1      7616 8.76108E-04-8.13585E-04-2.33738E-05-3.73485E-04 2.91193E-05-7.24202E-05
 -1      7617 2.65314E-03-6.83959E-04-6.50587E-04-6.03665E-04 1.63615E-05-9.15248E-07
 -1      7618 2.23031E-04-8.36136E-04 2.04546E-04 2.78332E-04 2.06990E-05 2.14692E-05
 -1      7619-1.32734E-03-1.40621E-03 8.00664E-04-2.72268E-06-5.29003E-06 6.94721E-05
 -1      7620 8.39128E-01-2.81512E+00 8.48727E-01 3.67194E-01-4.41780E-04 2.14320E-03
 -1      7621 6.79842E-01-2.28008E+00 6.87559E-01 3.30467E-01 1.64517E-04-1.11080E-03
 -1      7622-6.32246E-02 1.06367E-01-1.80551E-02 1.24294E-01-8.55423E-05 3.08709E-04
 -1      7623-2.51940E-01 7.45988E-01-2.10730E-01 4.07763E-01 2.47560E-04-9.25677E-04
 -1      7624 8.33008E-04-8.07646E-04-5.00951E-06-3.76580E-04-3.03717E-05 5.10335E-05
 -1      7625 1.25801E-03-1.05622E-03-5.69405E-05 4.30047E-04-1.51716E-04 1.14776E-04
 -1      7626-1.32529E-03-1.52052E-03 9.07371E-04-3.43314E-05 2.45071E-06-2.09500E-05
 -1      7627-2.48522E-02 8.02808E-03 7.11679E-03 7.29693E-02-2.10714E-05 5.46762E-05
 -1      7628 1.10290E-01-1.06293E-01-1.09380E-03 4.90567E-01-1.08318E-03-1.17029E-03
 -1      7629 6.34483E-02 7.47456E-02-6.06007E-02 2.82633E-01-2.77209E-04 5.04300E-04
 -1      7630-2.79259E-03-2.91999E-02 1.36881E-02 6.55402E-02 2.50144E-05 1.25227E-04
 -1      7631 5.35047E-01-9.33586E-01 1.61345E-01-1.71810E-01 1.95131E-03-7.88951E-03
 -1      7632 6.36858E-01-1.02412E+00 1.43195E-01-1.60382E-01 1.34631E-02 2.81139E-03
 -1      7633 3.35947E-01-1.08717E+00 2.55550E-01 7.45668E-03 3.11583E-02-4.57264E-03
 -1      7634-1.20015E-02-5.92071E-03 7.67153E-03 4.04974E-02-6.44851E-05-4.60238E-05
 -1      7635-5.29625E-03-1.70573E-02 9.45122E-03 4.31960E-02 7.27304E-05-1.11908E-04
 -1      7636 6.90059E-01-1.42275E+00 3.22597E-01-6.41307E-02-3.39818E-03 4.81870E-03
 -1      7637 4.40017E-01-1.07201E+00 2.79091E-01-4.48335E-02-1.15296E-03-2.50587E-03
 -1      7638 7.34339E-01-1.40486E+00 2.92937E-01 4.50166E-02-3.99459E-03-2.09502E-03
 -1      7639-4.84838E-02 7.50322E-02-1.17814E-02 1.65421E-01 7.43784E-04-2.65640E-04
 -1      7640-4.83486E-02 7.40448E-02-1.13686E-02 1.56058E-01 7.08309E-04 5.31550E-04
 -1      7641-7.45024E-02 1.46211E-01-3.06678E-02 1.55653E-01 7.92774E-05 3.52998E-04
 -1      7642 6.82392E-02-2.95155E-01 9.76505E-02 7.03935E-01 5.34565E-04-1.56613E-04
 -1      7643 5.62465E-01-1.91806E+00 5.79392E-01 6.53653E-01 9.95698E-04-1.93152E-03
 -1      7644 2.41848E-01 2.54228E-02-1.24138E-01-4.82896E-01 1.63834E-03-1.08940E-02
 -1      7645 1.46218E-01 7.45772E-02-1.01701E-01-6.48722E-01 1.26853E-02-1.63136E-02
 -1      7646 7.09677E-01-1.52107E+00 3.39623E-01-1.74345E-01-3.22287E-02-1.61727E-02
 -1      7647 1.67425E+00-5.65237E+00 1.70485E+00 5.30507E-01 1.62330E-03 2.76528E-03
 -1      7648 8.54942E-01-1.83277E+00 4.30874E-01-1.72334E-01-5.23645E-02-6.75791E-03
 -1      7649 5.72430E-01-1.65425E+00 5.16106E-01 2.28636E-01-6.09945E-02 2.65692E-02
 -1      7650 4.35497E-01-1.58601E+00 5.04696E-01 3.87668E-01-1.27431E-01 1.52902E-02
 -1      7651 8.30810E-01-1.62060E+00 3.31331E-01 1.72597E-01-2.67790E-02 3.47465E-03
 -1      7652 5.29614E-01-1.24922E+00 3.33261E-01 4.40857E-01-7.26582E-02 3.19758E-02
 -1      7653-1.57968E+00 1.68936E+00-1.40862E-01 1.82203E-01-2.39149E-02 1.11481E-01
 -1      7654-5.92461E-01 1.16985E+00-2.21593E-01 3.97987E-01-3.66008E-02 5.33818E-03
 -1      7655 8.33377E-01-2.74384E+00 8.19227E-01 7.17252E-01 8.97065E-04-2.24921E-03
 -1      7656 8.42957E-01-2.79028E+00 8.35188E-01 7.21945E-01 1.27158E-03-1.91986E-04
 -1      7657-2.27121E-01 6.55507E-01-1.83883E-01 3.41771E-01 2.60667E-06-4.82408E-04
 -1      7658-5.60884E-01 2.90042E+00-9.99257E-01 4.06069E-01 4.77780E-03 3.84472E-03
 -1      7659-5.64123E-01 3.10970E+00-1.09512E+00 1.91579E-01 1.87722E-03 4.50125E-03
 -1      7660-4.29925E-02 5.33405E-02-4.30992E-03 1.19197E-01 6.52919E-04-7.15611E-05
 -1      7661-1.68269E-01 4.60728E-01-1.25483E-01 2.85507E-01-9.25676E-05 8.96897E-04
 -1      7662-1.70075E-01 4.64699E-01-1.25750E-01 2.76103E-01-2.70515E-04-2.36747E-05
 -1      7663-9.52086E-02 2.27332E-01-5.59235E-02 2.93631E-01 3.28201E-05 4.08562E-04
 -1      7664-1.42615E-02-1.07764E-02 1.06498E-02 7.43000E-02 7.77073E-05 6.19172E-05
 -1      7665 1.20142E+00-4.02284E+00 1.20766E+00 4.13554E-01-5.36593E-04-2.75579E-03
 -1      7666 1.48919E+00-4.97021E+00 1.49274E+00 2.94932E-01 5.22332E-04-1.89468E-03
 -1      7667 1.38093E+00-4.61583E+00 1.38674E+00 3.61398E-01 2.37749E-04-9.81317E-05
 -1      7668-6.29540E-01 1.72451E+00-5.02164E-01 1.50147E-01-9.46168E-02 1.49735E-02
 -1      7669-6.38886E-01 1.68899E+00-4.73717E-01 3.23771E-01-5.94531E-02-4.70900E-04
 -1      7670-5.18980E-01 2.19151E+00-8.44689E-01 5.40748E-01-1.27969E-01 7.37103E-03
 -1      7671-5.16274E-01 2.05868E+00-7.75928E-01 6.93953E-01-7.59244E-02 1.70944E-02
 -1      7672-5.12050E-01 2.05400E+00-7.90145E-01 4.80609E-01 4.70957E-02 2.52605E-03
 -1      7673-1.24930E-01 3.16850E-01-8.22662E-02 2.34152E-01-1.49536E-04 1.07296E-04
 -1      7674-1.24930E-01 3.15408E-01-8.12220E-02 2.25704E-01-1.14912E-04 4.97557E-04
 -1      7675-7.40551E-02 1.58814E-01-3.60982E-02 2.40956E-01-1.00698E-03 8.06698E-05
 -1      7676-7.35921E-02 1.58188E-01-3.63544E-02 2.33412E-01-8.13247E-04 8.89147E-04
 -1      7677-5.45095E-01 1.61043E+00-5.31142E-01 4.51280E-01 4.34906E-03-3.80014E-04
 -1      7678-5.53479E-01 1.69098E+00-5.25690E-01 6.65733E-01-5.62113E-02 1.11217E-02
 -1      7679-4.89167E-01 2.12867E+00-8.64591E-01 7.81683E-01 8.88638E-02 3.53910E-02
 -1      7680-7.88373E-01 3.50170E+00-7.55540E-01 2.70076E-01 2.09890E-02 7.45460E-02
 -1      7681-1.13614E+00 5.02117E+00-1.39320E+00 1.33793E+00 2.73949E-01-8.50789E-03
 -1      7682 3.70290E-02-1.59231E-01 5.16614E-02 1.40738E-01 3.07978E-04 4.72927E-04
 -1      7683-3.55411E-02 2.60889E-02 4.07131E-03 6.44364E-02 2.48690E-04 1.48437E-04
 -1      7684 1.67527E+00-5.58548E+00 1.67610E+00 2.35068E-01 3.53895E-04-4.70294E-04
 -1      7685-8.10286E-01 2.66548E+00-7.95659E-01 7.41392E-01-3.99093E-04 1.32806E-03
 -1      7686-1.43215E+00 4.70677E+00-1.40460E+00 6.16085E-01-2.99131E-04 2.97602E-04
 -1      7687 5.48856E-02-2.36346E-01 7.81232E-02 2.75532E-01 6.09410E-04-6.75414E-04
 -1      7688-2.03411E-02-4.86574E-03 1.10828E-02 2.94631E-01-3.43627E-04-1.01543E-03
 -1      7689 5.67103E-02-2.43793E-01 8.03211E-02 2.82893E-01-1.07289E-03-9.43734E-04
 -1      7690 1.31538E-01-4.74375E-01 1.47004E-01 2.61374E-01-5.46675E-05-1.25221E-03
 -1      7691 1.49514E+00-6.54702E+00 2.14543E+00 4.65215E-01-1.64341E-02-3.05488E-02
 -1      7692 1.49642E+00-6.53066E+00 2.13460E+00 4.69697E-01 4.53588E-03 1.36685E-02
 -1      7693 1.02298E+00-3.44124E+00 1.03326E+00 6.02754E-01 1.17645E-03 3.54540E-03
 -1      7694 1.92718E-01 3.32652E+00-1.29332E+00 2.59194E+00-7.02642E-01-4.08442E-01
 -1      7695-2.70746E-02 1.65901E+00-6.88544E-01 1.19113E+00-8.59375E-01-4.10812E-01
 -1      7696 1.54900E-01 1.88940E+00-9.38065E-01 1.61505E+00-5.01309E-01-2.04979E-01
 -1      7697 1.42640E-01 2.68429E+00-1.27224E+00 1.82299E+00-7.23108E-02-8.19225E-02
 -1      7698-3.32000E-01 2.10854E+00-8.95145E-01 8.41086E-01-2.34786E-01-4.26213E-02
 -1      7699-2.60789E-01 3.11586E+00-1.28571E+00 1.33964E+00-3.38889E-01-2.11685E-01
 -1      7700-1.91686E-02-6.50322E-03 1.09845E-02 3.04094E-01-2.88382E-04 1.51374E-04
 -1      7701 6.69361E-01-1.35488E+00 2.93827E-01 3.67338E-01 4.33059E-03-1.39823E-03
 -1      7702 8.02166E-01-1.46884E+00 2.85809E-01 1.60153E-01 1.66700E-03 1.49112E-03
 -1      7703 1.00278E+00-1.46057E+00 2.02143E-01 1.96958E-01 2.16172E-02-2.43153E-02
 -1      7704-6.24481E-02 1.01344E-01-1.66745E-02 1.15968E-01 2.93079E-04-2.59213E-05
 -1      7705 1.18755E-03-2.98374E-02 1.20412E-02 4.45594E-02 9.31967E-05-1.30082E-04
 -1      7706-1.92711E-02-4.32479E-03 1.09174E-02 3.13096E-01 3.64884E-05 9.33714E-04
 -1      7707-9.48106E-02 2.35379E-01-5.88746E-02 3.05808E-01-1.47273E-04 1.13416E-03
 -1      7708 3.02679E-01-1.03537E+00 3.15330E-01 2.71581E-01 8.32960E-04 2.33106E-04
 -1      7709-2.09626E-02-1.44654E-03 1.02644E-02 2.36950E-01-5.23837E-04 8.87942E-04
 -1      7710-2.05907E-02-1.67691E-03 9.63131E-03 2.37562E-01 1.38931E-04-6.16536E-04
 -1      7711-2.21681E-02 2.96223E-04 9.04049E-03 2.33260E-01 2.02892E-04 1.23142E-06
 -1      7712 9.60839E-03-8.69054E-02 3.26273E-02 1.70644E-01-2.42325E-05 5.28180E-04
 -1      7713-2.35896E-02 5.79571E-03 7.66034E-03 1.76007E-01 1.59054E-04 1.96923E-04
 -1      7714-2.29610E-02 4.61476E-03 7.43238E-03 1.83669E-01 3.82229E-04 6.14660E-04
 -1      7715 8.19332E-01-2.69397E+00 8.03614E-01 7.14096E-01 2.25245E-03-7.13769E-04
 -1      7716 8.80235E-01-5.46660E+00 1.69118E+00 2.19822E+00-6.36923E-01 4.57595E-02
 -1      7717 7.84170E-01-5.57556E+00 1.94305E+00 3.06150E+00-2.01147E-01 4.01205E-02
 -1      7718 7.75411E-01-5.51826E+00 1.90977E+00 2.98449E+00 1.96948E-01-5.78235E-02
 -1      7719 7.14289E-01-2.25000E+00 6.54949E-01 3.74137E-01 3.51764E-03 3.45945E-02
 -1      7720 5.66473E-01-1.93020E+00 5.84192E-01 6.16994E-01-1.11309E-03-1.52967E-03
 -1      7721-8.49581E-02 1.75172E-01-3.77392E-02 1.41093E-01-2.16900E-04 4.08335E-04
 -1      7722-1.22648E-01 3.17881E-01-8.24898E-02 3.30294E-01 4.78405E-04 9.43963E-04
 -1      7723 3.05945E-02-1.35635E-01 4.55225E-02 1.28755E-01-3.97174E-04 6.32980E-04
 -1      7724-1.79571E+00 5.85958E+00-1.73957E+00 4.33876E-01-1.74897E-04 1.01881E-03
 -1      7725 8.71802E-01-1.58501E+00 3.10738E-01 3.43588E-01-3.10427E-03-2.35559E-03
 -1      7726 8.95532E-01-1.57409E+00 3.00848E-01 2.96704E-01-4.15677E-03 4.56007E-03
 -1      7727 7.17677E-01-1.47197E+00 3.32275E-01 4.33729E-01 4.76328E-03-1.13114E-03
 -1      7728 1.69849E+00-5.66055E+00 1.69866E+00 3.46388E-01 9.79828E-04 9.23815E-04
 -1      7729-5.10673E-01 2.57708E+00-9.59253E-01-6.33010E-01-3.15929E-01-2.24680E-02
 -1      7730 3.51848E-02-1.54927E-01 5.18065E-02 1.60129E-01-3.18100E-04 4.34231E-04
 -1      7731-5.83201E-02 7.37852E-02-6.95146E-03 6.62688E-02 1.89914E-04 1.38791E-04
 -1      7732-4.71844E-02 5.14155E-02-1.95419E-03 8.07367E-02 1.60518E-04-1.31131E-05
 -1      7733-4.66878E-02 4.81145E-02-5.58014E-04 7.18025E-02 1.27523E-04 1.84778E-04
 -1      7734-1.07018E+00 5.19334E+00-1.77511E+00 4.89970E-01 7.13633E-03-9.37266E-03
 -1      7735-7.36020E-02 1.63479E-01-3.75463E-02 2.52632E-01-9.16038E-04 1.95831E-04
 -1      7736-8.87201E-02 1.93585E-01-4.49074E-02 1.74626E-01-6.58710E-05 3.99151E-04
 -1      7737-5.74221E-02 1.01948E-01-1.85822E-02 1.87650E-01 4.98238E-04 4.75632E-04
 -1      7738-8.98094E-02 1.99246E-01-4.68352E-02 1.83131E-01-1.03477E-04-1.24368E-05
 -1      7739-2.13171E-02-2.18741E-03 9.98145E-03 2.86531E-01 3.43539E-06-1.78746E-04
 -1      7740 1.14179E+00-3.81765E+00 1.14607E+00 5.03091E-01-2.18386E-05 2.81221E-03
 -1      7741-1.38321E-01-2.46278E-01 1.61149E-01-6.70097E-01 4.63615E-03 7.66639E-04
 -1      7742-6.48898E-02-2.32860E-01 1.21076E-01-7.45319E-01 9.65050E-03-1.95446E-04
 -1      7743-3.90974E-01-3.73881E-02 1.79169E-01-6.46442E-01 4.27365E-03-5.82795E-04
 -1      7744-3.48450E-01 1.75722E-02 1.37353E-01-7.10402E-01 3.86515E-03-5.60855E-03
 -1      7745-1.85801E-01-1.22167E-01 1.16929E-01-7.21704E-01-3.76688E-03 9.50669E-04
 -1      7746-3.52871E-01 1.08702E+00-3.12157E-01 7.01959E-01-1.04342E-03 3.57153E-03
 -1      7747-8.61280E-02 2.02588E-01-5.07573E-02 7.36096E-01 8.95491E-04 1.70097E-03
 -1      7748-6.09311E-01 1.92852E+00-5.65908E-01 6.79630E-01-9.92284E-04-7.75247E-04
 -1      7749 1.58308E-01-3.09530E-01 6.40417E-02 6.59236E-01 2.48976E-03 1.48731E-03
 -1      7750 1.02594E-02-8.98441E-02 3.45321E-02 1.78893E-01-2.30094E-04 1.62695E-04
 -1      7751 4.28833E-02-1.80219E-01 5.87776E-02 1.64499E-01 7.89746E-05 1.42553E-04
 -1      7752 4.44370E-01-1.00073E+00 2.36928E-01 3.79187E-02 1.42867E-03 2.38181E-03
 -1      7753 3.08017E-01-8.38837E-01 2.31214E-01-2.33052E-02 1.97385E-03 1.01387E-03
 -1      7754 4.37788E-01-9.86511E-01 2.33407E-01 8.78904E-02-1.77139E-03-8.61553E-04
 -1      7755-2.24737E-01 6.34161E-01-1.77185E-01 2.70425E-01 5.08876E-04 7.97747E-04
 -1      7756 1.51450E-01-6.20307E-01 2.66306E-01-8.08014E-01 4.48256E-02 3.24789E-02
 -1      7757-2.26110E-02 3.45255E-03 8.22376E-03 1.92767E-01 2.56979E-04-1.59027E-04
 -1      7758-5.41663E-01 2.63575E+00-8.96376E-01 5.96318E-01 4.85094E-03 1.19865E-03
 -1      7759-2.03778E+00 7.49448E+00-2.33549E+00 7.77644E-01 4.48632E-03-3.96452E-04
 -1      7760 1.25939E+00-4.21016E+00 1.26602E+00 4.25925E-01 6.98758E-04-2.50141E-03
 -1      7761-1.37739E+00 4.47808E+00-1.32707E+00 5.86306E-01-1.68611E-03-8.17803E-04
 -1      7762-1.96239E+00 6.40333E+00-1.90323E+00 4.37685E-01-1.07350E-03 5.40606E-04
 -1      7763 5.06090E-01-1.08477E+00 2.49142E-01 1.68309E-01 1.65230E-03-1.31623E-03
 -1      7764-2.11033E-01 7.90900E-01-2.50425E-01 4.66966E-01-3.89085E-03-3.92779E-03
 -1      7765-7.70851E-02 6.26322E-01-2.35454E-01 4.55612E-01-3.60397E-03-4.65270E-04
 -1      7766-2.43361E-01 8.30908E-01-2.50989E-01 4.44280E-01-4.55855E-03 1.61833E-03
 -1      7767-1.78751E-01 7.07644E-01-2.22254E-01 3.75466E-01-3.11797E-03-1.96534E-03
 -1      7768-3.77395E-01 1.00314E+00-2.66822E-01 4.34195E-01 4.04029E-03-4.81982E-03
 -1      7769-4.12284E-04-6.68315E-02 2.86502E-02 3.88174E-01-5.72900E-04-2.27932E-03
 -1      7770 3.57873E-01-1.21688E+00 3.67310E-01 2.92530E-01-8.13253E-04 2.65270E-04
 -1      7771-1.75335E+00 5.71503E+00-1.69977E+00 4.07838E-01-1.28742E-03-1.04873E-03
 -1      7772 5.55147E-01-1.16064E+00 2.58596E-01 9.00187E-02-4.49095E-03-3.93100E-04
 -1      7773-1.42696E-02-2.33173E-02 1.64385E-02 6.59434E-01-2.24589E-04-1.92638E-03
 -1      7774-5.54311E-01 1.05897E+00-2.15180E-01 3.45283E-01 4.46843E-02 4.94468E-03
 -1      7775-1.02498E+00 1.42003E+00-1.21049E-01 1.65676E-01 6.58198E-02 4.15257E-03
 -1      7776-2.54116E-02 9.31175E-03 6.88609E-03 8.15765E-02 1.40772E-04 3.86728E-05
 -1      7777 1.55857E+00-5.19808E+00 1.55943E+00 3.05876E-01-3.32678E-04-2.83494E-03
 -1      7778-1.92062E-01 5.49238E-01-1.53292E-01 4.33550E-01-6.91619E-04-1.65204E-03
 -1      7779-2.27893E-01 6.67579E-01-1.87666E-01 4.86511E-01 1.85896E-03 5.85577E-04
 -1      7780-2.35203E-01 6.99409E-01-1.99574E-01 4.93688E-01 7.50440E-04-1.53029E-03
 -1      7781-2.81912E-01 8.54982E-01-2.45983E-01 5.47233E-01 9.77941E-04-1.37566E-03
 -1      7782-2.72404E-01 8.13508E-01-2.30353E-01 5.40235E-01 1.82943E-03-1.82500E-04
 -1      7783 1.22012E+00-4.07255E+00 1.22448E+00 2.82813E-01 1.25769E-03 9.07827E-05
 -1      7784 1.10044E+00-3.68065E+00 1.10551E+00 3.54606E-01 4.59849E-04 2.88453E-04
 -1      7785 1.36363E+00-4.54890E+00 1.36517E+00 2.38656E-01 8.85901E-04 3.24932E-05
 -1      7786 1.56446E-01-1.72039E-01 7.77614E-03-6.71699E-01 2.85055E-03-7.11399E-03
 -1      7787 3.19163E-01-3.57946E-01 1.45711E-02-4.80580E-01 3.77729E-04-6.53605E-04
 -1      7788 9.07889E-01-3.03461E+00 9.11694E-01 3.21512E-01-1.80660E-04-3.02347E-04
 -1      7789 1.00247E+00-3.34655E+00 1.00556E+00 2.55915E-01 8.09975E-04-7.99602E-04
 -1      7790 1.12051E+00-3.74364E+00 1.12433E+00 2.14353E-01 6.67944E-04-1.44636E-04
 -1      7791-4.42774E-01 1.09660E+00-2.81983E-01 4.28721E-01-3.12879E-03-2.33705E-03
 -1      7792-5.21166E-01 1.10893E+00-2.47292E-01 3.20030E-01-1.61987E-02 7.45136E-03
 -1      7793 8.06758E-01-2.69370E+00 8.10736E-01 2.30012E-01-6.96648E-04 1.21038E-03
 -1      7794 7.30107E-01-2.44705E+00 7.36128E-01 2.89282E-01 4.36760E-04 1.67556E-04
 -1      7795 9.05808E-01-3.02367E+00 9.07665E-01 1.94363E-01-1.56870E-03 1.22502E-04
 -1      7796 6.30852E-01-2.10956E+00 6.35437E-01 2.03538E-01 7.93685E-04-8.80267E-04
 -1      7797 5.72491E-01-1.92289E+00 5.79027E-01 2.56460E-01-6.23088E-05-1.09128E-04
 -1      7798 7.11287E-01-2.37693E+00 7.13761E-01 1.72357E-01 7.72483E-04 1.70364E-04
 -1      7799 2.17387E+00-7.24366E+00 2.17004E+00 1.48339E-01-3.17435E-03-9.73685E-04
 -1      7800 2.15839E+00-7.19057E+00 2.15524E+00 1.80544E-01-2.44496E-03-1.85431E-04
 -1      7801 2.17354E+00-7.24742E+00 2.17443E+00 1.50572E-01 2.62400E-03 2.66219E-04
 -1      7802-1.65933E-01 4.38761E-01-1.17894E-01 2.22419E-01-4.40063E-04 6.64738E-04
 -1      7803 1.28717E+00-4.29879E+00 1.28935E+00 2.92302E-01 1.13221E-03-3.39069E-05
 -1      7804-8.62886E-02 1.70037E-01-3.56938E-02 1.08923E-01-1.51661E-05 2.76182E-04
 -1      7805 1.39128E+00-6.03040E+00 1.87090E+00 7.19680E-01 5.04723E-02 4.71227E-02
 -1      7806 1.09305E+00-4.72253E+00 1.30875E+00 3.61420E-01-2.33935E-01-4.31869E-02
 -1      7807 1.41888E+00-6.06531E+00 1.95867E+00 1.22356E+00 8.36831E-02 4.43110E-02
 -1      7808 8.02548E-01-2.68720E+00 8.07669E-01 4.23190E-01-9.57505E-04-2.08371E-03
 -1      7809-2.30708E-02 1.48463E-01-4.87993E-02-8.17721E-01 1.66262E-03-1.42791E-03
 -1      7810-2.58666E-01 7.44323E-01-2.08553E-01 2.37352E-01-9.45774E-04 1.90643E-04
 -1      7811-3.22433E-01 9.80514E-01-2.81366E-01 5.92482E-01-2.11018E-04 2.21064E-03
 -1      7812 1.28511E-01-4.70314E-01 1.46689E-01 2.79970E-01-4.65431E-04 4.78150E-04
 -1      7813 5.64210E-02-2.40537E-01 7.91911E-02 2.91785E-01-1.27484E-03 8.24183E-04
 -1      7814 1.29971E-01-4.73017E-01 1.46320E-01 2.70759E-01-2.06178E-04-9.08743E-04
 -1      7815 7.73252E-01-1.62798E+00 3.61259E-01-1.41381E-01 5.77361E-03 1.12905E-02
 -1      7816 6.56650E-01-2.19989E+00 6.60171E-01 3.83449E-01-4.44778E-04 8.85317E-04
 -1      7817 1.06133E+00-3.54868E+00 1.06439E+00 2.64544E-01 1.68598E-03 1.00781E-03
 -1      7818-5.70284E-02 5.58023E-02 1.36876E-04 3.70561E-02 2.01767E-04 1.93170E-04
 -1      7819 5.24177E-01-1.76020E+00 5.28366E-01 3.42524E-01-3.77594E-04 2.86521E-04
 -1      7820 8.58960E-01-2.87267E+00 8.61561E-01 2.39075E-01-9.61340E-04-8.92073E-04
 -1      7821-2.62254E-01 9.77902E-01-3.75837E-01-8.25817E-01 1.11509E-01-1.45414E-01
 -1      7822 1.61291E-01-1.71077E-01 8.80811E-03-6.68579E-01-1.25626E-03 8.83061E-03
 -1      7823 5.36949E-02 3.14970E-02-3.68593E-02-7.65912E-01-5.83417E-03 9.20686E-03
 -1      7824 2.14576E-01-1.81306E-01-1.96019E-02-6.11350E-01 4.24721E-03 4.42658E-03
 -1      7825 3.23112E-01-3.63055E-01 1.43918E-02-4.82114E-01-1.43336E-03 1.05554E-04
 -1      7826 6.77738E-01-2.26931E+00 6.81146E-01 2.13121E-01 4.45687E-04-1.61307E-04
 -1      7827-2.76336E-01 1.01118E+00-3.65494E-01-8.31078E-01-9.60043E-02 1.29089E-01
 -1      7828-1.87406E-01 5.06892E-01-1.37887E-01 1.95042E-01 8.24401E-04-1.65571E-04
 -1      7829 1.93162E-01-5.46766E-01 1.50781E-01 2.56719E-02 8.02285E-04 4.19248E-04
 -1      7830-3.61568E-02 2.79239E-02 3.42629E-03 7.27327E-02 4.26491E-04 1.79096E-04
 -1      7831-2.37851E-01 6.91210E-01-1.95014E-01 3.49842E-01-3.85593E-04-1.21126E-03
 -1      7832-5.66954E-02 1.06497E-01-2.04400E-02 1.97742E-01 2.17412E-04-4.85238E-04
 -1      7833-3.16554E-01 9.62332E-01-2.75970E-01 6.14379E-01-2.13588E-03 1.50226E-03
 -1      7834-3.16096E-01 9.70642E-01-2.80680E-01 6.24009E-01-1.68732E-03 5.04582E-04
 -1      7835 2.23344E-01 1.28376E+00-6.74683E-01 1.26162E+00-5.23042E-01-2.43925E-01
 -1      7836 1.57927E-01 2.15654E+00-1.13385E+00 1.41521E+00-2.77749E-01-1.46768E-01
 -1      7837-1.33515E+00 4.32377E+00-1.27968E+00 5.63781E-01-2.10822E-04 2.22187E-03
 -1      7838-2.32452E-02 6.43451E-03 7.08674E-03 5.43655E-02-2.40863E-06-1.41767E-04
 -1      7839 6.67439E-01-2.25826E+00 6.83337E-01 6.06864E-01-8.88125E-04 2.23864E-03
 -1      7840-5.61024E-02 9.64782E-02-1.74022E-02 1.72194E-01 9.56670E-04 2.40709E-04
 -1      7841-1.62582E+00 7.52115E+00-2.50407E+00 1.09192E+00 9.98695E-03-5.16740E-05
 -1      7842-1.26024E+00 5.68562E+00-1.89392E+00 4.43513E-01 3.16727E-03-8.45672E-03
 -1      7843-1.65555E+00 7.49552E+00-2.51584E+00 1.25425E+00 4.37387E-03 2.64593E-03
 -1      7844 5.22390E-01-1.16544E+00 2.75547E-01-4.62612E-02 3.70383E-03 3.88910E-03
 -1      7845-2.68763E-01 8.08939E-01-2.30504E-01 6.34231E-01-1.86155E-03-2.95739E-03
 -1      7846 2.97059E-01-7.65300E-01 2.02947E-01-1.65481E-02 6.62915E-04 7.63993E-04
 -1      7847 2.75362E-01-8.46241E-01 2.51350E-01-3.56612E-02-4.69258E-03 2.40616E-03
 -1      7848 2.65515E-01-9.78121E-01 3.02643E-01-6.59467E-02-1.46511E-02 4.04190E-03
 -1      7849-1.07103E+00 4.33211E+00-1.33414E+00-7.43509E-02-2.63133E-02-2.05849E-02
 -1      7850-7.95525E-01 3.10514E+00-7.45977E-01-4.28551E-01 2.65775E-01 4.27230E-03
 -1      7851-7.66860E-01 2.89817E+00-8.80831E-01-5.19329E-01-4.17209E-02-2.82972E-02
 -1      7852-1.09430E-01 2.81494E-01-7.39675E-02 3.61227E-01-3.75958E-04-2.38142E-04
 -1      7853-1.28640E-01 3.06360E-01-7.62009E-02 1.42696E-01 2.80353E-04 1.49944E-05
 -1      7854-1.28766E-01 3.13071E-01-7.93907E-02 1.52526E-01 2.42046E-04-1.36637E-04
 -1      7855-2.26825E-01 6.50540E-01-1.81491E-01 3.18106E-01 1.76113E-05-2.49748E-04
 -1      7856-2.26057E+00 7.39291E+00-2.20201E+00 2.07555E-01 3.55050E-03 2.87539E-04
 -1      7857-2.26084E+00 7.39674E+00-2.20312E+00 2.10181E-01-4.34401E-03-6.57833E-04
 -1      7858-2.32412E+00 7.60711E+00-2.26510E+00 2.06648E-01 2.78685E-03 5.29125E-04
 -1      7859-2.32608E+00 7.60050E+00-2.26061E+00 2.10862E-01-3.51374E-03 2.52948E-03
 -1      7860-3.20409E-01 1.13765E+00-3.54418E-01 6.98306E-01 1.12673E-03-9.78837E-03
 -1      7861-3.12945E-01 1.02195E+00-3.05279E-01 5.84434E-01 6.34741E-03 4.33011E-03
 -1      7862-3.33593E-01 1.26103E+00-4.33374E-01 7.50556E-01-1.67166E-02-8.80997E-04
 -1      7863-8.15010E-02 1.67174E-01-3.68839E-02 1.61250E-01-2.82042E-04-4.23806E-04
 -1      7864-6.91498E-02 9.54040E-02-1.11995E-02 4.90776E-02 1.19648E-04 5.57772E-05
 -1      7865-4.67911E-02 4.48668E-02 7.96423E-04 6.31309E-02 2.28671E-04 1.95811E-04
 -1      7866 8.55778E-01-1.57391E+00 3.09616E-01-7.20952E-02 9.26331E-03 9.22173E-03
 -1      7867 5.69116E-01-8.24078E-01 1.07875E-01-1.64915E-01 1.76240E-03-2.98753E-03
 -1      7868 4.93568E-01-7.65748E-01 1.17250E-01-3.03824E-01-2.25844E-03 1.81041E-04
 -1      7869 3.60732E-01-6.05032E-01 1.14073E-01-4.68338E-01 1.66623E-03-1.59611E-03
 -1      7870-1.17902E-01 2.78074E-01-6.95418E-02 1.75778E-01-1.71254E-04-3.80734E-04
 -1      7871 2.77207E-01-9.84652E-01 3.04711E-01 6.41783E-01-2.08863E-03 9.59998E-05
 -1      7872 1.85064E+00-6.17070E+00 1.85146E+00 3.52756E-01 9.71280E-04-3.87226E-04
 -1      7873-5.40479E-01 2.01034E+00-5.16456E-01-7.40826E-01 9.11504E-02-5.39100E-02
 -1      7874-3.89605E-01 1.44142E+00-4.06570E-01-6.21164E-01-1.32695E-02 1.96440E-02
 -1      7875-7.81077E-01 3.34594E+00-1.04535E+00-3.42420E-01 2.17400E-03 3.87976E-03
 -1      7876 3.26468E-03-2.92819E-02 1.11986E-02 3.49153E-02 1.08216E-04-1.88422E-04
 -1      7877-4.43652E-01 1.36226E+00-3.94623E-01 3.23636E-01-9.02462E-04 1.07454E-04
 -1      7878-5.42116E-01 1.66548E+00-4.82293E-01 1.72169E-01-4.74298E-04-4.12930E-04
 -1      7879-5.10502E-01 1.56681E+00-4.52223E-01 2.15002E-01-2.01129E-04-5.89103E-04
 -1      7880-6.11312E-01 1.89862E+00-5.52101E-01 1.39237E-01-1.33746E-04-5.15420E-04
 -1      7881 5.45350E-01-1.34751E+00 4.28082E-01 1.89367E-01-4.08999E-02 8.04404E-03
 -1      7882 5.01773E-01-9.94189E-01 2.22722E-01 3.58629E-01-2.95002E-02 2.20496E-02
 -1      7883-3.41926E-01 1.05808E+00-3.07231E-01 5.98874E-01-3.16115E-04 2.07072E-03
 -1      7884-2.42694E-01 6.69350E-01-1.83977E-01-3.14531E-01-1.57844E-03 8.44874E-03
 -1      7885 1.88040E+00-6.26550E+00 1.87780E+00 1.19072E-01-2.42748E-03-2.30064E-04
 -1      7886 1.69210E+00-5.64362E+00 1.69501E+00 1.89114E-01 1.41631E-03-7.26547E-04
 -1      7887 1.88131E+00-6.27475E+00 1.88375E+00 1.19142E-01 2.17182E-03 3.45038E-04
 -1      7888-2.70468E-01 8.08664E-01-2.32301E-01 6.86844E-01-1.53795E-03-2.13650E-03
 -1      7889-4.40398E-01 1.34183E+00-3.86337E-01 2.42981E-01-1.54073E-04-1.14510E-03
 -1      7890-5.57907E-02 9.65987E-02-1.76379E-02 1.80604E-01 9.95695E-04-1.11404E-04
 -1      7891 1.41457E+00-4.74075E+00 1.42578E+00 4.94834E-01 2.28716E-03 2.50183E-03
 -1      7892-7.74558E-02 1.19342E-01-1.81309E-02 4.45159E-02 1.18840E-04 4.12562E-05
 -1      7893-7.55050E-02 1.21319E-01-1.97410E-02 6.10405E-02-5.85683E-05 6.29246E-05
 -1      7894-8.67116E-02 1.47230E-01-2.59286E-02 4.07217E-02 9.09222E-05 9.15060E-05
 -1      7895 1.03987E+00-3.47451E+00 1.04410E+00 3.28302E-01-1.73366E-04-1.50750E-03
 -1      7896-6.12894E-01 2.21931E+00-8.02539E-01 1.77666E-01-1.98767E-01 8.84528E-03
 -1      7897-5.76694E-01 2.00650E+00-7.68906E-01 8.23020E-02 3.70700E-03 2.29411E-04
 -1      7898-4.60366E-01 2.69544E+00-1.19495E+00 5.29967E-01 3.73462E-02 1.52313E-02
 -1      7899-2.05934E+00 6.74119E+00-2.00551E+00 4.51443E-01-1.49632E-03-5.32740E-04
 -1      7900 8.48908E-01-2.83642E+00 8.51546E-01 2.96040E-01-3.77335E-04 1.55851E-03
 -1      7901 3.75611E-01-1.28321E+00 3.89342E-01 2.93432E-01-1.23343E-04-4.54263E-04
 -1      7902 5.24114E-01-1.75472E+00 5.27428E-01 2.32268E-01-4.38617E-05-7.08460E-04
 -1      7903-8.56050E-01 1.19116E+00-1.39401E-01-1.08423E-01 3.48960E-03-4.03543E-03
 -1      7904-6.00244E-01 1.06181E+00-1.95338E-01 3.77372E-02-3.44030E-03-6.34858E-03
 -1      7905 9.51681E-01-3.20196E+00 9.64503E-01 4.82478E-01 6.66492E-04 1.00584E-03
 -1      7906 9.70939E-01-3.24766E+00 9.75218E-01 4.65086E-01 1.98524E-03 5.60780E-04
 -1      7907 4.05328E-02-1.91865E-01 6.59805E-02 2.70182E-01 1.00940E-03-3.43594E-04
 -1      7908 1.17414E-01-4.27384E-01 1.33265E-01 2.57635E-01 7.14531E-05-3.34189E-04
 -1      7909 1.02966E-01-3.82340E-01 1.19810E-01 2.53187E-01 2.77921E-04-3.42098E-04
 -1      7910 8.50042E-01-2.88509E+00 8.70410E-01 6.59850E-01 1.68434E-03 8.96010E-04
 -1      7911 1.31149E+00-4.39312E+00 1.32078E+00 5.52637E-01 2.20018E-03 1.83345E-03
 -1      7912 1.44304E+00-4.83028E+00 1.45091E+00 5.05580E-01 3.44127E-03 1.78897E-03
 -1      7913 1.10040E+00-3.70304E+00 1.11627E+00 4.94818E-01-2.09221E-03 6.13767E-04
 -1      7914 1.71545E-01-6.07584E-01 1.87309E-01 3.06706E-01 3.23605E-04 6.98749E-04
 -1      7915 6.58127E-02-2.79098E-01 9.20677E-02 3.23118E-01-1.48533E-03 4.33791E-04
 -1      7916 1.53062E-01-5.50381E-01 1.70187E-01 3.03161E-01-6.40803E-04 1.57308E-05
 -1      7917 6.76064E-01-2.26204E+00 6.79622E-01 2.64064E-01 3.72771E-05 1.31497E-03
 -1      7918 4.56960E-01-1.00796E+00 2.36759E-01 1.99041E-01-2.88401E-03 2.31841E-04
 -1      7919-9.64917E-02 2.30015E-01-5.69225E-02 2.78012E-01-7.33609E-04-7.59858E-04
 -1      7920-9.55627E-02 2.31912E-01-5.89587E-02 2.87628E-01-4.64952E-04-2.08390E-04
 -1      7921 4.40454E-02-1.85909E-01 6.08703E-02 1.72175E-01 1.13703E-04-1.68680E-04
 -1      7922 4.52656E-02-1.91867E-01 6.30466E-02 1.80787E-01 9.36187E-05 5.50035E-04
 -1      7923 1.26491E-02-9.53564E-02 3.47417E-02 1.86827E-01 3.01611E-04 2.62517E-05
 -1      7924-3.11789E-02 1.73964E-02 5.74609E-03 5.77613E-02 2.40791E-04-4.71829E-05
 -1      7925 1.00061E+00-4.55310E+00 1.52046E+00 1.71179E-01 1.80451E-03 5.92016E-03
 -1      7926 5.52825E-01-2.44851E+00 8.14759E-01 5.43866E-02-1.87073E-03-1.17041E-03
 -1      7927 1.47805E+00-6.72071E+00 2.23573E+00 4.50756E-01-1.63073E-02-1.18023E-02
 -1      7928-4.05545E-01 1.38395E+00-4.52049E-01 7.43385E-01 7.94060E-03 1.16163E-03
 -1      7929 2.84820E-02-1.21338E-01 4.02206E-02 9.12962E-02 2.61469E-04 1.22779E-04
 -1      7930 5.01211E-02-1.78614E-01 5.52143E-02 7.52840E-02-1.76977E-04 1.80776E-04
 -1      7931 3.77800E-02-1.47423E-01 4.65905E-02 9.96507E-02-3.56978E-04 1.09282E-04
 -1      7932 1.33366E-01-1.99723E-01 2.79121E-02-7.56762E-01 7.88456E-03-4.31463E-03
 -1      7933-3.67436E-01 1.12283E+00-3.24326E-01 4.64120E-01 9.40680E-05 1.86426E-03
 -1      7934-1.50984E-01 4.11033E-01-1.10778E-01 3.83154E-01 7.53798E-05 1.84085E-03
 -1      7935-8.82763E-03-2.82207E-02 1.60041E-02 1.12457E-01 2.90562E-04-1.75434E-04
 -1      7936 1.10379E-02-7.49221E-02 2.71721E-02 1.09476E-01 3.57408E-06-5.59609E-05
 -1      7937 6.70030E-03-6.32006E-02 2.41267E-02 1.03201E-01 3.89424E-04-2.07358E-04
 -1      7938-4.45734E-01 1.37735E+00-4.00743E-01 5.16131E-01 8.59786E-04 1.17091E-03
 -1      7939-5.17128E-01 1.63045E+00-4.76923E-01 6.24979E-01 1.02300E-03-1.04870E-03
 -1      7940-2.64762E-01 8.00696E-01-2.30575E-01 6.45368E-01 1.07147E-03-4.40050E-04
 -1      7941-2.90653E-01 8.61433E-01-2.44550E-01 3.68035E-01-6.83243E-04 1.11903E-03
 -1      7942-1.20280E+00 1.57877E+00-1.54793E-01 3.96666E-01 3.03673E-02-6.10274E-02
 -1      7943-8.63854E-01 2.46329E+00-2.74926E-01 1.15429E+00 3.94551E-02-5.02545E-02
 -1      7944-7.16699E-01 1.49953E+00-3.40332E-01 4.33102E-01 9.63525E-03 4.69237E-04
 -1      7945-5.69417E-01 1.56806E+00-4.49343E-01 6.13510E-01 1.57727E-02-6.55456E-03
 -1      7946-6.49576E-01 1.57402E+00-4.20954E-01 3.29427E-01 1.35152E-02 3.16213E-03
 -1      7947-4.33619E-01 1.38602E+00-4.05171E-01 7.44996E-01-1.05387E-03 4.19868E-03
 -1      7948-7.95291E-01 2.55906E+00-7.55869E-01 7.12925E-01-2.16096E-03 7.22988E-05
 -1      7949-6.35053E-02 1.70470E-01-4.58901E-02 7.86428E-01-3.46942E-04-1.77975E-05
 -1      7950-5.17665E-01 1.04025E+00-2.19828E-01 2.57952E-01-1.84469E-03-5.97943E-03
 -1      7951-4.74910E-01 9.72929E-01-2.11283E-01 1.73308E-01 2.87102E-04-7.45521E-04
 -1      7952 8.97908E-02-3.04447E-01 9.21977E-02 6.62555E-02 9.30639E-05 2.22291E-04
 -1      7953 9.14006E-02-3.12185E-01 9.42663E-02 8.25605E-02 3.63477E-04 4.65284E-04
 -1      7954 6.87474E-02-2.43377E-01 7.50254E-02 9.71888E-02-2.19684E-05 5.46903E-05
 -1      7955-3.49291E-01 1.72497E+00-6.03273E-01 8.71900E-01-1.71145E-01-3.99434E-02
 -1      7956 3.20614E-02 1.62466E+00-8.01073E-01 1.25235E+00-2.56050E-01-1.49225E-01
 -1      7957 3.75554E-02-1.51704E-01 4.90221E-02 1.08991E-01-3.38288E-04-5.00739E-05
 -1      7958-2.47499E-01 7.24839E-01-2.04434E-01 3.59231E-01-4.26796E-04-1.02347E-03
 -1      7959 9.02274E-03-5.33983E-02 1.88688E-02 5.76780E-02-3.43029E-05 2.49211E-04
 -1      7960 3.23232E-03-3.70347E-02 1.45858E-02 4.99156E-02-7.20413E-05 1.44485E-05
 -1      7961 3.04248E-01-1.03218E+00 3.11329E-01 2.59026E-01 8.43557E-04-6.69695E-04
 -1      7962 2.76423E-01-9.52079E-01 2.89587E-01 2.51927E-01 1.16485E-03 4.37368E-04
 -1      7963-4.53522E-02 1.27676E-02 1.38277E-02 7.87450E-03-3.11533E-04 2.73172E-04
 -1      7964-8.38397E-01 1.18752E+00-1.43840E-01-1.09728E-01-2.67773E-03 1.03886E-02
 -1      7965-7.31696E-01 1.08268E+00-1.40088E-01-3.36467E-01 5.47373E-04 4.32665E-03
 -1      7966-5.90531E-01 1.01315E+00-1.78650E-01-2.37177E-01-1.54472E-03 1.90807E-03
 -1      7967-5.96488E-01 1.06062E+00-1.96899E-01 3.46589E-02 3.96698E-03 7.11694E-03
 -1      7968-4.97287E-01 9.75390E-01-1.95286E-01-1.50338E-01-1.27389E-03-8.16541E-04
 -1      7969 1.92906E-01-6.71617E-01 2.05070E-01 2.11254E-01 2.58433E-04-9.86493E-04
 -1      7970 2.76421E-01-9.30458E-01 2.80469E-01 1.68113E-01-9.97053E-05-6.17384E-04
 -1      7971 2.14767E-01-7.34496E-01 2.22744E-01 2.19126E-01-3.98200E-04-1.01631E-03
 -1      7972-5.80725E-02 8.77689E-02-1.29224E-02 1.10127E-01-8.91251E-05-9.09083E-05
 -1      7973-5.34049E-02 7.56334E-02-9.35788E-03 1.04541E-01 2.15625E-04-2.74857E-04
 -1      7974-3.84665E-02 4.13555E-02-1.19427E-03 1.12671E-01 1.95982E-04-3.06083E-04
 -1      7975-3.82155E-02 2.63321E-02 5.06259E-03 5.22448E-02 1.07391E-04-1.04002E-04
 -1      7976-4.22684E-02 3.43813E-02 3.17797E-03 5.75628E-02 2.18979E-04 2.15209E-04
 -1      7977 9.15134E-01-3.08360E+00 9.28659E-01 4.56772E-01 1.27689E-03 2.06291E-03
 -1      7978-3.64547E-02 3.07209E-02 2.47547E-03 8.10700E-02 2.38545E-04 2.77441E-04
 -1      7979 1.62924E-02 1.69434E-01-8.00750E-02-7.14415E-01-5.92037E-04-8.33363E-03
 -1      7980-3.01654E-01 9.03413E-01-2.59515E-01 4.13062E-01-7.80559E-04-2.11501E-03
 -1      7981-1.18560E-01 3.08417E-01-8.18130E-02 3.68537E-01-1.16377E-03-1.54597E-03
 -1      7982-1.66938E+00 5.43327E+00-1.61349E+00 4.25970E-01-1.18998E-03 7.38107E-04
 -1      7983-1.14144E+00 3.68083E+00-1.08844E+00 5.65845E-01-8.60903E-04-1.01146E-03
 -1      7984 2.31760E-03-2.23290E-02 8.75234E-03 2.63316E-02 1.43709E-04-3.92979E-06
 -1      7985 6.84511E-03-2.72269E-02 8.84572E-03 1.72733E-02 1.04596E-04 3.29484E-05
 -1      7986 8.27524E-03-3.59312E-02 1.16841E-02 2.55376E-02-7.11329E-05-4.38075E-05
 -1      7987 9.86017E-01-1.61785E+00 2.69912E-01 1.68697E-01 9.67001E-03-3.40176E-03
 -1      7988 9.28554E-01-1.61780E+00 2.96232E-01 5.37193E-02 8.56739E-03-5.96750E-04
 -1      7989-6.56738E-01 1.57958E+00-4.18142E-01 3.27766E-01-1.08393E-02-3.39814E-04
 -1      7990 6.21978E-01-2.07318E+00 6.21041E-01 7.25843E-02-1.27752E-03 4.14309E-04
 -1      7991 4.82056E-01-1.61170E+00 4.84920E-01 1.72991E-01 4.36511E-04-1.09640E-04
 -1      7992 5.53340E-01-1.84502E+00 5.54473E-01 1.08927E-01 1.33859E-03-1.81140E-04
 -1      7993 6.21003E-01-2.07421E+00 6.23539E-01 7.22933E-02 2.00647E-03-8.44219E-04
 -1      7994 5.50564E-01-1.83625E+00 5.51085E-01 1.42528E-01 4.12962E-04-5.78916E-04
 -1      7995-1.92671E-01 5.60434E-01-1.58141E-01 4.42461E-01-1.63969E-03-2.14686E-05
 -1      7996-5.24944E-02 3.58125E-02 7.20128E-03 2.21593E-02 9.20288E-05 3.37866E-05
 -1      7997-5.01730E-02 2.46845E-02 1.11609E-02 1.07992E-02-3.07249E-04 2.20687E-04
 -1      7998-5.01925E-02 2.49718E-02 1.08195E-02 1.08872E-02 3.72630E-04-5.65906E-05
 -1      7999-4.76591E-02 1.79422E-02 1.29368E-02 9.02970E-03 2.54546E-04-3.25286E-04
 -1      8000-4.94916E-02 2.76748E-02 9.17108E-03 1.89169E-02 2.44386E-04 1.95889E-05
 -1      8001 7.42949E-02-2.54862E-01 7.74947E-02 7.40680E-02 7.20232E-05 3.82018E-04
 -1      8002 5.36253E-02-1.97735E-01 6.13083E-02 1.02313E-01 1.05120E-04 7.20758E-04
 -1      8003 2.01602E-02-7.12351E-02 2.18318E-02 2.06328E-02-1.82928E-04-1.83838E-04
 -1      8004 1.43599E-02-5.20131E-02 1.60056E-02 1.90681E-02-3.06002E-04-2.50273E-04
 -1      8005 2.04822E-02-7.14548E-02 2.17581E-02 2.09577E-02 2.62426E-04 3.04129E-04
 -1      8006 1.43722E-02-5.19391E-02 1.63877E-02 1.95917E-02 2.87489E-04 2.30438E-04
 -1      8007 9.48716E-03-4.32126E-02 1.45298E-02 3.57759E-02 5.26092E-05-1.52151E-04
 -1      8008 2.89881E-02-1.03345E-01 3.20559E-02 4.27074E-02 1.88827E-04 2.06378E-05
 -1      8009 3.34851E-02-1.15961E-01 3.53092E-02 2.72018E-02 3.77118E-04 3.59685E-05
 -1      8010 4.30052E-02-1.44345E-01 4.36151E-02 1.90821E-02-4.95993E-04 3.02137E-06
 -1      8011 3.83583E-02-1.31873E-01 4.01672E-02 3.63041E-02 5.71216E-05 1.00825E-05
 -1      8012 4.31315E-02-1.45377E-01 4.39790E-02 1.93047E-02 5.32036E-04-3.41462E-05
 -1      8013 4.52883E-01-1.50903E+00 4.52025E-01 6.26694E-02-1.42538E-03-3.96124E-04
 -1      8014 3.46943E-01-1.16475E+00 3.51367E-01 1.46838E-01 2.78851E-04-9.22066E-04
 -1      8015 3.98824E-01-1.33375E+00 4.02241E-01 9.23337E-02 1.49073E-03 1.79472E-04
 -1      8016 4.52145E-01-1.51008E+00 4.54418E-01 6.15597E-02 1.79973E-03 7.70209E-05
 -1      8017 3.98764E-01-1.33725E+00 4.01566E-01 1.22348E-01 2.34678E-04-5.10471E-04
 -1      8018 3.11143E-01-1.03624E+00 3.10081E-01 5.10138E-02-9.77894E-04-6.98767E-04
 -1      8019 3.10631E-01-1.03806E+00 3.12063E-01 5.11338E-02 1.22162E-03 5.06910E-04
 -1      8020 2.74918E-01-9.17904E-01 2.76115E-01 1.01200E-01 3.40944E-04-1.92071E-04
 -1      8021 2.35693E-01-7.92836E-01 2.39153E-01 1.20862E-01 5.46574E-05-6.44491E-05
 -1      8022 2.70387E-01-9.06159E-01 2.73767E-01 7.56874E-02 8.35856E-04 8.63208E-04
 -1      8023-1.15622E-02-2.59249E-03 6.04941E-03 2.85983E-02-6.41468E-05-6.65975E-05
 -1      8024-1.70421E-02 1.25010E-03 6.55326E-03 3.66471E-02-1.19417E-04-1.40836E-04
 -1      8025-7.20213E-03-9.20301E-03 7.11274E-03 3.15091E-02-9.07584E-06-1.55703E-04
 -1      8026 1.94156E-01-6.47988E-01 1.94453E-01 4.08648E-02-1.11798E-03-7.03773E-05
 -1      8027 1.93945E-01-6.48235E-01 1.94938E-01 4.16666E-02 1.13815E-03-1.22782E-04
 -1      8028 1.71617E-01-5.75434E-01 1.73346E-01 7.95004E-02 1.84363E-04-5.72793E-05
 -1      8029 1.45786E-01-4.90550E-01 1.48121E-01 9.47262E-02 2.19484E-04 1.34289E-04
 -1      8030 1.66912E-01-5.60274E-01 1.69158E-01 6.07847E-02 8.62292E-04 6.27760E-04
 -1      8031-2.51591E-01 7.46400E-01-2.12435E-01 5.62969E-01 2.03194E-03 1.54145E-03
 -1      8032 1.01408E+00-4.25688E+00 1.33582E+00-2.85507E-01 3.18215E-02-1.66530E-02
 -1      8033 6.65963E-01-2.78620E+00 8.92284E-01-6.52312E-01 6.75834E-02-1.82001E-02
 -1      8034 7.12768E-01-3.23851E+00 8.44032E-01-4.88320E-01-2.55838E-01-2.51635E-03
 -1      8035-2.01031E+00 6.56596E+00-1.95151E+00 4.38900E-01-2.06411E-03 2.18496E-03
 -1      8036 1.05524E+00-3.54429E+00 1.06676E+00 5.83532E-01 1.14249E-03-6.74138E-04
 -1      8037-4.62978E-01 1.24650E+00-3.03711E-01 6.71492E-01 3.05882E-02 5.64373E-02
 -1      8038-4.33093E-01 1.60630E+00-4.02142E-01 1.06985E+00-4.83464E-02-8.07775E-03
 -1      8039 6.70081E-02-2.49475E-01 7.82638E-02 1.31983E-01 1.29804E-04 8.73831E-04
 -1      8040 8.19275E-02-2.94062E-01 9.10204E-02 1.39353E-01 5.53617E-04-2.03510E-04
 -1      8041 7.29911E-01-1.39698E+00 2.88634E-01 4.07424E-02 2.93877E-03-1.26001E-03
 -1      8042 4.12691E-02-1.49542E-01 4.65081E-02 6.78396E-02 4.44359E-05 2.22251E-04
 -1      8043 5.50548E-02-1.86942E-01 5.66246E-02 3.64370E-02 5.03586E-04-2.11870E-05
 -1      8044 5.49668E-02-1.86344E-01 5.68423E-02 3.65088E-02-6.84499E-04-2.08023E-04
 -1      8045 6.56810E-02-2.21928E-01 6.71574E-02 3.71281E-02-3.87048E-04-7.96477E-05
 -1      8046 6.60334E-02-2.21765E-01 6.65581E-02 3.77813E-02 5.38580E-04 6.37766E-04
 -1      8047-1.29516E-01 3.47955E-01-9.48692E-02 3.78431E-01-5.15358E-04-1.22181E-04
 -1      8048 4.91575E-01-7.65340E-01 1.17805E-01-3.03015E-01 2.22135E-03-2.20863E-03
 -1      8049 9.89153E-01-1.54765E+00 2.43484E-01 2.39162E-01-3.34840E-03-9.94122E-03
 -1      8050 5.90501E-02-2.24212E-01 7.05823E-02 1.30852E-01-1.49924E-04 9.55905E-05
 -1      8051 3.82900E-01-2.09710E+00 4.39974E-01-7.92283E-01 1.61360E-01-5.37333E-02
 -1      8052 1.58786E+00-5.30462E+00 1.59327E+00 1.88560E-01-1.13557E-03 1.06129E-03
 -1      8053 1.63964E+00-5.47304E+00 1.64099E+00 1.94585E-01-2.40332E-03 8.62109E-05
 -1      8054 1.30984E+00-4.37425E+00 1.31331E+00 3.61553E-01 8.56095E-04 3.28888E-04
 -1      8055 1.64031E+00-5.47357E+00 1.64154E+00 1.92970E-01 3.15133E-03 6.75035E-04
 -1      8056 1.58998E+00-5.30304E+00 1.59077E+00 1.87008E-01 1.62523E-03 7.59909E-04
 -1      8057-1.25842E-01-1.12699E+00 6.24085E-01 1.09528E+00 1.78785E-01-9.54731E-02
 -1      8058-1.23763E-01-1.11900E+00 6.06074E-01 1.06518E+00 1.01415E-01-6.45396E-02
 -1      8059 8.07125E-02-1.49430E+00 7.53334E-01 9.61476E-01-3.00230E-03 7.50702E-04
 -1      8060 5.18707E-02-1.64312E+00 7.84515E-01 1.03784E+00 1.01012E-01-2.23043E-02
 -1      8061-1.24918E-01-1.12688E+00 6.25840E-01 1.09452E+00-1.74823E-01 9.59502E-02
 -1      8062-1.23814E-01-1.11850E+00 6.08903E-01 1.06390E+00-9.90645E-02 6.50313E-02
 -1      8063 5.40610E-02-1.64574E+00 7.83180E-01 1.03674E+00-1.06662E-01 2.49555E-02
 -1      8064 5.16407E-01-1.89261E+00 6.25096E-01 8.02331E-01-9.77831E-02 5.17357E-02
 -1      8065-8.83321E-02 1.89236E-01-4.31619E-02 1.66538E-01 3.97056E-04-1.01047E-04
 -1      8066-7.90580E-01 1.19210E+00-1.59712E-01 8.04673E-02-1.09657E-02 1.40854E-02
 -1      8067 7.74122E-01-1.57698E+00 3.55723E-01 4.62352E-01 6.57693E-03-2.96225E-05
 -1      8068 1.36229E+00-4.54914E+00 1.36471E+00 1.79784E-01-3.45414E-03-1.42221E-03
 -1      8069 1.31662E+00-4.39237E+00 1.31779E+00 1.71869E-01-1.81287E-03-1.83320E-03
 -1      8070 1.36245E+00-4.54705E+00 1.36436E+00 1.79671E-01 3.50373E-03 1.83893E-03
 -1      8071 1.31492E+00-4.39610E+00 1.32073E+00 1.74292E-01 2.57809E-03-4.04729E-04
 -1      8072 1.08366E+00-3.61990E+00 1.08693E+00 3.36386E-01 3.66723E-04-4.29045E-04
 -1      8073 6.49895E-02-2.69667E-01 8.86979E-02 3.14815E-01-1.40618E-03 3.54910E-04
 -1      8074-8.58556E-01 2.76073E+00-8.14335E-01 6.88917E-01-1.32867E-03 1.82526E-03
 -1      8075-2.56265E-01 1.59063E+00-5.77810E-01 2.25288E-01 8.31794E-04-6.06746E-04
 -1      8076-2.23887E-01 1.34552E+00-4.79345E-01 4.37896E-01 3.16886E-04 1.28803E-03
 -1      8077 1.46343E-01 1.70978E+00-8.83280E-01 1.44256E+00-7.84210E-03 2.24006E-02
 -1      8078 6.53026E-02 1.27136E+00-6.72794E-01 1.07174E+00-1.09636E-01-7.57390E-02
 -1      8079-2.13504E-02 1.19893E-04 8.65462E-03 2.57997E-01-1.32559E-04-1.44975E-05
 -1      8080-1.99906E-01 5.90629E-01-1.67146E-01 5.76957E-01 1.76573E-03-1.18894E-03
 -1      8081 2.55146E-01-7.20925E-01 2.04179E-01-1.22114E-02 3.53822E-03-3.64160E-03
 -1      8082 2.06244E-01-5.72314E-01 1.56496E-01 9.85313E-03 1.40191E-04-1.03192E-03
 -1      8083 1.32157E-01-3.87642E-01 1.11119E-01-4.54675E-02 1.87872E-03 5.79051E-04
 -1      8084 1.94466E-01-5.02030E-01 1.32358E-01-4.50885E-02 1.20271E-03-1.20714E-03
 -1      8085 1.40831E-01-4.21975E-01 1.21285E-01-1.29443E-02 3.14739E-03-2.17769E-04
 -1      8086 2.54439E-01-6.51280E-01 1.65381E-01-9.26300E-03 1.93871E-03 8.32430E-04
 -1      8087 1.93127E-01-5.32059E-01 1.43348E-01-1.03196E-02 2.41977E-04 2.63827E-03
 -1      8088 1.11556E+00-3.72413E+00 1.11794E+00 1.63157E-01-2.69592E-03-1.37550E-03
 -1      8089 1.07248E+00-3.58668E+00 1.07884E+00 1.58827E-01-2.32038E-03 2.10865E-04
 -1      8090 1.11520E+00-3.72412E+00 1.11608E+00 1.61223E-01 2.65634E-03 6.54504E-04
 -1      8091 1.07464E+00-3.58425E+00 1.07448E+00 1.55378E-01 1.45812E-03 8.49501E-04
 -1      8092 8.88099E-01-2.96577E+00 8.90684E-01 3.03517E-01-2.90322E-05 1.42801E-04
 -1      8093 8.13268E-01-2.71066E+00 8.12794E-01 8.63023E-02-1.94934E-03-5.92931E-04
 -1      8094 7.29240E-01-2.43497E+00 7.32211E-01 1.26012E-01 8.56547E-04-1.06829E-04
 -1      8095 8.13020E-01-2.71102E+00 8.13290E-01 8.85460E-02 1.73813E-03 3.91859E-04
 -1      8096 1.76861E+00-5.89249E+00 1.76540E+00 1.99190E-01-2.52125E-03-6.00061E-04
 -1      8097-5.31321E-01 1.92614E+00-7.26146E-01-2.61691E-01 1.59993E-03 3.81520E-04
 -1      8098-4.77169E-01 1.30511E+00-3.99779E-01-5.00223E-01-7.68160E-02 1.89544E-02
 -1      8099-5.50362E-01 1.91798E+00-6.97455E-01-1.70558E-01-1.50844E-01 2.51769E-02
 -1      8100-5.61057E-01 1.50352E+00-4.31905E-01-1.55721E-01-5.56477E-02 1.28771E-02
 -1      8101 1.55661E+00-5.18864E+00 1.55602E+00 1.19032E-01-2.31188E-03-1.40375E-04
 -1      8102 1.41062E+00-4.70318E+00 1.41242E+00 1.76006E-01 1.66195E-03 3.93362E-04
 -1      8103 1.55631E+00-5.18939E+00 1.55665E+00 1.22754E-01 2.59054E-03 2.00405E-04
 -1      8104 1.15951E+00-3.86520E+00 1.15957E+00 1.60824E-01 1.82612E-03-3.33495E-04
 -1      8105 1.27920E+00-4.26591E+00 1.28085E+00 1.09650E-01-1.85470E-03 5.71605E-04
 -1      8106 1.27995E+00-4.26977E+00 1.28184E+00 1.11745E-01 3.35986E-03-6.37853E-04
 -1      8107 1.03442E+00-3.44856E+00 1.03425E+00 9.73773E-02 1.80932E-03 2.85854E-04
 -1      8108 1.03423E+00-3.44808E+00 1.03434E+00 9.97366E-02-2.52605E-03-2.06642E-04
 -1      8109 9.31580E-01-3.10943E+00 9.34638E-01 1.42414E-01-1.11716E-03 5.38625E-04
 -1      8110-2.67895E-01 7.20702E-01-1.95681E-01-7.31133E-02 2.53560E-03 1.10480E-03
 -1      8111-2.58121E-01 7.02785E-01-1.93233E-01-2.68162E-01 8.36508E-03-2.83421E-03
 -1      8112-2.28851E-01 6.55937E-01-1.92779E-01-4.04303E-01-9.63366E-03-1.26060E-02
 -1      8113-4.31395E-01 1.12544E+00-3.17060E-01-2.31591E-01 7.91449E-03-4.88010E-03
 -1      8114-4.52938E-01 1.39407E+00-4.03646E-01 3.61801E-01 9.54885E-04-2.54748E-03
 -1      8115-3.74080E-01 1.14002E+00-3.29018E-01 3.75673E-01 8.36502E-04-4.64952E-04
 -1      8116 3.26235E-01-8.17627E-01 2.11115E-01 2.55292E-01-2.15204E-03-2.97644E-04
 -1      8117 2.92320E-01 2.23289E+00-1.22890E+00 1.65250E+00 1.22255E-01 5.20447E-02
 -1      8118-5.30976E-01 1.66848E+00-4.87611E-01 5.63616E-01 2.93129E-04 2.17392E-03
 -1      8119 7.41817E-01-9.17052E-01 6.91776E-02 5.47514E-02 8.26018E-03 1.03502E-02
 -1      8120 8.37396E-01-9.69395E-01 6.38987E-02 1.69529E-01 2.07876E-02 1.47355E-02
 -1      8121-6.59253E-01 3.46619E+00-1.19150E+00 2.73928E-02 8.55840E-03 1.19043E-02
 -1      8122-1.14027E+00 5.48380E+00-1.86836E+00 4.13526E-01-1.71524E-02 2.63628E-02
 -1      8123 8.54906E-01-2.85947E+00 8.59925E-01 1.41532E-01-1.99626E-03 6.26433E-04
 -1      8124 8.93094E-01-2.98189E+00 8.94805E-01 1.45290E-01-2.49758E-03-6.98720E-04
 -1      8125 7.11275E-01-2.37779E+00 7.14398E-01 2.70965E-01-2.15723E-04 2.53518E-04
 -1      8126 8.92928E-01-2.98342E+00 8.94089E-01 1.44995E-01 2.69166E-03 1.28130E-04
 -1      8127 8.56437E-01-2.85753E+00 8.56744E-01 1.39078E-01 1.50399E-03 5.09240E-04
 -1      8128 1.89491E-02-1.22461E-01 4.42490E-02 2.18104E-01-4.18567E-04-4.40489E-04
 -1      8129 6.07336E-02-2.44482E-01 7.87431E-02 2.03190E-01-3.36687E-04-2.94240E-06
 -1      8130 1.91016E-02-1.16934E-01 4.19340E-02 2.08955E-01-9.75810E-04-3.75506E-04
 -1      8131 6.70584E-02 1.07659E-01-7.18037E-02-7.09839E-01-3.25207E-03 1.09379E-02
 -1      8132 6.00064E-01-1.99950E+00 5.97776E-01 1.18127E-01-1.97040E-03 1.37081E-03
 -1      8133 5.22910E-01-1.75361E+00 5.26830E-01 1.81957E-01-2.80053E-06-1.09276E-03
 -1      8134 1.04313E-01-3.49726E-01 1.05289E-01 3.34395E-02-5.88510E-04-4.49835E-04
 -1      8135 1.04587E-01-3.48601E-01 1.04130E-01 3.33820E-02 8.29942E-04 5.47700E-04
 -1      8136 1.06738E-01-3.59604E-01 1.07841E-01 5.17396E-02 9.02107E-04 1.94512E-04
 -1      8137 6.62522E-01-2.21275E+00 6.63696E-01 1.22325E-01-1.61641E-03-6.18766E-04
 -1      8138 6.95336E-01-2.32388E+00 6.96683E-01 1.27901E-01-2.48414E-03-6.00168E-04
 -1      8139 5.53481E-01-1.85438E+00 5.57669E-01 2.38999E-01 5.07731E-04-4.91535E-04
 -1      8140 6.95096E-01-2.32212E+00 6.97112E-01 1.28232E-01 2.12272E-03 9.12182E-04
 -1      8141 6.61047E-01-2.21405E+00 6.66174E-01 1.24294E-01 1.60073E-03-3.44450E-04
 -1      8142-3.50341E-01 1.05127E+00-3.00197E-01 2.78822E-01 6.03919E-04-1.14403E-03
 -1      8143 4.00448E-02-1.85270E-01 6.33274E-02 2.62150E-01 5.19799E-04-1.17772E-03
 -1      8144-1.75158E+00 5.70607E+00-1.69454E+00 4.72515E-01-8.68539E-04 1.18896E-03
 -1      8145 1.35073E-01-4.56636E-01 1.38273E-01 5.72486E-02-6.45207E-04 4.73609E-06
 -1      8146 1.51027E-01-5.07714E-01 1.52583E-01 5.96008E-02-8.60106E-04-7.32573E-04
 -1      8147 1.20611E-01-4.11115E-01 1.24403E-01 1.11488E-01 4.01530E-04-1.36681E-04
 -1      8148 1.50383E-01-5.06425E-01 1.52116E-01 5.91815E-02 1.10877E-03 4.54227E-04
 -1      8149 1.35758E-01-4.56277E-01 1.36933E-01 5.63480E-02 4.96453E-04 3.03422E-04
 -1      8150 1.87875E+00-6.26730E+00 1.87905E+00 3.60876E-01 1.50129E-03 9.40852E-04
 -1      8151 8.71239E-02-2.95261E-01 9.00038E-02 4.50154E-02-6.76813E-04-6.03789E-04
 -1      8152-4.79164E-01 1.30111E+00-3.98376E-01-4.99000E-01 7.26589E-02-1.60021E-02
 -1      8153-5.52743E-01 1.92165E+00-7.00553E-01-1.67073E-01 1.54174E-01-2.78547E-02
 -1      8154-5.53593E-01 1.49020E+00-4.31213E-01-1.53779E-01 5.91300E-02-1.73388E-02
 -1      8155 2.56831E-01-6.45532E-01 1.66674E-01-1.52372E-02 5.66974E-03-2.77045E-03
 -1      8156 2.05240E-01-5.68024E-01 1.55822E-01 1.66393E-02 4.04212E-04-9.33195E-04
 -1      8157-7.62215E-02 1.35329E-01-2.53565E-02 9.24879E-02 2.34501E-04-9.12892E-05
 -1      8158-8.55460E-02 1.62982E-01-3.29830E-02 1.00328E-01-1.35331E-04 3.43821E-04
 -1      8159-9.18775E-02 1.62939E-01-3.02271E-02 2.02300E-02-3.12235E-04 2.60168E-04
 -1      8160-9.48666E-02 1.74699E-01-3.38783E-02 3.41406E-02 5.24017E-04-1.43117E-04
 -1      8161-8.85488E-02 1.57116E-01-2.89940E-02 5.34641E-02 2.74215E-04-3.79779E-04
 -1      8162-9.18043E-02 1.62312E-01-3.00482E-02 2.06140E-02 5.90792E-04-2.36743E-04
 -1      8163-5.98809E-01 1.01840E+00-1.78190E-01-2.37489E-01 2.12634E-03-1.55589E-03
 -1      8164 2.14278E+00-7.15403E+00 2.14719E+00 4.41850E-01 1.56075E-03 9.75747E-04
 -1      8165-4.43123E-01 1.06206E+00-2.64419E-01-9.77017E-02-6.47261E-03 3.92097E-03
 -1      8166-6.12866E-01 1.51180E+00-4.04917E-01 5.77039E-02-7.21405E-03 2.19753E-03
 -1      8167 5.22678E-01-1.74914E+00 5.24617E-01 1.10135E-01-1.72348E-03-8.03283E-04
 -1      8168 4.94757E-01-1.65234E+00 4.95942E-01 1.04932E-01-9.53993E-04-7.93195E-04
 -1      8169 5.22764E-01-1.74717E+00 5.24249E-01 1.10231E-01 1.82527E-03 7.73563E-04
 -1      8170 4.93401E-01-1.65395E+00 4.97558E-01 1.06688E-01 1.00212E-03-3.74199E-04
 -1      8171 4.18237E-01-1.40182E+00 4.21582E-01 2.06115E-01 2.92572E-04-4.31158E-04
 -1      8172 4.39180E-01-1.46710E+00 4.39503E-01 1.01276E-01-1.98755E-03 5.41973E-04
 -1      8173 3.82894E-01-1.28751E+00 3.87980E-01 1.56251E-01-5.31701E-04 3.91762E-04
 -1      8174-4.01797E-02 2.71103E-02 5.62727E-03 4.21182E-02 3.71161E-05 2.22822E-04
 -1      8175-3.05532E-02 1.63023E-02 6.29635E-03 4.86338E-02-1.23119E-04 9.10044E-06
 -1      8176-3.25628E-02 1.72510E-02 6.54669E-03 3.93034E-02-9.90749E-05 1.04705E-04
 -1      8177 1.48298E+00-4.94857E+00 1.48457E+00 1.84481E-01 1.58168E-03-5.36254E-05
 -1      8178-5.80890E-01 1.80352E+00-5.23478E-01 1.81097E-01 2.58137E-04-7.83864E-04
 -1      8179-4.76544E-01 1.45822E+00-4.21411E-01 2.53994E-01-4.41821E-04-1.72811E-03
 -1      8180 3.74141E-01-1.25246E+00 3.75247E-01 9.34392E-02-1.92200E-03-4.26989E-04
 -1      8181 3.50467E-01-1.17132E+00 3.51258E-01 8.91559E-02-1.32999E-03-5.66017E-04
 -1      8182 3.74113E-01-1.25122E+00 3.75906E-01 9.31029E-02 2.03092E-03 7.58244E-04
 -1      8183 3.49451E-01-1.17287E+00 3.53587E-01 9.01986E-02 1.60860E-03-1.90443E-04
 -1      8184 2.98514E-01-1.00534E+00 3.02807E-01 1.74874E-01-2.34922E-04-5.95864E-04
 -1      8185 3.03934E-01-1.01596E+00 3.04180E-01 8.38852E-02-1.34774E-03-2.06685E-04
 -1      8186 2.65851E-01-8.92322E-01 2.68189E-01 1.29521E-01-2.04917E-04-1.05476E-03
 -1      8187 5.23327E-01-1.16193E+00 2.73297E-01-4.40340E-02-4.25621E-03-6.58487E-03
 -1      8188-1.08141E-02-5.74285E-04 4.95015E-03 2.09136E-02 1.59790E-05-2.88324E-06
 -1      8189-5.24080E-03-7.52546E-03 5.53089E-03 2.23510E-02 2.78195E-05-2.75056E-06
 -1      8190 2.56720E+00-8.55073E+00 2.56536E+00 2.27189E-01 3.41056E-03 1.60783E-03
 -1      8191-3.38484E-01 9.44585E-01-2.56220E-01 4.21519E-01-4.04666E-03 2.58766E-03
 -1      8192-3.92941E-01 9.63920E-01-2.45784E-01 3.66944E-01 3.82587E-04 4.12796E-03
 -1      8193 9.91897E-01-3.30564E+00 9.90995E-01 1.50426E-01-1.69816E-03-4.42211E-04
 -1      8194 1.28796E+00-5.65298E+00 1.83422E+00 1.20246E-01 1.25892E-02 1.69333E-02
 -1      8195 1.04113E+00-4.37533E+00 1.27948E+00-9.82682E-02-2.77468E-01-3.86266E-02
 -1      8196 2.49346E-01 8.64860E-01-5.59524E-01 1.04762E+00-1.44959E-01-1.09427E-01
 -1      8197 2.50779E-01 1.06714E+00-5.95609E-01 1.23843E+00-2.81215E-01-2.34208E-01
 -1      8198-3.45283E-01 1.50186E+00-5.32622E-01 9.05956E-01-6.34199E-02-3.54341E-02
 -1      8199-2.42018E-03-1.75175E-02 8.50427E-03 3.42818E-02 4.09012E-05-1.05294E-04
 -1      8200 2.00512E-01-7.02821E-01 2.13970E-01 2.74722E-01-9.51556E-04-1.52408E-04
 -1      8201 1.13391E-01-4.23922E-01 1.33216E-01 2.93431E-01-1.06236E-03-1.30190E-04
 -1      8202-9.12549E-01 1.28893E+00-1.27114E-01 1.32737E-01-5.53940E-02 1.16712E-02
 -1      8203-1.73247E+00 1.54357E+00-2.80118E-02-4.89569E-01 1.98551E-02 7.07955E-02
 -1      8204 7.81526E-01-2.61055E+00 7.83305E-01 1.34957E-01 1.05460E-03-1.10920E-04
 -1      8205-1.17581E-01 2.61530E-01-6.19999E-02 9.78596E-02 2.50535E-05 1.37177E-04
 -1      8206-1.23473E-01 2.73496E-01-6.49768E-02 7.36056E-02 1.51954E-04 1.30765E-04
 -1      8207-1.38493E-01 3.23183E-01-7.93040E-02 6.62325E-02 1.88521E-04 3.47491E-05
 -1      8208-4.46687E-01 2.15320E+00-8.84993E-01 2.89539E-01-3.78517E-01-3.09312E-02
 -1      8209-4.37774E-01 2.17850E+00-8.56004E-01 5.44773E-01-3.06031E-01-2.22416E-02
 -1      8210-3.28647E-01 2.27032E+00-9.58824E-01 7.81862E-01-3.11045E-01-4.22226E-02
 -1      8211-1.54741E+00 1.70176E+00-1.36127E-01 3.42944E-01 1.82785E-02-1.09888E-01
 -1      8212-1.75851E+00 1.51964E+00-3.23053E-02-4.98707E-01-3.27911E-02-6.10437E-02
 -1      8213-1.50664E-01-8.09613E-01 4.48249E-01 8.83587E-01 1.47702E-02-3.71410E-02
 -1      8214-4.30509E-02-6.98381E-01 3.41667E-01 6.84303E-01 6.95532E-03-1.29629E-02
 -1      8215 1.63455E-01-9.26406E-01 3.47231E-01 6.20256E-01-7.40837E-04 8.58373E-04
 -1      8216 8.87198E-02-1.07356E+00 4.72164E-01 8.30444E-01-1.04261E-03 2.00123E-03
 -1      8217-1.50672E-01-8.09966E-01 4.48716E-01 8.83455E-01-1.56667E-02 3.75373E-02
 -1      8218-4.28490E-02-6.99324E-01 3.42050E-01 6.84826E-01-8.02650E-03 1.36320E-02
 -1      8219-5.48507E-01 1.72461E+00-5.03779E-01 4.79223E-01 1.65471E-03 9.06800E-04
 -1      8220-2.28493E+00 7.47557E+00-2.22329E+00 2.50595E-01-2.62358E-03 1.51417E-04
 -1      8221-4.52376E-01 1.39944E+00-4.06618E-01 4.30420E-01-1.03542E-03-6.57620E-05
 -1      8222-5.51607E-01 1.72469E+00-5.00495E-01 4.11295E-01-1.47504E-03 1.14320E-03
 -1      8223 4.95976E-01-1.67122E+00 5.03025E-01 2.81271E-01 1.23491E-04-2.11859E-03
 -1      8224-1.85649E+00 6.04335E+00-1.79504E+00 4.51937E-01-1.23889E-03-5.48990E-05
 -1      8225 8.41156E-01-1.56570E+00 3.12557E-01-8.01290E-02-9.55734E-03-6.93660E-03
 -1      8226 3.98197E-01-6.57317E-02-1.45153E-01-4.42921E-01-7.65588E-03 2.18240E-02
 -1      8227 2.08081E-01-1.06502E-01-6.29378E-02-4.69596E-01-1.66273E-02 1.82372E-02
 -1      8228 4.17843E-01-1.87556E-02-1.68236E-01-4.79109E-01-3.25410E-02 3.76601E-02
 -1      8229 2.79343E-01 2.28690E-02-1.26359E-01-4.89342E-01-4.21497E-03 1.66067E-02
 -1      8230 1.54325E-01 7.67009E-02-9.92002E-02-6.39127E-01-9.41112E-03 1.37241E-02
 -1      8231-2.28495E-02 1.82009E-03 8.80717E-03 2.02720E-01 7.18293E-05 1.10231E-03
 -1      8232 1.86167E+00-6.22253E+00 1.87138E+00 2.16110E-01-3.61134E-03 2.17327E-04
 -1      8233 1.91990E+00-6.40884E+00 1.92324E+00 2.20739E-01-3.80866E-03-2.42589E-03
 -1      8234 1.51219E+00-5.04628E+00 1.51423E+00 4.08941E-01-1.06138E-04 7.36677E-04
 -1      8235 1.91776E+00-6.40218E+00 1.92013E+00 2.17981E-01 4.04301E-03 1.68738E-03
 -1      8236 1.86443E+00-6.21780E+00 1.86436E+00 2.11549E-01 1.76758E-03 9.35870E-04
 -1      8237 1.35550E-01-4.86403E-01 1.49127E-01 2.27617E-01 4.60703E-04-1.35357E-03
 -1      8238 8.23172E-02-3.01434E-01 9.46107E-02 1.49375E-01 4.88444E-04-1.48859E-04
 -1      8239 9.50948E-02-3.46734E-01 1.08568E-01 1.95090E-01-3.29596E-05-1.06265E-03
 -1      8240 9.50697E-02-3.48027E-01 1.09882E-01 1.94597E-01 3.47103E-04 1.02033E-03
 -1      8241-1.25818E-01 3.13090E-01-8.02485E-02 2.17490E-01-4.35724E-05 9.94089E-04
 -1      8242-2.11473E-01-2.40216E-01 1.91662E-01-6.35571E-01-1.45413E-03 7.88726E-04
 -1      8243-4.11300E-01-1.60938E-01 2.46630E-01-5.89897E-01 3.08581E-03-8.07034E-05
 -1      8244-4.48887E-01-4.33084E-02 2.10713E-01-6.13425E-01-2.08788E-03-3.78014E-04
 -1      8245 8.21769E-02-3.08809E-01 9.66242E-02 1.82403E-01-3.49687E-04 1.26496E-04
 -1      8246 4.01317E-02-1.80750E-01 6.04867E-02 1.92981E-01-5.27472E-04-1.14831E-04
 -1      8247-7.07329E-02 9.32627E-02-9.44419E-03 1.87556E-02-1.14656E-04 3.45134E-04
 -1      8248-7.46703E-02 1.07697E-01-1.43572E-02 2.59615E-02-2.23904E-04 2.77935E-04
 -1      8249-7.07491E-02 9.33676E-02-9.85634E-03 1.86180E-02 8.66247E-05-1.39349E-04
 -1      8250-1.39398E-01 3.31612E-01-8.16154E-02 8.36091E-02 1.95731E-04-1.24933E-04
 -1      8251-2.35918E-01 6.80921E-01-1.87211E-01-4.99104E-01-1.16339E-02 4.81507E-03
 -1      8252-1.07151E-01 3.46941E-01-1.18950E-01-7.70835E-01-4.63947E-03-3.22138E-03
 -1      8253-9.52282E-02 3.65451E-01-1.19721E-01-6.92414E-01 1.65770E-02 2.80084E-03
 -1      8254-2.11082E-01 6.10494E-01-1.85873E-01-6.45232E-01 3.66945E-03 1.33182E-03
 -1      8255 1.23229E-02-9.97288E-02 3.67001E-02 1.96207E-01 4.36238E-04 5.87104E-04
 -1      8256 8.81509E-03-9.96778E-02 3.85995E-02 3.79654E-01-2.48267E-04-9.68220E-04
 -1      8257 9.61960E-01-3.22704E+00 9.68691E-01 3.93348E-01 5.13973E-04 1.15401E-03
 -1      8258-1.71282E-01 4.65169E-01-1.25825E-01 2.66775E-01-4.27179E-04 1.10596E-04
 -1      8259 7.89909E-01-2.65246E+00 7.97682E-01 3.55419E-01 1.50024E-04 4.03275E-04
 -1      8260-4.25268E-01 1.33701E+00-3.91414E-01 6.49068E-01-8.36955E-04 5.38082E-04
 -1      8261 3.20782E-02-1.59278E-01 5.41111E-02 2.39903E-01 2.15187E-04-3.16910E-04
 -1      8262 8.39429E-02-3.18136E-01 1.00377E-01 2.30267E-01-1.02556E-04 1.91130E-05
 -1      8263 3.08118E-02-1.63165E-01 5.56690E-02 2.50663E-01 3.17911E-04-1.60094E-04
 -1      8264 6.34114E-01-2.13363E+00 6.42072E-01 3.18461E-01-1.60744E-04 2.72232E-03
 -1      8265-2.09480E-01 6.08570E-01-1.71238E-01 5.08708E-01-7.71420E-04-2.55972E-03
 -1      8266 3.23431E-03-1.84133E-02 6.67936E-03 1.67728E-02 1.32431E-04-3.89938E-05
 -1      8267-1.79813E-02 3.86791E-03 5.96223E-03 2.80990E-02-9.61071E-05-6.73945E-06
 -1      8268-1.72409E-02 5.46747E-03 4.98164E-03 2.02254E-02-4.88142E-05-2.35734E-05
 -1      8269-2.72092E-02 1.32154E-02 6.04855E-03 9.55349E-03-1.33513E-04-4.09878E-05
 -1      8270-7.03544E-01 2.21905E+00-6.47349E-01 3.19494E-01-1.04131E-03 1.40342E-03
 -1      8271-8.77013E-01 2.78861E+00-8.19167E-01 2.25581E-01 1.64132E-04 2.18648E-03
 -1      8272-9.88033E-01 3.15688E+00-9.29422E-01 1.85275E-01 1.25339E-04 6.61631E-04
 -1      8273-8.10847E-01 2.56974E+00-7.54429E-01 2.84598E-01-5.27265E-04 4.08518E-05
 -1      8274 5.52471E-02-2.44129E-01 7.99736E-02 3.03540E-01-1.80235E-03 2.55400E-04
 -1      8275 1.90745E+00-6.36322E+00 1.90858E+00 3.73037E-01 2.27684E-03 1.10613E-04
 -1      8276 7.13699E-01-2.43000E+00 7.34943E-01 6.88787E-01 9.24155E-04 2.50021E-03
 -1      8277 2.13000E-01-7.37554E-01 2.25350E-01 2.31714E-01 3.26292E-04-4.36813E-04
 -1      8278 1.26559E-01-3.81880E-01 1.10922E-01 5.75923E-02 1.05309E-03-9.09643E-04
 -1      8279-4.49972E-02 3.55551E-02 4.16730E-03 4.64758E-02 9.00714E-05-9.93500E-05
 -1      8280 3.64803E-01-1.00112E+00 2.77319E-01 4.84519E-01 6.09015E-03 3.85507E-03
 -1      8281 5.18745E-01-1.19970E+00 2.91104E-01 4.54964E-01 1.63330E-03-4.79455E-04
 -1      8282 2.58880E-01-8.17353E-01 2.32555E-01 3.85449E-01 1.68288E-03 3.68489E-03
 -1      8283 4.21978E-01-1.00468E+00 2.49552E-01 3.56916E-01 9.67073E-04-8.70252E-04
 -1      8284-2.43820E-02 8.89341E-03 6.60770E-03 1.58252E-01 1.54545E-04 4.61807E-04
 -1      8285-1.68971E-01 4.83367E-01-1.34864E-01 5.23072E-01-1.57552E-03 6.07423E-04
 -1      8286-7.24307E-02 1.21447E-01-2.09383E-02 8.86935E-02 2.61487E-04-3.43632E-05
 -1      8287-3.83554E-01 7.90201E-01-1.69527E-01-5.60780E-01-5.78742E-03-1.59710E-02
 -1      8288-4.14684E-01 8.66007E-01-1.90021E-01-4.70966E-01-5.22560E-03-5.11787E-04
 -1      8289-2.58133E-01 7.36782E-01-1.93252E-01-5.78852E-01-4.32361E-03-4.81237E-03
 -1      8290-3.10742E-01 7.88095E-01-1.93567E-01-5.35225E-01 8.10887E-04 1.96125E-03
 -1      8291-2.15113E-01 6.68508E-01-1.70533E-01-6.51279E-01-1.00243E-03-1.99478E-02
 -1      8292-1.41744E-01 3.90586E-01-1.06765E-01 4.69323E-01-1.03736E-03 9.33156E-04
 -1      8293-1.75194E-01 4.91672E-01-1.35788E-01 4.57170E-01-2.29154E-03-7.66795E-05
 -1      8294-4.78820E-02 1.86222E-02 1.26694E-02 9.09811E-03-2.95264E-04 3.22975E-04
 -1      8295 3.67681E-01-6.78862E-01 1.41502E-01-4.99788E-01-2.72704E-03 5.40373E-04
 -1      8296 9.99610E-01-3.35684E+00 1.00946E+00 5.12551E-01-1.31824E-03 1.35642E-04
 -1      8297-1.53367E-01 3.67569E-01-9.18488E-02 3.42549E-02-9.18340E-04 4.08125E-04
 -1      8298-1.36712E-01 3.15835E-01-7.74510E-02 4.54180E-02 4.59966E-04-6.38364E-04
 -1      8299-1.53081E-01 3.67986E-01-9.23615E-02 3.48715E-02 8.35842E-04-8.08989E-05
 -1      8300-2.31389E-02 1.09579E-02 5.21856E-03 1.32436E-02-4.80777E-05-8.95858E-06
 -1      8301-3.07150E-01 9.31231E-01-2.65941E-01 4.58657E-01-6.13540E-04 8.10199E-04
 -1      8302-1.41172E-01 3.63976E-01-9.17554E-02-8.16639E-01-5.16792E-04 3.20346E-03
 -1      8303-1.92744E-03 1.74943E-02-2.98562E-03-9.04442E-01 9.83046E-04 6.86216E-04
 -1      8304 1.97578E+00-6.58879E+00 1.97945E+00 2.16763E-01 2.96012E-03 2.19955E-03
 -1      8305 7.37383E-02-2.74999E-01 8.74413E-02 1.71410E-01-5.20513E-04 6.01436E-04
 -1      8306-2.76419E-01 7.12610E-01-1.96574E-01-6.98142E-01-1.39469E-02-1.15300E-03
 -1      8307-3.71903E-01 1.14686E+00-3.31445E-01 5.09389E-01-6.20868E-05 1.11557E-03
 -1      8308 3.42436E-01-1.16374E+00 3.52008E-01 2.83431E-01 1.22601E-04-2.20725E-04
 -1      8309 1.27526E+00-5.27030E+00 1.47471E+00 1.04544E+00-3.02402E-01 3.93906E-02
 -1      8310-9.54073E-02 1.98911E-01-4.43299E-02 1.25932E-01-3.29107E-04-8.57540E-05
 -1      8311-4.27415E-01 1.32683E+00-3.84168E-01 6.37880E-01 1.25416E-03 1.83280E-03
 -1      8312-6.66324E-01 2.11712E+00-6.20164E-01 5.22020E-01 6.14260E-04-1.17514E-03
 -1      8313 2.59524E-01-8.89808E-01 2.68624E-01 2.53823E-01-2.78127E-04 8.71033E-05
 -1      8314 2.12927E+00-7.30359E+00 2.21279E+00 4.78773E-01-1.74531E-03-1.58978E-03
 -1      8315-2.27617E-02 3.67708E-03 9.02186E-03 2.22506E-01-1.05727E-04-3.81283E-04
 -1      8316-1.84510E+00 7.54303E+00-2.43872E+00 8.76243E-01 1.33639E-02 2.26852E-02
 -1      8317-4.47170E-01 1.40308E+00-4.07191E-01 5.61124E-01 6.71603E-04-2.06140E-03
 -1      8318-1.07660E-01 2.39928E-01-5.66207E-02 1.31698E-01 1.27873E-04 4.64234E-05
 -1      8319-6.83221E-01 2.13584E+00-6.23781E-01 7.26995E-02-2.29629E-03-2.18819E-04
 -1      8320-6.10583E-01 1.89661E+00-5.52780E-01 1.12256E-01-1.30817E-03 1.20206E-03
 -1      8321-6.84337E-01 2.13623E+00-6.21334E-01 7.19830E-02 2.17122E-03-5.00121E-04
 -1      8322 7.13459E-01-1.74888E+00 5.15807E-01 5.03234E-01-9.05590E-03-1.51529E-02
 -1      8323 3.83180E-01-9.08607E-01 2.26232E-01 2.56262E-01-2.21520E-03-7.65498E-05
 -1      8324 4.00986E-01-9.09286E-01 2.17564E-01 1.19518E-01-4.65221E-03-4.18319E-04
 -1      8325 3.50260E-01-8.35396E-01 2.06921E-01 2.00465E-01-2.12800E-03 5.68275E-03
 -1      8326-7.92009E-01 2.49961E+00-7.33253E-01 1.28025E-01-1.48724E-03 1.03168E-03
 -1      8327-8.85763E-01 2.80916E+00-8.24449E-01 8.21538E-02-1.47993E-03 8.08434E-05
 -1      8328-7.91948E-01 2.49048E+00-7.29402E-01 1.62066E-01-2.06229E-04-7.00161E-04
 -1      8329-8.85789E-01 2.80688E+00-8.21417E-01 8.17884E-02 1.78395E-03-2.76235E-04
 -1      8330-7.01071E-01 2.19294E+00-6.39778E-01 1.99315E-01-2.74429E-04 7.81165E-05
 -1      8331-1.14089E-01 2.39741E-01-5.36614E-02 4.12101E-02-5.14686E-04 2.13879E-04
 -1      8332-1.24917E-01 2.77269E-01-6.46544E-02 4.36699E-02-8.53963E-04 4.17714E-04
 -1      8333-1.08724E-01 2.28071E-01-5.10483E-02 8.22151E-02-5.72978E-06 4.00843E-04
 -1      8334-1.24609E-01 2.75701E-01-6.49043E-02 4.36844E-02 8.59710E-04-5.00034E-04
 -1      8335-1.13686E-01 2.40657E-01-5.46765E-02 4.16572E-02 6.27974E-04 7.03581E-05
 -1      8336 1.25472E-01-4.43698E-01 1.37077E-01 2.16663E-01 1.46752E-05-2.10950E-04
 -1      8337-6.29190E-02 1.23764E-01-2.62561E-02 2.18697E-01 7.62339E-04 5.18846E-05
 -1      8338-7.33598E-02 1.54233E-01-3.46363E-02 2.24960E-01 7.84285E-04 9.04170E-04
 -1      8339-1.16626E-01 2.80497E-01-7.07162E-02 2.11935E-01 2.97837E-04 6.11364E-04
 -1      8340-1.06555E-01 2.49075E-01-6.10929E-02 2.06938E-01 1.48694E-05 2.94370E-05
 -1      8341 2.49746E-02-1.07930E-01 3.54018E-02 8.70654E-02 2.74981E-04-9.72035E-05
 -1      8342 1.87201E-01-6.52093E-01 2.00354E-01 2.63378E-01-9.09192E-04 8.19061E-05
 -1      8343-4.69492E-02 3.42853E-02 5.22988E-03 3.56223E-02 8.92073E-05 1.24055E-04
 -1      8344 2.15351E+00-7.19159E+00 2.15910E+00 1.84182E-01 2.90339E-03-1.60178E-03
 -1      8345-5.24680E-02 4.51487E-02 3.04109E-03 3.91247E-02 1.04794E-04 1.42732E-04
 -1      8346-4.99783E-02 4.63772E-02 1.66118E-03 5.00556E-02-9.66579E-05 3.32890E-04
 -1      8347 1.78306E-01-6.20893E-01 1.88850E-01 2.12916E-01-8.33143E-04 1.49665E-04
 -1      8348-3.46877E-01 9.48162E-01-2.58461E-01 4.23542E-01 2.75228E-03-4.12658E-03
 -1      8349-2.43639E-01 8.27832E-01-2.51280E-01 4.43853E-01 5.87579E-03-1.53461E-03
 -1      8350-1.54951E-01 8.19293E-01-2.85950E-01 5.95086E-01 3.94795E-03-1.51759E-03
 -1      8351-2.62475E-01 8.91850E-01-2.70834E-01 4.98987E-01 5.60014E-03 8.02416E-04
 -1      8352-2.75682E-01 9.64795E-01-2.97986E-01 5.73205E-01 3.97290E-04-3.15879E-03
 -1      8353-2.14181E-02 3.40600E-05 9.07591E-03 2.75824E-01-1.33168E-05-1.89920E-03
 -1      8354-1.96444E-02-4.23932E-03 1.04979E-02 3.32032E-01-2.15591E-05 6.18815E-04
 -1      8355-1.38226E+00 4.47151E+00-1.32422E+00 4.04734E-01-4.39179E-04 3.01148E-03
 -1      8356-1.25089E+00 4.05880E+00-1.20465E+00 4.66935E-01-9.34597E-04-7.62324E-04
 -1      8357-1.66521E+00 5.41077E+00-1.60530E+00 3.20823E-01-1.15527E-04 1.01161E-03
 -1      8358-1.14113E-01 2.63178E-01-6.38756E-02 1.34573E-01-1.27903E-04-7.23200E-04
 -1      8359-4.00587E-01 1.11678E+00-3.10195E-01 5.53219E-01 4.51467E-05-1.12403E-03
 -1      8360 2.50276E-01-9.42883E-01 2.97276E-01-1.12563E-01-3.71873E-03 1.76212E-02
 -1      8361 2.18789E-01-1.07581E+00 3.75171E-01-1.24184E-01-1.69739E-02 1.67502E-02
 -1      8362-1.27472E+00 4.14205E+00-1.23053E+00 5.95532E-01-1.15364E-03-5.16972E-04
 -1      8363-9.68089E-05 2.98728E-05 2.73195E-05 1.19842E-04 6.14995E-05-9.35883E-05
 -1      8364-2.69431E-04 5.26437E-05 9.93385E-06 1.80808E-04-3.86562E-05 9.56946E-05
 -1      8365-1.06825E-03-2.29788E-04 4.51959E-04-6.84092E-05-4.89041E-05 6.97677E-05
 -1      8366 4.58411E-04-4.54580E-04-6.41451E-05 8.41210E-06-9.13899E-06 3.91499E-06
 -1      8367-1.04626E-03-2.13481E-04 4.41136E-04-5.18501E-05 3.81424E-05-6.24360E-05
 -1      8368-1.07817E+00 3.45805E+00-1.02177E+00 2.52242E-01-1.14200E-03-1.52728E-03
 -1      8369-8.60161E-01 2.74818E+00-8.08146E-01 3.56189E-01 4.95231E-04-2.22073E-03
 -1      8370-1.21173E+00 3.90065E+00-1.15275E+00 2.07562E-01-1.08400E-03-2.82681E-05
 -1      8371-9.90748E-01 3.17350E+00-9.35924E-01 3.18736E-01 1.04297E-03 4.17190E-05
 -1      8372-3.23338E-01 9.35014E-01-2.62178E-01 7.91154E-02-1.19666E-03 1.92713E-05
 -1      8373-3.60890E-01 1.06018E+00-3.00578E-01 5.63843E-02-1.49647E-03-1.51894E-04
 -1      8374-2.84202E-01 8.08508E-01-2.24713E-01 1.26607E-01-6.65991E-04-5.55563E-05
 -1      8375-3.20546E-01 9.29837E-01-2.61369E-01 1.08247E-01 8.19186E-05-1.95788E-04
 -1      8376-3.60150E-01 1.05804E+00-2.98843E-01 5.58495E-02 1.22920E-03 4.10902E-04
 -1      8377-8.76910E-01 2.77748E+00-8.13603E-01 1.13836E-01 1.37866E-03-9.41740E-04
 -1      8378-7.78502E-01 2.45522E+00-7.18991E-01 1.88157E-01-5.14031E-04-2.52446E-03
 -1      8379-1.92729E-01 5.05289E-01-1.34805E-01 9.98375E-02-1.38943E-04-4.84026E-04
 -1      8380-2.44771E-01 6.72272E-01-1.83059E-01 4.33998E-02 1.03552E-03-3.02872E-04
 -1      8381-2.16916E-01 5.82513E-01-1.57235E-01 6.14079E-02-1.94669E-04-1.32553E-04
 -1      8382-2.44781E-01 6.72659E-01-1.83254E-01 4.43780E-02-9.81414E-04 2.02915E-04
 -1      8383-2.19276E-01 5.91330E-01-1.59509E-01 8.65114E-02-6.16527E-04-6.84330E-05
 -1      8384-1.25268E+00 1.22239E+00-1.18542E-02-6.47203E-01-3.00492E-03-4.90628E-03
 -1      8385-1.16707E+00 1.19744E+00-2.20411E-02-6.40856E-01-2.80643E-02-2.43486E-02
 -1      8386 5.71899E-01-3.18689E-02-1.98554E-01-4.83998E-01-3.48344E-02 1.57607E-02
 -1      8387 8.28005E-03-2.88068E-02 8.69248E-03 8.93322E-03-1.53597E-04-2.38520E-04
 -1      8388 1.03575E-02-3.79063E-02 1.16677E-02 1.70502E-02-2.29164E-04 9.38400E-05
 -1      8389 8.08918E-03-2.84171E-02 8.83822E-03 8.94840E-03 1.32625E-04 1.30265E-04
 -1      8390-1.96863E-03-3.26649E-02 1.48438E-02 7.20561E-02 4.67773E-05 1.78371E-04
 -1      8391-1.63938E-03-3.59403E-02 1.64167E-02 8.00497E-02 1.38336E-04-1.36587E-04
 -1      8392 9.74228E-03-5.81300E-02 2.09335E-02 6.52682E-02-1.27099E-04-3.95715E-05
 -1      8393 1.08986E-01-3.94981E-01 1.21340E-01 2.07993E-01 3.86614E-05-8.09130E-04
 -1      8394 1.09236E-01-3.95460E-01 1.21608E-01 2.07695E-01-8.52804E-04 1.20322E-03
 -1      8395 1.20588E-02-8.77377E-02 3.22804E-02 1.45094E-01 2.06417E-04-1.05667E-04
 -1      8396 4.60946E-02-1.81879E-01 5.79658E-02 1.25083E-01 1.51066E-04 4.51529E-04
 -1      8397-3.01602E-01 8.66045E-01-2.40847E-01 7.82598E-02-1.67223E-03 5.94096E-04
 -1      8398-2.82247E-01 7.99430E-01-2.21087E-01 7.46147E-02-1.05647E-03 4.32052E-04
 -1      8399-3.01806E-01 8.66363E-01-2.41962E-01 7.88722E-02 1.44947E-03-8.04776E-04
 -1      8400-2.81383E-01 8.00957E-01-2.23363E-01 7.58148E-02 1.33662E-03-5.47965E-05
 -1      8401-2.49532E-01 6.96777E-01-1.91604E-01 1.47548E-01-2.12191E-04 3.27201E-04
 -1      8402-6.40231E-02 1.21152E-01-2.58913E-02 2.09778E-01 5.59067E-04 3.55911E-04
 -1      8403-4.40988E-01 1.36804E+00-3.96038E-01 4.78249E-01 3.64423E-04-1.66321E-03
 -1      8404-2.76092E-01 1.60758E+00-5.70109E-01-2.93010E-02 3.51866E-03 5.04453E-03
 -1      8405-2.42579E+00 9.80960E+00-3.15991E+00 1.98162E+00-2.44543E-02 2.74786E-02
 -1      8406-2.37591E+00 9.61952E+00-3.10862E+00 1.55973E+00 8.15179E-03 3.08908E-02
 -1      8407-1.54133E+00 7.32593E+00-2.47799E+00 7.91636E-01-1.98535E-02 3.61229E-03
 -1      8408-2.50403E+00 9.86488E+00-3.14120E+00 1.53995E+00 8.62275E-03-1.76950E-03
 -1      8409-1.66709E+00 7.68046E+00-2.53697E+00 1.05695E+00 7.08882E-04 1.48278E-02
 -1      8410-4.40761E-01 1.41171E+00-4.16924E-01 7.57207E-01-1.92614E-03 7.00870E-04
 -1      8411 2.88048E-01-4.16028E-01 5.24499E-02-5.84397E-01-3.22247E-03-6.93746E-03
 -1      8412-4.58238E-01 9.45868E-01-2.07477E-01-1.95647E-01-2.04129E-03-1.21319E-03
 -1      8413-4.55319E-01 9.55664E-01-2.13481E-01 4.38628E-02 3.34424E-03-6.02560E-04
 -1      8414-1.87324E-01 5.00189E-01-1.33863E-01 1.83255E-01-3.90179E-04 9.69715E-04
 -1      8415-2.15908E-01 5.04276E-01-1.32475E-01-9.01700E-01-5.08614E-02 5.57160E-02
 -1      8416-3.84602E-01 1.34908E+00-5.07437E-01-8.04380E-01-1.28650E-01 9.57191E-02
 -1      8417-1.07329E+00 4.24434E+00-1.21513E+00 4.07915E-02 2.72372E-01-1.47536E-02
 -1      8418-1.35276E+00 5.74690E+00-1.84539E+00 4.23219E-01-1.96743E-02 9.43277E-03
 -1      8419-3.95422E-01 1.07279E+00-2.88629E-01 4.97094E-01 3.38705E-04 1.24453E-03
 -1      8420-4.72357E-02 3.07001E-02 7.05336E-03 2.84987E-02 4.44832E-05-1.39158E-04
 -1      8421-1.01369E-02-1.80053E-02 1.21116E-02 7.91627E-02 2.89847E-04 3.28271E-04
 -1      8422-1.01734E-02-1.89935E-02 1.21116E-02 7.98139E-02-4.71139E-05-4.38499E-04
 -1      8423-2.19123E-02 2.97991E-03 8.24655E-03 8.77333E-02-9.47497E-05-2.18375E-04
 -1      8424 2.55655E-01-6.47251E-01 1.66717E-01-1.49134E-02-1.13806E-03-1.99096E-04
 -1      8425-2.00366E-01 5.27857E-01-1.40091E-01 6.16829E-02-8.23610E-04 4.86774E-04
 -1      8426-1.84467E-01 4.76983E-01-1.25707E-01 5.85525E-02-4.34635E-04-1.21798E-04
 -1      8427-2.00236E-01 5.28498E-01-1.40013E-01 6.16811E-02 1.14424E-03-1.68849E-04
 -1      8428-1.84922E-01 4.76705E-01-1.24609E-01 5.79003E-02 4.80603E-04-1.52995E-04
 -1      8429-1.67891E-01 4.26595E-01-1.10863E-01 1.15226E-01 3.06952E-04 2.40114E-05
 -1      8430-4.51562E-01 1.38087E+00-3.97413E-01 3.07527E-01-2.28745E-03 3.37066E-04
 -1      8431-9.97058E-01 3.18473E+00-9.38717E-01 1.43556E-01 1.43797E-03 2.30849E-04
 -1      8432-1.11149E+00 3.55905E+00-1.04787E+00 9.38753E-02-2.03464E-03 4.81730E-04
 -1      8433-1.11278E+00 3.56605E+00-1.05187E+00 9.29049E-02 1.90162E-03-8.83768E-04
 -1      8434 2.05376E-01-8.69124E-01 2.93336E-01 5.36402E-01-1.29774E-03 1.77752E-03
 -1      8435-2.56694E-02-5.30183E-01 2.44180E-01 4.89011E-01 2.70370E-03-6.18863E-03
 -1      8436 1.24961E-01-6.94311E-01 2.41712E-01 4.33483E-01-1.52085E-03 1.10563E-03
 -1      8437-2.60263E-01 7.44063E-01-2.07362E-01 2.25755E-01-1.06507E-03 7.75649E-05
 -1      8438 1.04405E+00-2.88325E+00 5.27580E-01-2.97995E-01 1.23054E-01 1.42716E-02
 -1      8439 1.21679E+00-2.64210E+00 3.62316E-01-2.20325E-01 1.07919E-01 4.10537E-02
 -1      8440-2.09934E-01 1.15721E+00-4.14184E-01 6.17520E-01 2.35332E-03 1.50918E-03
 -1      8441-2.51926E-02 1.11764E-02 6.02931E-03 2.70721E-02-6.04659E-05 3.82723E-06
 -1      8442-3.38833E-02 1.89590E-02 6.37975E-03 3.02066E-02-1.40940E-04-7.73394E-05
 -1      8443 4.46030E-01-1.49980E+00 4.51586E-01 2.16170E-01 4.07034E-04-1.76820E-05
 -1      8444-4.02919E-01 1.20401E+00-3.42607E-01 9.14034E-02-4.91281E-04 2.08487E-04
 -1      8445-4.28165E-01 1.28755E+00-3.67444E-01 9.51471E-02-1.33171E-03 6.23007E-04
 -1      8446-3.49852E-01 1.02930E+00-2.91014E-01 1.79214E-01-7.05652E-04-1.69762E-04
 -1      8447-4.28381E-01 1.28840E+00-3.67814E-01 9.61224E-02 1.04302E-03-6.68868E-04
 -1      8448-4.02059E-01 1.20521E+00-3.44706E-01 9.26700E-02 4.94121E-04 5.46696E-04
 -1      8449 9.25991E-01-1.24818E+00 1.09911E-01-5.96990E-03 1.07222E-01 2.78274E-02
 -1      8450 2.23570E-01-1.06725E+00 2.85398E-01 1.27421E-01 8.48502E-02 2.50803E-02
 -1      8451-1.47368E+00 6.55603E+00-2.19768E+00 8.37908E-01 3.28015E-02-5.11228E-03
 -1      8452-1.69100E-01 4.47567E-01-1.19262E-01 1.75408E-01 3.98513E-04 9.19169E-04
 -1      8453-2.30554E-01 6.33452E-01-1.72769E-01 1.40485E-01 1.40443E-04 5.63290E-04
 -1      8454 3.17068E-01-1.18529E+00 3.77600E-01 1.69939E-01-2.96130E-03 2.21397E-03
 -1      8455-8.16555E-02 1.86310E-01-4.56780E-02 2.72490E-01-6.19158E-04 2.25380E-04
 -1      8456-8.24754E-02 1.84753E-01-4.49151E-02 2.63750E-01-3.78888E-04-1.26469E-03
 -1      8457-1.43878E-01 3.78217E-01-1.00431E-01 2.56824E-01-3.76381E-04-4.12205E-04
 -1      8458-2.28378E-01 6.82444E-01-1.96357E-01 6.81173E-01-1.85835E-03 1.59524E-03
 -1      8459-2.69210E-01 8.06809E-01-2.31523E-01 6.72665E-01-1.30915E-03-1.39810E-03
 -1      8460 3.91334E-02 1.14764E-01-6.16741E-02 8.23734E-03 9.72985E-04 6.93232E-03
 -1      8461-7.84108E-04-1.51306E-02 6.68927E-03 2.42916E-02-5.92533E-05-1.22556E-04
 -1      8462 4.68864E-03-1.92600E-02 6.41365E-03 9.60020E-03 8.66043E-05 4.57237E-05
 -1      8463-1.58365E-01 4.22844E-01-1.13250E-01 2.61333E-01-1.37306E-05 1.06538E-03
 -1      8464 3.81727E-01-1.28982E+00 3.88046E-01 2.42035E-01 4.75270E-04 7.03745E-05
 -1      8465-1.69399E-01-8.26509E-01 4.72712E-01 9.55207E-01 7.72320E-02-8.74598E-02
 -1      8466-1.69380E-01-8.27519E-01 4.73102E-01 9.55261E-01-7.72909E-02 8.73405E-02
 -1      8467-5.19207E-01 1.38694E+00-3.76828E-01 6.05578E-01-2.79913E-04 3.02948E-03
 -1      8468-1.09445E+00 3.50944E+00-1.03408E+00 1.29325E-01-1.51818E-03 3.92683E-05
 -1      8469-9.70719E-01 3.09778E+00-9.11516E-01 2.15974E-01-4.26836E-05 2.97167E-04
 -1      8470-1.41392E-01-2.48582E-01 1.63322E-01-6.72548E-01-7.33042E-03 1.66405E-03
 -1      8471-4.12975E-01-1.61605E-01 2.47569E-01-5.92302E-01-3.50076E-03 1.53962E-05
 -1      8472-3.92940E-01-3.83732E-02 1.81865E-01-6.49336E-01-8.46306E-03 7.89912E-04
 -1      8473-1.68972E+00 5.49587E+00-1.62935E+00 2.84812E-01-1.84250E-03 1.80210E-03
 -1      8474 1.13292E-01-4.00710E-01 1.23364E-01 1.71716E-01 2.77865E-04-8.74248E-05
 -1      8475 1.48527E-01-5.12564E-01 1.55427E-01 1.58491E-01 8.19804E-04 8.59773E-05
 -1      8476-1.91803E-01 5.36131E-01-1.47392E-01 3.08465E-01 3.44363E-04-8.44836E-05
 -1      8477-1.04166E-01 2.62988E-01-6.83879E-02 3.25871E-01 1.08241E-04 4.53253E-04
 -1      8478-1.05525E-01 2.58509E-01-6.68052E-02 3.17881E-01-3.64429E-04-4.89616E-04
 -1      8479-3.49678E-01 1.03992E+00-2.94864E-01 2.64456E-01 2.04765E-04-1.14407E-03
 -1      8480-6.46619E-02 9.57952E-02-1.34158E-02 8.01935E-02-3.81406E-05-7.65307E-05
 -1      8481-5.92811E-02 8.70728E-02-1.12179E-02 9.27589E-02 2.89289E-04-4.29541E-04
 -1      8482-4.22174E-02 4.54137E-02-1.26327E-03 9.04019E-02 1.96491E-04-5.25617E-05
 -1      8483-3.55569E-02 3.27893E-02 5.72705E-04 1.00920E-01-2.42777E-04-1.68724E-04
 -1      8484-4.23406E-02 4.52723E-02-1.80972E-03 9.12647E-02-3.33544E-04 2.99263E-04
 -1      8485 3.66606E-01-6.72335E-01 1.38032E-01-5.03216E-01 3.24408E-03 7.55669E-04
 -1      8486-3.79366E-02 3.86503E-02-4.58351E-04 1.03311E-01 7.56594E-05-2.55835E-04
 -1      8487-2.38310E-02 7.08693E-03 7.31399E-03 1.11604E-01 7.52636E-05 4.89761E-05
 -1      8488-5.80226E-01 1.79564E+00-5.21331E-01 1.10934E-01-2.19155E-03 7.87059E-04
 -1      8489-5.50574E-01 1.70124E+00-4.93899E-01 1.08229E-01-1.76720E-03-4.23267E-04
 -1      8490-5.81879E-01 1.80022E+00-5.20524E-01 1.11502E-01 2.51845E-03-8.34050E-04
 -1      8491-5.52117E-01 1.69949E+00-4.91113E-01 1.07532E-01 2.02492E-03-4.79636E-04
 -1      8492-4.73309E-01 1.44231E+00-4.14932E-01 2.09102E-01 2.16969E-04-1.36762E-03
 -1      8493 1.41006E-01-4.96032E-01 1.52625E-01 1.91151E-01 2.53263E-04-3.38335E-04
 -1      8494 1.65407E-01-5.65268E-01 1.71857E-01 1.64718E-01 7.38233E-04-1.24439E-04
 -1      8495 6.78485E-02-2.44789E-01 7.63306E-02 1.12508E-01-6.05276E-05 6.56915E-04
 -1      8496-1.32649E-02 3.69554E-03 4.02694E-03-3.92946E-03-1.48246E-04 9.92560E-05
 -1      8497-3.55860E-03-1.89814E-03 2.30888E-03-3.19728E-03 5.69240E-04-3.50687E-04
 -1      8498-8.08513E-03 1.89631E-03 2.67982E-03-1.44978E-03 1.43306E-04 9.11088E-05
 -1      8499-3.95973E-03-1.68165E-03 2.35024E-03-3.31524E-03-4.84105E-04 4.75775E-04
 -1      8500 4.16139E-01-1.40520E+00 4.24830E-01 2.51230E-01 5.05828E-04-1.95051E-03
 -1      8501-5.24254E-02 4.05704E-02 5.04721E-03 3.03099E-02-1.75907E-06 2.55313E-04
 -1      8502-1.25792E-01 3.11287E-01-7.83989E-02 1.87286E-01 1.06712E-06 5.63537E-04
 -1      8503 9.41233E-01-1.56795E+00 2.71123E-01 2.64288E-01 1.01832E-03 3.35928E-03
 -1      8504 8.51605E-01-1.48742E+00 2.75827E-01 1.91859E-01-8.23646E-04 3.66451E-05
 -1      8505 8.95332E-01-1.41088E+00 2.24776E-01 1.88546E-01-9.76629E-06 5.60799E-03
 -1      8506 8.82076E-01-1.46883E+00 2.51440E-01 2.00695E-01 1.14288E-03-1.89410E-03
 -1      8507 6.46027E-01-8.50928E-01 1.02130E-01 2.03896E-01 2.43336E-03-3.20501E-02
 -1      8508 1.49198E+00-6.61198E+00 2.19843E+00 5.17495E-01-2.75352E-02 1.83023E-05
 -1      8509 1.25943E+00-5.63866E+00 1.86706E+00 2.00445E-01-1.71871E-03 4.11585E-03
 -1      8510 1.78180E+00-7.73402E+00 2.53920E+00 8.44091E-01-9.39125E-03 7.70792E-03
 -1      8511-7.56814E-01 2.38488E+00-6.96950E-01 1.28254E-01-1.98300E-03 5.81264E-04
 -1      8512-7.23340E-01 2.27234E+00-6.62986E-01 1.23093E-01-2.96950E-04 4.79258E-04
 -1      8513-7.57906E-01 2.38789E+00-6.97582E-01 1.29349E-01 1.50759E-03-7.60308E-04
 -1      8514-7.22122E-01 2.27413E+00-6.65721E-01 1.25089E-01 6.60718E-04 9.31838E-04
 -1      8515-6.13369E-01 1.90743E+00-5.54337E-01 2.41329E-01-6.41574E-04 1.73847E-05
 -1      8516-1.22724E+00 3.95468E+00-1.17099E+00 1.60398E-01-1.73745E-03-2.86713E-04
 -1      8517-1.36555E+00 4.40879E+00-1.30432E+00 1.05601E-01-2.48791E-03 7.40936E-04
 -1      8518-1.36547E+00 4.40723E+00-1.30282E+00 1.04254E-01 2.00553E-03-1.37499E-04
 -1      8519-2.60009E-01 1.00896E+00-3.21223E-01 6.50521E-01 2.76722E-04-6.16432E-03
 -1      8520-2.36511E-01 6.73129E-01-1.86880E-01 2.18009E-01-5.03213E-04 8.10627E-04
 -1      8521 8.64609E-01-1.59364E+00 3.22923E-01 3.28784E-01-9.51053E-05 5.07688E-03
 -1      8522-1.39305E+00 6.05462E+00-1.88154E+00 1.12448E+00-4.31905E-02 4.70045E-02
 -1      8523-1.02975E+00 4.67885E+00-1.23892E+00 6.09578E-01 1.98673E-01-5.39294E-03
 -1      8524 4.24102E-01-4.24199E-01-1.72436E-03-2.75094E-01 3.96677E-03 4.84877E-03
 -1      8525 6.64226E-01-9.82406E-01 1.38142E-01-2.86044E-02 4.58965E-03 3.46917E-03
 -1      8526 5.94562E-01-5.90875E-01-3.53290E-03-7.87913E-02 7.77754E-03 1.20828E-02
 -1      8527 7.35542E-01-9.99633E-01 1.11750E-01 2.03619E-02 4.72275E-04 3.82525E-03
 -1      8528 6.79732E-01-1.31368E+00 2.72597E-01 1.71070E-01 4.52835E-04-1.12754E-03
 -1      8529-4.59795E-01 1.44772E+00-4.23269E-01 7.11952E-01-2.56780E-03 2.87451E-03
 -1      8530-4.61926E-02 7.56915E-02-1.14291E-02 7.45998E-01-9.60370E-04 1.92225E-03
 -1      8531 3.27990E-01-7.16752E-01 1.77619E-01-6.27399E-01 4.13423E-03-2.65862E-03
 -1      8532 2.87404E-01-4.11832E-01 5.11048E-02-5.80728E-01 1.60298E-03 5.85401E-03
 -1      8533-3.77548E-01 9.10904E-01-2.24147E-01 2.95230E-01 1.23091E-03-1.31295E-03
 -1      8534-4.66892E-01 9.66559E-01-2.12374E-01 1.65045E-01 2.90474E-03 1.00457E-03
 -1      8535-7.26164E-01 2.97533E+00-5.20061E-01-3.91380E-01-1.22123E-01-1.64844E-03
 -1      8536-1.25030E+00 6.06385E+00-1.94737E+00 1.86335E+00-4.88620E-02 7.37249E-02
 -1      8537-3.22479E-01 1.11705E+00-3.43783E-01 6.73739E-01 7.75001E-03 2.51313E-03
 -1      8538-2.04729E-01 9.18937E-01-3.09903E-01 6.41886E-01-2.34957E-03 1.41332E-03
 -1      8539-2.38631E-02 1.06224E-02 5.53874E-03 2.14481E-03 3.63567E-05 4.64306E-05
 -1      8540-4.76475E-01 1.61568E+00-6.01567E-01-5.81775E-01-1.43587E-01 4.85864E-02
 -1      8541-5.08083E-01 2.45284E+00-1.08175E+00-3.38527E-01 1.83515E-02-4.65341E-04
 -1      8542-4.10699E-01 1.55483E+00-6.27957E-01-6.77843E-01 1.26334E-02-3.60922E-03
 -1      8543-5.06991E-01 1.54605E+00-4.45142E-01 6.62546E-02-1.53343E-03 3.53298E-04
 -1      8544-4.92519E-01 1.50027E+00-4.30717E-01 1.04460E-01 1.10544E-03-4.11127E-05
 -1      8545-4.32264E-01 1.30253E+00-3.72817E-01 1.63159E-01 2.47174E-04-1.42957E-03
 -1      8546-4.50155E-01 1.35388E+00-3.87340E-01 1.30314E-01-3.26729E-04-2.26823E-04
 -1      8547-5.06463E-01 1.54474E+00-4.43185E-01 6.68467E-02 1.42058E-03-5.48188E-05
 -1      8548-5.15149E-01 1.13846E+00-2.72052E-01 3.37617E-01 1.64113E-02-3.20656E-03
 -1      8549-5.35941E-01 1.22442E+00-3.00075E-01 2.56812E-01 8.92504E-03 1.99775E-02
 -1      8550-4.54168E-03-2.29677E-03 4.15141E-03-4.54588E-03 1.10352E-04 1.00070E-04
 -1      8551-2.43692E-01 6.70919E-01-1.82527E-01 6.92675E-02-7.69853E-04 2.66044E-04
 -1      8552-2.16456E-01 5.85498E-01-1.57342E-01 1.08890E-01-4.15577E-04 4.47232E-04
 -1      8553 6.68379E-01-2.19106E+00 6.38965E-01 5.49527E-01-1.18575E-01 3.80717E-02
 -1      8554-6.79019E-01 2.15630E+00-6.32969E-01 6.05489E-01 9.73146E-04 2.08357E-03
 -1      8555 6.51806E-04-4.83352E-04-7.08905E-05-6.34200E-05-7.44125E-05 8.18411E-06
 -1      8556 5.26001E-04-4.35371E-04-5.69875E-05-4.72746E-04 2.24438E-05 2.92885E-05
 -1      8557 1.31108E-03-2.92700E-04-4.33600E-04 2.38694E-04-7.35722E-06 3.39763E-06
 -1      8558 1.63232E-04-2.28775E-04-2.34389E-05-4.44224E-04 4.14697E-08-5.15134E-07
 -1      8559-9.22820E-05-5.10955E-04 2.29269E-04-6.91439E-04-1.60396E-05 8.41926E-06
 -1      8560 6.72571E-04-4.80778E-04-7.90491E-05-5.82818E-05 6.56572E-05-1.49578E-05
 -1      8561 5.27265E-04-4.30516E-04-6.00318E-05-4.75050E-04-2.40142E-05-3.08239E-05
 -1      8562-1.18166E-04-5.11381E-04 2.49442E-04-6.60047E-04 2.42539E-05-2.10796E-05
 -1      8563-1.89635E-01 6.42596E-01-1.53378E-01-8.55720E-01 8.35037E-02-6.35962E-02
 -1      8564-2.42013E-02 1.11133E-02 5.68067E-03 2.00697E-02 4.31038E-06-3.77118E-05
 -1      8565-6.96261E-02-2.36417E-01 1.24585E-01-7.46620E-01-1.31971E-02 2.63853E-03
 -1      8566-3.50112E-01 1.35369E-02 1.41194E-01-7.13009E-01-8.88565E-03 6.20761E-03
 -1      8567 5.87750E-01-7.36819E-01 7.66829E-02-7.01663E-01 9.48436E-03 7.57030E-03
 -1      8568 3.97883E-01-6.51356E-01 1.05776E-01-6.39931E-01-1.06251E-02 3.12786E-02
 -1      8569 8.41395E-01-1.07730E+00 8.77763E-02-4.29009E-01 1.15961E-02 1.34064E-02
 -1      8570 8.53358E-01-1.07617E+00 1.93928E-02-7.90812E-01 7.31688E-02-1.39488E-02
 -1      8571 6.11692E-01-7.08255E-01 5.92315E-02-8.10978E-01-1.62948E-02 4.68465E-02
 -1      8572 2.37541E-01-3.28452E-01 1.79131E-02-9.70815E-01-7.02333E-03 5.10765E-03
 -1      8573-1.34302E+00 4.32882E+00-1.27928E+00 1.42578E-01-1.22059E-03 7.90337E-04
 -1      8574-1.18540E+00 3.81445E+00-1.12586E+00 2.39245E-01 2.33598E-04 9.53567E-04
 -1      8575-2.69918E-01 7.94098E-01-2.24118E-01 3.62922E-01-2.14089E-04 1.60071E-03
 -1      8576-1.75602E-01 4.79255E-01-1.29355E-01 2.33756E-01-4.02159E-04-1.15028E-03
 -1      8577-6.91984E-01 1.08875E-01 2.50672E-01-5.05550E-01-1.39989E-03 8.44469E-03
 -1      8578-8.01074E-01 1.74415E-01 2.63256E-01-4.36925E-01 2.16189E-03-5.32756E-03
 -1      8579-6.52740E-01 1.13669E-01 2.28541E-01-5.51333E-01-3.40224E-03-6.49905E-04
 -1      8580-6.45527E-01 1.80325E-01 1.80753E-01-5.32744E-01 8.63853E-03-1.12090E-02
 -1      8581-5.26179E-01 1.15202E-01 1.68847E-01-6.12394E-01 5.24907E-03 3.63879E-03
 -1      8582-2.28543E+00 7.47868E+00-2.22629E+00 2.53783E-01 5.44132E-03-7.97819E-04
 -1      8583-1.69092E+00 5.50219E+00-1.63245E+00 3.29508E-01-8.66562E-05-1.01052E-03
 -1      8584-3.74219E-01 9.06733E-01-2.26958E-01 3.02885E-01 7.65777E-04-3.33936E-03
 -1      8585-2.20992E-02 3.19261E-03 8.07495E-03 8.82757E-02 1.38894E-04 1.88406E-04
 -1      8586-1.92694E+00 6.27262E+00-1.86190E+00 1.63345E-01-2.69558E-03 1.39719E-03
 -1      8587-1.92317E+00 6.27633E+00-1.86426E+00 1.66000E-01 3.38142E-03 1.89945E-03
 -1      8588-1.94608E+00 6.34450E+00-1.88379E+00 1.30109E-01 2.30191E-03 1.01484E-03
 -1      8589-1.41345E-02 5.84190E-03 3.47777E-03 2.61507E-03 8.58238E-06 2.00025E-05
 -1      8590-8.92676E-03 3.32445E-03 2.34487E-03 1.09047E-04 9.22419E-05 5.31151E-05
 -1      8591 4.39702E-01-4.28764E-01-5.88354E-03-2.69481E-01-2.90597E-03-7.56780E-03
 -1      8592 6.04931E-01-5.84256E-01-2.49740E-03-9.14078E-02-2.67003E-03-6.43572E-03
 -1      8593-5.01054E-01 3.33067E+00-1.31960E+00 7.62773E-01 9.21283E-03 1.94137E-03
 -1      8594-5.59418E-01 3.32034E+00-1.29870E+00 4.37477E-01-4.70148E-01-1.58734E-01
 -1      8595-6.16858E-01 1.94961E+00-5.71675E-01 5.93098E-01-8.95429E-04 4.27933E-05
 -1      8596 2.54048E-01 2.97601E-02-1.10733E-01-5.39594E-01 1.10592E-02-4.89903E-02
 -1      8597 3.43683E-02 1.74192E-01-9.22940E-02-6.53689E-01-4.25922E-03-1.39092E-02
 -1      8598-4.15128E-01 8.66534E-01-1.89310E-01-4.70837E-01 5.79134E-03 1.84084E-03
 -1      8599-3.80892E-01 7.90276E-01-1.72833E-01-5.62510E-01 5.32412E-03 1.52272E-02
 -1      8600-2.58379E-01 7.38727E-01-1.94944E-01-5.78901E-01 5.30210E-03 6.47261E-03
 -1      8601-2.06867E-01 6.65524E-01-1.80914E-01-6.52583E-01-5.73364E-04 2.30928E-02
 -1      8602-1.41198E+00 4.57036E+00-1.35532E+00 3.82614E-01 6.14212E-04-9.20812E-04
 -1      8603-1.71715E+00 5.57851E+00-1.65556E+00 2.59456E-01-1.34351E-03-1.03297E-03
 -1      8604-1.48468E+00 4.81051E+00-1.42580E+00 1.76220E-01-1.51349E-03-1.43905E-03
 -1      8605-1.64606E+00 5.34519E+00-1.58573E+00 1.16504E-01-2.05101E-03 4.81502E-04
 -1      8606-1.45804E+00 4.71992E+00-1.39876E+00 2.30640E-01-4.23020E-04-2.56266E-04
 -1      8607-1.64514E+00 5.33789E+00-1.58145E+00 1.16696E-01 2.51454E-03-4.19895E-04
 -1      8608-1.30123E+00 4.20249E+00-1.24360E+00 2.79213E-01-5.93879E-04-2.44277E-03
 -1      8609-1.00126E-01 2.41391E-01-6.51855E-02-8.89036E-01-2.26102E-03-1.03698E-03
 -1      8610-3.16736E-01 9.31589E-01-2.62193E-01 2.14253E-01-9.61849E-04 3.54284E-04
 -1      8611-5.90570E-01 1.85263E+00-5.42554E-01 4.53572E-01 1.35009E-03 1.00767E-03
 -1      8612-3.41177E-01 8.79899E-01-2.28632E-01-2.66954E-01-5.51842E-05-2.86786E-04
 -1      8613-3.23773E-01 8.78859E-01-2.38942E-01-8.91227E-02 1.56181E-03 1.02834E-03
 -1      8614-3.70344E-01 9.02146E-01-2.28639E-01-4.38883E-02-1.35690E-03-5.78408E-04
 -1      8615 4.38636E-01-1.04790E+00 2.80040E-01-5.56270E-01-5.46306E-02-2.25276E-02
 -1      8616 3.52395E-01-1.25113E+00 4.72038E-01-7.21345E-01-9.57251E-02-4.44619E-02
 -1      8617-1.39193E-03 1.71030E+00-6.12289E-01 1.14269E+00-1.06382E+00-5.39239E-01
 -1      8618-1.98363E+00 6.46718E+00-1.92113E+00 1.66065E-01-3.19164E-03 2.11481E-04
 -1      8619-1.98369E+00 6.46404E+00-1.91923E+00 1.68363E-01 4.77413E-03-6.12563E-04
 -1      8620-2.01176E+00 6.56315E+00-1.95108E+00 1.72226E-01 2.80613E-03-9.44752E-04
 -1      8621-6.10955E-01 2.22135E+00-8.06364E-01 1.77487E-01 1.96577E-01-9.51305E-03
 -1      8622-6.21728E-01 1.71406E+00-5.05886E-01 1.68600E-01 8.51027E-02-1.29363E-02
 -1      8623-2.37534E-01 6.83074E-01-1.89439E-01 2.81468E-01 3.74084E-04-1.08772E-03
 -1      8624-1.97471E-02 9.13670E-03 4.57649E-03 6.14147E-03-9.11204E-05 6.22179E-05
 -1      8625-5.31780E-01 1.66970E+00-4.88089E-01 6.64166E-01 3.78790E-04 8.63761E-04
 -1      8626 1.22562E-03-1.00233E-03-2.32954E-05-1.65972E-04-9.09136E-05-7.96344E-05
 -1      8627 1.23722E-03-1.00857E-03-3.42268E-05-1.70946E-04 7.88739E-05 8.28911E-05
 -1      8628-2.29060E-01 6.38514E-01-1.74946E-01 1.76860E-01-5.23439E-04 4.14401E-04
 -1      8629-5.59034E-02 7.16587E-02-7.20432E-03 8.11429E-02 2.43307E-04-1.06451E-04
 -1      8630-3.33898E-02 2.65261E-02 3.25999E-03 8.86229E-02-5.20148E-05 1.45543E-04
 -1      8631-3.37171E-02 2.66164E-02 3.04920E-03 8.85563E-02 2.50707E-04-1.25796E-04
 -1      8632-1.57369E-01 4.00235E-01-1.03299E-01 1.39009E-01 1.95241E-04-8.06819E-04
 -1      8633 7.80598E-01-4.10620E-01-1.23876E-01-1.35387E-01-2.02763E-02-3.01023E-02
 -1      8634 8.26787E-01-1.11333E+00 1.16511E-01 2.67617E-01-8.30794E-05-2.25231E-02
 -1      8635-2.09648E-01 5.90542E-01-1.63203E-01 3.12855E-01 1.36351E-04 9.89524E-04
 -1      8636-5.09685E-01 2.54914E+00-8.07511E-01-6.76935E-01 3.26301E-01 6.97412E-04
 -1      8637-1.89412E-01 1.82610E-01-6.46943E-03-9.02570E-01 2.55574E-02-2.29721E-03
 -1      8638-4.22748E-01 3.33376E-01 4.43177E-02-7.07259E-01 2.34009E-03-3.55920E-03
 -1      8639-2.11310E-01-4.52167E-03 8.85368E-02-8.24338E-01 1.34962E-02-4.77195E-03
 -1      8640-4.65239E-01 1.63058E-01 1.21018E-01-6.73465E-01 1.25639E-02-6.06618E-03
 -1      8641-4.18800E-01 2.94266E-01 4.77915E-02-7.05058E-01 6.43168E-03-4.39495E-03
 -1      8642-6.88693E-01 2.19556E+00-6.43347E-01 6.26654E-01 1.05889E-03-1.79289E-03
 -1      8643-9.62312E-01 3.07311E+00-9.05732E-01 3.47059E-01 1.35266E-03 2.96110E-04
 -1      8644-1.26698E-01 6.50102E-01-2.27485E-01 3.92321E-01-6.41949E-03-4.25887E-03
 -1      8645-2.81170E-01 8.46522E-01-2.40413E-01 3.89883E-01-3.44939E-03 1.11642E-03
 -1      8646 1.79775E+00-6.83788E+00 2.15162E+00 5.62048E-01 4.68761E-03-4.53946E-04
 -1      8647 1.80243E+00-6.83622E+00 2.14610E+00 5.55176E-01-4.37631E-03 3.83670E-04
 -1      8648-2.26771E-02 6.53824E-03 6.89189E-03 4.49157E-02-1.22865E-04 1.48529E-05
 -1      8649-9.92833E-03-2.19243E-02 1.31103E-02 8.73090E-02-9.46218E-05-1.39746E-04
 -1      8650-1.01771E-02-2.22891E-02 1.36602E-02 8.75974E-02 2.54224E-04-1.97782E-04
 -1      8651-4.98533E-01 1.56093E+00-4.56063E-01 5.47210E-01 1.37036E-03-1.69921E-04
 -1      8652 2.64263E+00-8.81835E+00 2.64532E+00 2.30866E-01 2.57851E-03-5.07310E-04
 -1      8653-2.53277E-01 7.18022E-01-2.00180E-01 1.87831E-01-7.55238E-04-9.70022E-04
 -1      8654-3.12087E-01 9.07996E-01-2.54946E-01 1.35344E-01-2.64601E-05-7.08397E-04
 -1      8655-2.65091E-01 7.51543E-01-2.08406E-01 1.62477E-01-4.41123E-04 6.53716E-05
 -1      8656-1.82746E-01 4.78712E-01-1.26963E-01 1.28712E-01 1.42483E-04-4.33567E-05
 -1      8657 8.00993E-01-1.67900E+00 3.95659E-01 3.85011E-01 1.99477E-02 7.78618E-03
 -1      8658 8.16860E-01-1.51701E+00 3.08561E-01 2.46998E-01-5.36085E-03-5.84635E-04
 -1      8659-6.33104E-01 1.98240E+00-5.78641E-01 3.73283E-01-1.24745E-03 2.84022E-04
 -1      8660 2.49491E+00-8.31953E+00 2.49557E+00 2.06286E-01-1.54786E-03-6.35932E-05
 -1      8661 2.00133E+00-6.68143E+00 2.00628E+00 3.95527E-01 1.41955E-03 4.39135E-04
 -1      8662 2.49779E+00-8.31652E+00 2.49259E+00 2.10071E-01 2.79626E-03 1.39291E-03
 -1      8663 2.50018E+00-8.33682E+00 2.50179E+00 2.30084E-01 2.36597E-03-3.91054E-04
 -1      8664 2.00644E+00-6.69973E+00 2.01004E+00 4.14655E-01-2.30877E-04 1.06470E-03
 -1      8665-3.69585E-01 6.09807E-01-7.47052E-02-7.38716E-01 5.04054E-03-3.21203E-02
 -1      8666-5.10403E-01 7.67081E-01-9.31523E-02-6.31153E-01-2.91929E-03-1.40671E-02
 -1      8667-3.33192E-01 6.40667E-01-8.26820E-02-6.97781E-01 4.51339E-03-9.81057E-03
 -1      8668-6.07442E-01 1.51636E+00-4.09545E-01 6.50734E-02 1.01119E-02-5.62563E-03
 -1      8669-5.02288E-01 1.31988E+00-3.82170E-01-2.85369E-01 2.32745E-02-4.46834E-03
 -1      8670-3.17370E-01 8.96174E-01-2.79709E-01-5.79566E-01 8.04584E-03 3.07725E-03
 -1      8671-4.03509E-01 1.02196E+00-2.67529E-01-3.01690E-01 1.05261E-02 1.06603E-03
 -1      8672-6.67749E-01 2.11742E+00-6.18462E-01 4.57499E-01 1.52419E-03-1.05640E-03
 -1      8673-7.69692E-01 2.44408E+00-7.17929E-01 4.15510E-01 1.62119E-03 3.40830E-04
 -1      8674-2.41455E-02 9.18111E-03 6.39096E-03 3.57729E-02-6.95764E-05-1.45645E-04
 -1      8675-1.94637E+00 6.34578E+00-1.88488E+00 1.33668E-01-3.80219E-03-8.25927E-04
 -1      8676-1.80174E-02 7.85961E-03 4.20042E-03 9.11317E-03-3.75481E-05 4.79673E-05
 -1      8677 9.89560E-01-1.62140E+00 2.72107E-01 1.67419E-01-8.40450E-03 1.91689E-03
 -1      8678 1.00075E+00-1.56560E+00 2.42021E-01 1.65274E-01-1.44655E-02 7.49056E-03
 -1      8679-1.79252E+00 7.86731E+00-2.63415E+00 1.88399E+00 5.88221E-02-1.09947E-02
 -1      8680-1.39693E+00 6.92168E+00-2.35254E+00 2.04968E+00 8.40031E-02-8.74770E-03
 -1      8681-1.40323E+00 6.95892E+00-2.32297E+00 2.03028E+00-9.95526E-02 1.43615E-02
 -1      8682-1.82682E+00 7.91278E+00-2.60221E+00 1.88728E+00-7.67726E-02 3.95351E-03
 -1      8683-3.98956E-01 1.18480E+00-3.37478E-01 1.52448E-01-5.86200E-04-1.42573E-05
 -1      8684-3.64098E-01 1.08538E+00-3.08857E-01 1.96201E-01-7.22533E-04 5.18140E-06
 -1      8685-3.19518E-01 9.52139E-01-2.71700E-01 2.60000E-01-6.00410E-05-3.88672E-04
 -1      8686-4.42266E-01 1.33980E+00-3.84598E-01 2.04608E-01 5.72122E-04-7.97228E-04
 -1      8687 6.64385E-01-9.78685E-01 1.38074E-01-2.62103E-02-3.35662E-03-4.88140E-03
 -1      8688 8.46985E-01-1.28110E+00 1.85252E-01 1.44668E-01 3.65989E-03-6.23594E-03
 -1      8689 7.13646E-01-8.86009E-01 7.36998E-02 5.75588E-02-8.41458E-03-7.57430E-03
 -1      8690 6.23804E-01-7.33787E-01 3.93680E-02-7.79448E-02-5.18852E-04-7.52671E-03
 -1      8691-3.98491E-01 1.20785E+00-3.47353E-01 3.57656E-01-5.78308E-04-6.52490E-04
 -1      8692 9.28518E-01-1.53844E+00 2.65643E-01 1.04542E-01-1.77028E-02 3.41616E-03
 -1      8693 9.25624E-01-1.61663E+00 2.94156E-01 5.24091E-02-5.47641E-03 5.61322E-03
 -1      8694-1.58907E-01 4.11721E-01-1.07694E-01 1.74601E-01-6.03930E-04 9.81258E-05
 -1      8695-7.46137E-02 1.08027E-01-1.44832E-02 2.59762E-02 2.99936E-04-3.04576E-04
 -1      8696-7.72339E-01 3.74810E+00-1.26481E+00-1.56983E-01 1.98345E-02 7.31769E-03
 -1      8697-4.44125E-01 1.85752E+00-6.01319E-01-4.58447E-01 2.85856E-02 4.89985E-03
 -1      8698-1.14774E+00 5.49475E+00-1.87876E+00 3.93203E-01 6.66954E-03-7.49330E-03
 -1      8699-4.32067E-01 9.09969E-01-2.04394E-01-3.53296E-01-1.21976E-03 2.35621E-03
 -1      8700-4.80244E-01 9.70363E-01-2.08123E-01-1.06120E-01-1.33018E-03-1.38570E-03
 -1      8701-2.17324E+00 7.10043E+00-2.11271E+00 2.24447E-01-2.70218E-03 1.98416E-04
 -1      8702-3.46001E-01 1.02614E+00-2.92373E-01 2.25019E-01-5.98156E-04-1.58298E-03
 -1      8703-6.75979E-02 9.81039E-02-1.28091E-02 6.31289E-02 1.60391E-04 7.47573E-05
 -1      8704-8.07993E-01 2.59313E+00-7.65455E-01 5.65441E-01 1.18718E-03-1.78350E-03
 -1      8705-4.18732E-01 1.27985E+00-3.68746E-01 2.99635E-01-1.21097E-03 1.37385E-03
 -1      8706 8.00887E-01-1.27203E+00 2.04283E-01 1.00994E-01 4.91853E-03 3.75163E-03
 -1      8707 1.00228E-01-7.01929E-01 1.58102E-01-8.83259E-01-1.11057E-01-8.34054E-02
 -1      8708-8.90718E-01 2.85370E+00-8.40711E-01 6.03239E-01 1.03082E-03 5.60232E-04
 -1      8709 4.93337E-01-1.66067E+00 4.99965E-01 2.26684E-01 3.20119E-04-7.87275E-04
 -1      8710 5.99176E-02-2.08457E-01 6.37360E-02 8.25802E-02-6.22559E-05 1.60256E-04
 -1      8711 1.02189E+00-4.71588E+00 1.54455E+00-7.89459E-02 2.22924E-02 1.21368E-02
 -1      8712 9.96249E-01-3.33514E+00 1.00249E+00 3.24476E-01-7.16492E-04 4.47798E-06
 -1      8713 3.06061E-01-1.36964E+00 4.31381E-01-6.71640E-01 4.63804E-02 2.89703E-02
 -1      8714 4.58608E-01-1.96028E+00 5.82730E-01-8.26627E-01-1.36938E-01-6.18693E-02
 -1      8715 8.10636E-01-2.71217E+00 8.14869E-01 2.92465E-01 5.23439E-04 5.38152E-04
 -1      8716 3.14820E-01-1.10283E+00 3.38935E-01 7.09712E-01 4.99207E-04 1.52227E-03
 -1      8717-9.78460E-02 3.94927E-01-1.25171E-01-4.45989E-01-8.31978E-03-7.11328E-03
 -1      8718 5.24132E-02-5.01910E-01 1.95055E-01 3.69853E-01-3.23511E-03 2.65412E-04
 -1      8719 1.20002E-01-5.30241E-01 1.74783E-01 2.73551E-01-3.64464E-03 1.00480E-03
 -1      8720 1.79789E-01-6.35702E-01 1.91173E-01 3.09795E-01 2.31292E-03 2.65298E-04
 -1      8721 6.41970E-01-2.15087E+00 6.46600E-01 2.60677E-01 5.27084E-04 1.17820E-04
 -1      8722 1.60621E+00-7.20092E+00 2.39361E+00 1.65012E+00-7.55529E-02-3.47195E-03
 -1      8723 1.59102E+00-7.33435E+00 2.36395E+00 2.28573E+00 1.30783E-01 2.82480E-02
 -1      8724 1.56226E+00-7.33598E+00 2.47114E+00 2.28198E+00-1.21820E-01-3.99218E-04
 -1      8725-1.76550E+00 5.74406E+00-1.70532E+00 1.93724E-01-1.25200E-03-1.15718E-03
 -1      8726-1.54013E+00 4.98946E+00-1.47985E+00 3.10667E-01-3.92478E-04-7.77818E-04
 -1      8727-4.22660E-02 2.63564E-02 6.76888E-03 3.24786E-02 3.22904E-05 1.67710E-04
 -1      8728 1.10272E+00-5.06763E+00 1.71058E+00 5.60252E-02 2.05735E-03-1.09113E-04
 -1      8729 6.64380E-01-3.08733E+00 1.02697E+00-1.36555E-01 6.40013E-03-4.97922E-03
 -1      8730 3.65059E-01-1.22776E+00 3.69725E-01 1.95868E-01-2.82863E-04 1.99889E-05
 -1      8731 3.91869E-01-1.31056E+00 3.93860E-01 1.99068E-01 2.21932E-04-1.35432E-03
 -1      8732 1.05437E-01-3.61589E-01 1.09860E-01 1.05699E-01-3.01757E-04 6.70475E-04
 -1      8733 9.20679E-02-3.17423E-01 9.64357E-02 1.01598E-01-1.83105E-04 4.81789E-04
 -1      8734 2.55205E-01-8.61096E-01 2.59655E-01 1.63573E-01 4.33458E-04-7.61772E-04
 -1      8735 2.85831E-01-7.22618E-01 1.88147E-01 1.72860E-01 1.18317E-03-7.73223E-04
 -1      8736-5.67607E-01 1.79410E+00-5.26686E-01 6.69623E-01 2.04529E-04-2.46469E-03
 -1      8737-9.88760E-02 1.94886E-01-4.11485E-02 7.46704E-02-1.22384E-05 2.03621E-04
 -1      8738-9.04074E-02 1.67453E-01-3.28253E-02 6.83496E-02 2.18483E-04-8.68866E-05
 -1      8739 1.46504E-02-5.95870E-02 1.93062E-02 4.24425E-02-1.47241E-04 2.44467E-04
 -1      8740 2.03729E-02-7.85016E-02 2.49356E-02 4.92443E-02 2.26259E-05 1.88283E-04
 -1      8741 3.26197E-03-6.62247E-01 3.00278E-01 6.11133E-01-7.59388E-03 2.01206E-03
 -1      8742-2.40350E-02-5.26659E-01 2.42515E-01 4.87699E-01-2.37879E-03 5.65785E-03
 -1      8743 4.41111E-03-6.61388E-01 2.99388E-01 6.10067E-01 6.86889E-03-9.51576E-04
 -1      8744 1.25685E+00-4.20083E+00 1.26113E+00 3.55361E-01 4.07130E-04 2.27319E-03
 -1      8745 1.20654E+00-4.03341E+00 1.21117E+00 3.55990E-01 1.05417E-03 6.25311E-05
 -1      8746 2.50041E+00-8.33764E+00 2.50342E+00 2.30768E-01-3.61219E-03-2.69512E-04
 -1      8747 1.10301E-01 4.80769E-01-1.76951E-01-6.80338E-01 7.66465E-04 1.20390E-02
 -1      8748 6.87345E-02 4.89074E-01-1.74510E-01-6.78942E-01-3.63084E-03 4.09204E-02
 -1      8749-1.12057E-01 5.51142E-01-1.16411E-01-6.66569E-01-8.48547E-03 3.56104E-02
 -1      8750 2.68218E-02 5.93975E-01-2.50479E-01-6.46615E-01-2.18748E-03 6.91874E-03
 -1      8751-6.25925E-02 5.29681E-01-1.15207E-01-6.66678E-01-2.95445E-03 2.68982E-03
 -1      8752-5.64740E-01 3.32102E+00-1.28166E+00 4.54588E-01 4.39343E-01 1.33845E-01
 -1      8753-2.01295E+00 8.96495E+00-2.98743E+00 2.45100E+00 4.82875E-02-2.99232E-02
 -1      8754-2.41900E+00 9.77816E+00-3.15001E+00 1.96721E+00 2.31782E-02-2.55093E-02
 -1      8755-2.02107E+00 8.93646E+00-2.97772E+00 2.47420E+00-3.55833E-02 3.26122E-02
 -1      8756-7.81163E-01 2.32033E-01 1.67787E-01-4.23475E-01-1.20869E-03 1.11376E-03
 -1      8757-7.29591E-01 2.27688E-01 1.69099E-01-4.59242E-01 8.60749E-03-1.86576E-02
 -1      8758-5.69234E-01 2.45446E-01 9.58980E-02-5.59632E-01 2.67578E-03-1.81080E-02
 -1      8759-6.28864E-01 2.42476E-01 9.70305E-02-5.14274E-01-3.21555E-03 2.56224E-03
 -1      8760 8.05672E-01-1.45373E+00 2.74327E-01 1.36148E-01 1.74899E-03-1.23410E-03
 -1      8761 1.13957E-01-2.95429E-01 7.29225E-02-8.78107E-01 2.00457E-02-6.18020E-03
 -1      8762-7.51405E-01 1.55297E+00-3.50476E-01 2.77319E-01 3.22619E-02-4.04835E-03
 -1      8763-6.79198E-01 1.43463E+00-3.16415E-01 2.63513E-01 2.91408E-02 4.24555E-02
 -1      8764-2.10872E-02-4.95353E-03 9.53060E-03-7.12766E-01-6.53906E-04 5.39603E-03
 -1      8765-6.43610E-02 7.23735E-02-3.29865E-03 1.83010E-02-1.16692E-04 2.76361E-04
 -1      8766-5.91813E-02 5.87527E-02 1.38698E-04 2.23356E-02 1.33551E-04-1.44195E-04
 -1      8767-6.44350E-02 7.24766E-02-3.49276E-03 1.82743E-02 2.39938E-04-2.15902E-04
 -1      8768-8.77901E-01 4.72580E+00-1.37876E+00 1.81315E+00-3.08455E-01-2.31025E-02
 -1      8769-4.50421E-01 1.10348E+00-2.73036E-01 4.32556E-01 5.79446E-03 4.37521E-03
 -1      8770-5.63018E-01 1.18111E+00-2.73814E-01 3.30176E-01 1.27834E-02 1.82417E-02
 -1      8771-5.14537E-01 1.17129E+00-2.89832E-01 4.24183E-01 3.12152E-03 1.28320E-02
 -1      8772-4.10272E-02 2.56234E-01-8.80136E-02-7.64538E-01 4.43258E-03 4.94445E-03
 -1      8773-2.04883E-02 2.68102E-01-1.09439E-01-6.64607E-01 2.69772E-03 1.03997E-02
 -1      8774 2.73775E-01-9.30146E-01 2.80600E-01 2.05871E-01-4.08759E-04-1.00992E-03
 -1      8775 3.24175E-01-1.09084E+00 3.28905E-01 1.85527E-01-8.21939E-05 3.85705E-06
 -1      8776 2.56900E-01-7.68037E-01 2.17237E-01 7.52062E-01 2.72761E-03 1.12855E-03
 -1      8777-5.99357E-02 4.27950E-01-1.55497E-01 7.21014E-01 2.75803E-03 5.07384E-04
 -1      8778-9.18778E-01 2.92968E+00-8.62362E-01 1.42519E-01-1.47316E-03-3.96740E-04
 -1      8779-9.58870E-01 3.05612E+00-8.98381E-01 1.47641E-01-2.13588E-03 4.78953E-04
 -1      8780-7.70889E-01 2.43643E+00-7.13545E-01 2.72744E-01-3.42565E-04 1.21829E-04
 -1      8781-9.58452E-01 3.05599E+00-8.98192E-01 1.45816E-01 2.24033E-03-2.35550E-04
 -1      8782-9.20413E-01 2.92836E+00-8.60256E-01 1.40505E-01 4.67912E-04-3.20133E-04
 -1      8783 5.49374E-01-1.56309E-01-1.55153E-01-4.59652E-01 1.10747E-02-3.22237E-03
 -1      8784 2.20748E-01-7.48540E-01 2.26043E-01 1.53967E-01 3.65786E-04-1.22027E-04
 -1      8785-8.17464E-03 1.79198E-03 2.70808E-03-1.50338E-03-1.68150E-05 5.93056E-05
 -1      8786-3.49104E-01 8.25433E-01-2.10442E-01 6.67481E-02 3.85234E-03-6.89373E-03
 -1      8787-4.67532E-01 1.10794E+00-2.75236E-01 1.76595E-02 1.01774E-03-8.27016E-03
 -1      8788-3.50440E-01 8.30285E-01-2.10122E-01 6.08696E-02 2.02846E-04 9.47993E-03
 -1      8789-4.64916E-01 1.11147E+00-2.73623E-01 1.84724E-02-3.57852E-03 8.93481E-03
 -1      8790 3.85837E-01-1.77483E+00 5.87396E-01-5.26053E-01 2.84008E-03 1.25890E-02
 -1      8791 7.55103E-01-3.59267E+00 1.21399E+00-3.28447E-01-8.26422E-03 1.70107E-03
 -1      8792 3.75857E-01-1.74128E+00 5.86880E-01-3.08653E-01 1.28888E-02-1.09987E-03
 -1      8793-8.31804E-04 1.66012E-01-6.98277E-02-2.74371E-01 1.69865E-03 2.30565E-04
 -1      8794-1.58917E-02 9.23872E-02-4.27857E-02-5.18521E-01-7.39673E-03 1.01838E-02
 -1      8795 1.37690E-01-4.70829E-01 1.43201E-01 1.21881E-01 5.77631E-05 1.79434E-04
 -1      8796-1.06367E+00 4.84894E+00-1.57780E+00 1.70800E-01-1.99411E-02 4.59458E-03
 -1      8797-1.61406E-02 5.72835E-03 4.45410E-03 1.39008E-02-3.63732E-05 3.11934E-05
 -1      8798-8.62383E-01 5.69193E+00-1.95959E+00 2.73763E+00 1.34850E-01-4.95899E-02
 -1      8799-6.95405E-01 5.28360E+00-1.72756E+00 2.89999E+00 2.99362E-01-1.10797E-02
 -1      8800-7.79875E-01 4.38836E+00-1.37897E+00 1.73339E+00 3.75326E-01 1.37086E-01
 -1      8801-5.19735E-01 4.12871E+00-1.18684E+00 2.48269E+00-7.44738E-03 2.74332E-03
 -1      8802-9.55789E-01 4.83463E+00-1.41388E+00 1.63441E+00 2.83638E-01 1.24130E-01
 -1      8803-8.29019E-01 5.61925E+00-1.93285E+00 2.75433E+00-1.49496E-01 5.85165E-02
 -1      8804-6.79016E-01 5.27301E+00-1.73508E+00 2.92175E+00-2.97673E-01-4.56646E-03
 -1      8805-7.57244E-01 4.50071E+00-1.43595E+00 1.81981E+00-3.95973E-01-1.37368E-01
 -1      8806-5.67062E-01 1.79656E+00-5.24608E-01 6.06394E-01 4.43381E-04-2.31361E-03
 -1      8807-2.82079E-01 8.20670E-01-2.30820E-01 2.54711E-01-8.79492E-04-2.89274E-04
 -1      8808-1.51722E-01 4.08575E-01-1.09841E-01 2.98391E-01-5.41431E-04 6.62570E-05
 -1      8809-6.43476E-01 2.04384E+00-5.99414E-01 5.74049E-01 2.12218E-04 2.37452E-04
 -1      8810-2.23722E-01 6.27430E-01-1.72533E-01 2.16521E-01-5.93292E-04-7.00645E-05
 -1      8811-7.24918E-01 2.88795E-01 1.49156E-01-4.29440E-01 9.64315E-03-3.58486E-02
 -1      8812-6.27893E-01 2.39992E-01 1.36673E-01-5.07613E-01 3.15206E-03-2.13190E-02
 -1      8813 1.47222E+00-4.91176E+00 1.47299E+00 3.95007E-01 6.60208E-04 1.51311E-03
 -1      8814 1.43549E+00-4.79566E+00 1.43942E+00 3.87618E-01-1.18455E-03 4.08943E-05
 -1      8815-1.15929E+00 3.82982E+00-1.15110E+00 6.96274E-01-1.10751E-03 4.23131E-03
 -1      8816-3.81702E-01 1.29087E+00-3.85489E-01 7.72552E-01-1.44276E-03 1.33424E-03
 -1      8817-9.31911E-01 2.19116E+00-3.32005E-01 4.90009E-01 8.34773E-02-4.93042E-02
 -1      8818-6.45390E-01 1.31223E+00-2.62816E-01 1.21915E-01 4.39962E-02 5.14256E-02
 -1      8819-8.40765E-01 1.65437E+00-3.65892E-01-1.54450E-01 4.11785E-02 1.40735E-01
 -1      8820-1.51679E-02 6.06825E-03 3.79578E-03-4.10565E-04-9.81768E-05-5.49245E-05
 -1      8821-2.06593E-01 5.70080E-01-1.55726E-01 2.10786E-01-7.44579E-04 2.15367E-04
 -1      8822-1.14876E-01 2.84628E-01-7.30460E-02 2.47037E-01-5.02482E-04-2.62293E-05
 -1      8823 2.83570E-01-1.12918E+00 3.62278E-01-9.86670E-02-2.09388E-03-5.76363E-03
 -1      8824 1.61762E+00-7.19158E+00 2.39964E+00 5.92006E-01 2.13680E-02 2.53500E-03
 -1      8825-3.90117E-01 1.97491E+00-6.77571E-01-2.37908E-01 5.92322E-03 6.27263E-03
 -1      8826-9.79584E-01 3.14653E+00-9.24879E-01 5.40106E-01-1.20672E-03 3.58078E-03
 -1      8827-1.10458E+00 3.56084E+00-1.05303E+00 4.92923E-01-2.34393E-04 3.75749E-04
 -1      8828-3.79291E-01 1.15530E+00-3.33062E-01 4.07672E-01-1.28454E-03-8.30944E-04
 -1      8829-3.08989E-01 8.47542E-01-2.29338E-01 3.31265E-01 2.41137E-03 6.60268E-04
 -1      8830-3.85685E-01 9.02198E-01-2.19596E-01 2.10995E-01 2.17460E-03 2.55583E-04
 -1      8831 2.09718E-01-7.14569E-01 2.16714E-01 1.80842E-01 2.99796E-04-1.04942E-03
 -1      8832 1.68731E-01-5.70398E-01 1.71352E-01 1.03515E-01 2.84309E-04 1.00494E-04
 -1      8833 3.63772E-01-8.00346E-01 1.85644E-01-8.71468E-03-2.36810E-03 3.23514E-03
 -1      8834 3.65648E-01-9.99669E-01 2.95784E-01 1.03626E-02-1.05124E-02-2.15608E-03
 -1      8835 2.21937E+00-7.39859E+00 2.21796E+00 1.83156E-01-2.63703E-03 3.78181E-04
 -1      8836 2.21943E+00-7.39442E+00 2.21641E+00 1.86146E-01 4.01622E-03 6.78977E-05
 -1      8837 2.24725E+00-7.49762E+00 2.24943E+00 1.91569E-01 2.30178E-03-3.02329E-04
 -1      8838-3.97993E-01 1.20800E+00-3.46391E-01 2.98834E-01-1.26641E-03-3.21547E-04
 -1      8839-4.14716E-01 1.27949E+00-3.70743E-01 4.96971E-01 2.48401E-04 3.98157E-04
 -1      8840-1.28360E+00 4.14218E+00-1.22432E+00 4.73235E-01-5.32519E-04-6.58650E-04
 -1      8841-1.72148E+00 5.60096E+00-1.66173E+00 3.34260E-01-3.87505E-04-9.24919E-04
 -1      8842-1.45748E-01 3.65662E-01-9.42536E-02 1.67074E-01-4.66949E-04 1.44441E-04
 -1      8843-8.44625E-02 1.84516E-01-4.26536E-02 1.95634E-01-7.82719E-04 2.36348E-04
 -1      8844-3.40180E-01 1.03033E+00-2.95913E-01 4.45502E-01-9.43458E-04 9.59860E-04
 -1      8845-5.30906E-01 1.67331E+00-4.86934E-01 5.25712E-01 6.33999E-04-2.40022E-03
 -1      8846 6.95366E-01-3.19775E+00 1.02566E+00-4.91082E-01 8.05340E-03 4.07797E-03
 -1      8847 1.20934E-01-4.06555E-01 1.22386E-01 5.40439E-02-8.05098E-04-3.78651E-04
 -1      8848 1.20979E-01-4.06307E-01 1.21677E-01 5.40501E-02 1.05650E-03 2.47826E-04
 -1      8849-3.25237E-01 7.87190E-01-2.01432E-01-6.67670E-02-1.77434E-03 6.31680E-03
 -1      8850 6.31401E-01-2.10656E+00 6.32812E-01 1.20671E-01 1.63527E-03 8.81451E-04
 -1      8851 6.32198E-01-2.10652E+00 6.30987E-01 1.19568E-01-2.06756E-03-2.70476E-04
 -1      8852 1.66801E+00-5.57113E+00 1.67520E+00 4.91417E-01 1.68934E-03-2.68626E-03
 -1      8853 1.55033E+00-5.18235E+00 1.55807E+00 5.39421E-01 8.71877E-04 7.13644E-04
 -1      8854 6.31415E-01-1.47549E+00 3.55819E-01 3.86931E-01-1.04072E-01 5.65481E-02
 -1      8855 1.02375E+00-1.56190E+00 2.34510E-01 1.67215E-01-2.44834E-02 1.49170E-02
 -1      8856 2.83467E-01-7.29129E-01 1.90271E-01 1.76645E-01-1.53701E-03-2.46135E-03
 -1      8857 5.83350E-01-9.15115E-01 1.22539E-01-3.50654E-01 7.55628E-03-4.43768E-03
 -1      8858 4.18195E-01-8.11221E-01 1.67477E-01-1.73003E-01 3.91792E-03-1.86206E-03
 -1      8859 3.27139E-01-1.09357E+00 3.28753E-01 8.67070E-02 1.43930E-03 5.90025E-04
 -1      8860 3.27148E-01-1.09295E+00 3.27468E-01 8.65099E-02-1.76263E-03-3.75916E-04
 -1      8861 4.66606E-01-1.55744E+00 4.67068E-01 1.03857E-01 1.30600E-03-1.09267E-04
 -1      8862 4.67337E-01-1.55900E+00 4.67810E-01 1.03273E-01-1.83920E-03-1.88211E-04
 -1      8863 8.19666E-01-2.73511E+00 8.20595E-01 1.38110E-01-1.89262E-03-2.08749E-05
 -1      8864 8.19795E-01-2.73360E+00 8.19379E-01 1.38727E-01 2.28699E-03-2.44565E-04
 -1      8865 1.03310E+00-3.44745E+00 1.03449E+00 1.54895E-01-2.09918E-03-2.41770E-04
 -1      8866 1.03366E+00-3.44508E+00 1.03279E+00 1.56004E-01 2.93492E-03 6.04651E-04
 -1      8867 1.27063E+00-4.23715E+00 1.27169E+00 1.71496E-01 2.10768E-03-4.53176E-05
 -1      8868 1.27053E+00-4.23506E+00 1.27032E+00 1.74186E-01-3.45222E-03-2.65885E-04
 -1      8869 7.47519E-02-2.55061E-01 7.76099E-02 4.37439E-02-7.85944E-04-1.21408E-04
 -1      8870 7.51098E-02-2.55023E-01 7.69338E-02 4.37888E-02 5.07625E-04 1.40956E-05
 -1      8871 4.66260E-01-8.52868E-01 1.62825E-01-1.78989E-01-9.06732E-04 1.59700E-03
 -1      8872 7.88325E-01-1.07676E+00 1.33838E-01-3.88775E-01 2.69627E-03-8.33166E-03
 -1      8873 4.82605E-01-8.18269E-01 1.39657E-01-3.66721E-01-3.14469E-03-1.04980E-02
 -1      8874 1.77928E+00-2.08862E+00 2.35769E-01-2.61962E-01-1.67934E-02 1.30745E-01
 -1      8875-5.99430E-02 8.39454E-02-1.27380E-02-2.01539E-01 2.63261E-02 2.28751E-02
 -1      8876-9.13325E-02 4.64480E-01-1.44548E-01-3.83144E-02 1.76480E-02 1.07870E-02
 -1      8877-1.40331E-01 2.60689E-01-6.84436E-02-8.73211E-02 7.86585E-03 1.22330E-02
 -1      8878-1.77457E-02 6.75140E-02-3.88922E-02-3.85611E-01 1.28754E-03 8.96493E-03
 -1      8879-1.14804E-01 3.89127E-01-1.27657E-01-2.85465E-01 2.33226E-03 5.10489E-03
 -1      8880-7.09352E-03 1.87280E-01-8.54640E-02-4.20555E-01 1.34802E-02 1.03361E-02
 -1      8881 2.70294E+00-9.01070E+00 2.70491E+00 2.30570E-01-2.32813E-03 2.64144E-04
 -1      8882 2.75853E+00-9.20920E+00 2.77078E+00 2.43584E-01-1.46578E-03-1.57082E-03
 -1      8883 2.75635E+00-9.19686E+00 2.76340E+00 2.46816E-01 5.39170E-03 6.42264E-03
 -1      8884 2.70424E+00-9.01595E+00 2.70569E+00 2.34378E-01 3.12427E-03 1.08296E-03
 -1      8885-5.61626E-01 1.76406E+00-5.15301E-01 5.07909E-01 1.31338E-03-1.29956E-03
 -1      8886-1.17657E-02 3.47479E-03 3.53997E-03 9.54976E-03 2.33659E-05-8.66493E-06
 -1      8887 1.53627E+00-5.12079E+00 1.53567E+00 1.88767E-01-1.81691E-03-2.45189E-04
 -1      8888 1.53498E+00-5.11806E+00 1.53437E+00 1.89662E-01 3.13985E-03-5.42933E-04
 -1      8889-4.66170E-01 1.44378E+00-4.19168E-01 4.58756E-01 3.46381E-04 9.92084E-05
 -1      8890-2.39536E+00 7.84161E+00-2.33316E+00 2.22905E-01 1.26333E-03-5.45382E-04
 -1      8891-2.39355E+00 7.84840E+00-2.33744E+00 2.28606E-01-2.78542E-03-2.61637E-03
 -1      8892-1.53977E-01 3.79153E-01-9.66605E-02 1.08589E-01-1.90259E-04-5.02528E-04
 -1      8893-1.40346E-01 3.34611E-01-8.32568E-02 1.03572E-01-1.16055E-05-4.98738E-04
 -1      8894-2.81428E+00 9.80510E+00-2.98705E+00 6.23756E-01 1.27433E-02 8.92027E-03
 -1      8895-2.81705E+00 9.80324E+00-2.98509E+00 6.23093E-01-8.97053E-03-9.82700E-03
 -1      8896-2.60253E+00 9.89645E+00-3.10622E+00 7.96004E-01 2.12448E-04-1.04103E-03
 -1      8897-3.07200E-01 8.22494E-01-2.17409E-01-4.68525E-01-4.32947E-03 3.06942E-03
 -1      8898-1.65695E-01 7.05727E-01-2.23313E-01-5.74766E-01-4.22788E-03 2.50231E-03
 -1      8899-7.37170E-01 2.30478E-01 1.74589E-01-4.53815E-01-5.54441E-03 1.38949E-02
 -1      8900-5.76086E-01 2.36988E-01 9.54505E-02-5.54448E-01-9.66875E-03 1.92342E-02
 -1      8901 2.60100E-02-9.07021E-02 2.76289E-02 2.57163E-02 3.15218E-04 1.93791E-04
 -1      8902 2.61873E-02-9.17984E-02 2.83972E-02 2.59694E-02-5.12576E-04-2.01340E-04
 -1      8903-1.02084E-01 2.16366E-01-4.84865E-02 1.02444E-01 1.40530E-04 5.30918E-04
 -1      8904 1.32346E-01-3.91348E-01 1.12532E-01-5.01863E-02-1.44252E-03-7.32263E-04
 -1      8905 1.47156E-01-4.23295E-01 1.19016E-01-2.00866E-02-1.20999E-04-1.18970E-03
 -1      8906-2.00861E+00 6.56622E+00-1.95407E+00 1.74919E-01-2.67726E-03-6.18048E-04
 -1      8907-1.04716E-01 2.07735E-01-4.40150E-02 3.64049E-02-5.83993E-04 3.36865E-04
 -1      8908-1.04574E-01 2.07532E-01-4.39094E-02 3.61447E-02 4.14126E-04-3.58215E-04
 -1      8909-6.53944E-01 2.04925E+00-5.99175E-01 2.46436E-01-7.40675E-04-1.51026E-04
 -1      8910-6.41568E-01 2.00548E+00-5.86626E-01 2.71159E-01-1.08286E-03-1.95396E-03
 -1      8911-1.97663E-02-4.34400E-03 1.02484E-02 3.25960E-01-1.42197E-03 1.69482E-04
 -1      8912-3.60086E-01 1.10089E+00-3.15700E-01 4.25167E-01-7.98624E-04 8.06884E-04
 -1      8913 8.83091E-01-1.60838E+00 3.19954E-01 3.41479E-01 3.41589E-03 1.93250E-03
 -1      8914-1.03839E+00 1.48457E+00-9.85644E-02-1.46248E-01-3.63427E-02-4.76645E-02
 -1      8915 1.96661E+00-8.07076E+00 2.63968E+00 1.36843E+00-5.51083E-02-3.01398E-02
 -1      8916 2.00015E+00-8.12437E+00 2.62537E+00 1.37206E+00 6.91925E-02 7.17955E-03
 -1      8917 1.61962E+00-7.23156E+00 2.37034E+00 1.62817E+00 9.52879E-02 1.29346E-02
 -1      8918 2.77673E-02 2.82501E+00-1.27846E+00 1.93444E+00 9.11167E-02 5.86180E-02
 -1      8919-1.39361E-01 3.51659E+00-1.21665E+00 2.37389E+00-3.27962E-02-1.40404E-02
 -1      8920-5.27713E-01 3.27526E+00-1.32819E+00 1.08054E+00 1.07738E-01 5.49861E-02
 -1      8921-3.53228E-02 3.27711E+00-1.21206E+00 2.22510E+00-2.20895E-01-1.99352E-01
 -1      8922 1.82335E+00-6.08026E+00 1.82409E+00 2.04557E-01-2.02377E-03-1.22445E-03
 -1      8923 1.82408E+00-6.07836E+00 1.82294E+00 2.05548E-01 2.56357E-03 1.25851E-03
 -1      8924-1.16723E-01 2.62405E-01-6.27926E-02 1.13406E-01 9.06540E-05-4.90336E-04
 -1      8925-2.17735E-02 1.21084E-03 8.70571E-03 2.69757E-01-3.38467E-05-3.33239E-04
 -1      8926-7.34963E-01 8.61207E-01-4.61442E-02-7.26511E-01-1.50120E-02-2.18784E-02
 -1      8927-8.87836E-01 9.64307E-01-5.09611E-02-7.59691E-01-7.29195E-03-1.92349E-02
 -1      8928-9.05778E-01 1.15208E+00-9.92868E-02-4.04987E-01-1.74914E-02-1.82155E-02
 -1      8929-1.00056E+00 1.02891E+00-2.04513E-02-6.47579E-01-1.37235E-04-7.79747E-05
 -1      8930-2.19051E-01 5.04400E-01-1.42596E-01-8.98384E-01 5.76024E-02-6.21069E-02
 -1      8931-3.79403E-01 1.32507E+00-4.95174E-01-7.99926E-01 1.62791E-01-9.83808E-02
 -1      8932 8.32780E-01-1.72106E+00 3.89869E-01 3.73879E-01-2.55759E-02-1.00659E-02
 -1      8933-4.87882E-01 1.60121E+00-5.81446E-01-5.75928E-01 1.63126E-01-5.92436E-02
 -1      8934-1.18534E+00 3.81229E+00-1.12623E+00 1.63198E-01-2.90863E-03 2.30520E-05
 -1      8935-1.14220E+00 3.66984E+00-1.08372E+00 1.57455E-01-1.36506E-03 4.37530E-04
 -1      8936-1.18591E+00 3.81090E+00-1.12331E+00 1.65499E-01 2.55804E-03-4.52481E-05
 -1      8937-1.14052E+00 3.66782E+00-1.08255E+00 1.59534E-01 1.70155E-03 9.86651E-04
 -1      8938-9.49266E-01 3.03286E+00-8.92723E-01 3.05796E-01-1.51350E-04-9.90385E-04
 -1      8939-8.02421E-01 3.34837E+00-1.08679E+00 6.93369E-01 4.83138E-03 2.17880E-03
 -1      8940-1.55660E+00 5.73947E+00-1.79696E+00 7.47718E-01 5.27015E-03 1.62865E-03
 -1      8941-3.99948E-01 1.23823E+00-3.60445E-01 7.30435E-01-2.52258E-03 8.02000E-05
 -1      8942 2.74771E+00-9.35312E+00 2.84231E+00 2.98544E-01 1.11964E-02-7.25192E-03
 -1      8943 2.74455E+00-9.35223E+00 2.84617E+00 3.02138E-01-1.47863E-02 6.26053E-03
 -1      8944 2.09293E+00-7.40492E+00 2.27489E+00 5.19947E-01 9.03398E-04 1.14538E-03
 -1      8945 1.19981E-01-4.51686E-01 1.39411E-01 7.67780E-01 3.52312E-04 3.27262E-03
 -1      8946-2.46478E-01 7.58144E-01-2.17974E-01 7.47767E-01-2.32514E-03 9.16934E-04
 -1      8947-5.23780E-01 1.91610E+00-2.86736E-01-8.24331E-01 9.36057E-02 3.63813E-02
 -1      8948-2.53174E-02-4.16570E-02 3.53332E-02-9.68321E-01 1.75021E-02 2.62335E-02
 -1      8949 1.62082E-01-6.93713E-01 3.02747E-01-8.71165E-01 6.77125E-02 4.94209E-02
 -1      8950-1.70347E-01 4.25514E-01-1.09085E-01 5.51820E-02 8.62783E-04 1.07513E-04
 -1      8951-1.70465E-01 4.27133E-01-1.10190E-01 5.52406E-02-9.16798E-04 2.65178E-04
 -1      8952-3.03202E-01 8.92208E-01-2.51723E-01 2.58698E-01 2.77636E-04 8.68832E-04
 -1      8953-5.73772E-01 9.48384E-01-1.57618E-01-4.76984E-01 8.68712E-03 1.34670E-02
 -1      8954-5.71285E-01 9.46248E-01-1.56401E-01-4.75068E-01-8.13436E-03-1.49890E-02
 -1      8955-1.61567E+00 5.23827E+00-1.55157E+00 1.55162E-01 1.98331E-03-6.01649E-04
 -1      8956-1.42491E+00 4.60836E+00-1.36478E+00 2.62020E-01 1.37535E-04-1.48891E-03
 -1      8957-1.48477E+00 4.82627E+00-1.43027E+00 4.34604E-01-7.79802E-04-6.45067E-04
 -1      8958-1.39174E+00 4.49420E+00-1.32909E+00 1.45076E-01-1.50878E-03 6.58518E-05
 -1      8959-1.15927E+00 3.72198E+00-1.09842E+00 2.81510E-01 4.55550E-04-9.94601E-05
 -1      8960-1.39141E+00 4.48988E+00-1.32720E+00 1.47516E-01 3.25806E-03-4.35853E-04
 -1      8961-1.38974E+00 4.49474E+00-1.33013E+00 1.74046E-01 1.13113E-03 1.50471E-04
 -1      8962-1.15507E+00 3.71609E+00-1.09582E+00 3.06617E-01 9.14974E-04-1.01573E-03
 -1      8963-2.12961E-01 5.75710E-01-1.55453E-01 1.35596E-01 3.38893E-04 4.93616E-04
 -1      8964-6.68975E-01 2.12040E+00-6.22016E-01 5.57778E-01-4.97748E-04 1.71297E-03
 -1      8965-5.20318E-01 1.61121E+00-4.67558E-01 3.21902E-01-2.14720E-04-1.17376E-03
 -1      8966-2.27353E-02 4.87817E-03 7.87700E-03 2.15010E-01-5.24291E-04 1.88871E-04
 -1      8967-1.31148E-01 1.56182E-01-5.00075E-02-1.08882E-02 3.08289E-02-3.64498E-02
 -1      8968 1.19974E-01-4.60448E-01 1.46911E-01-2.00337E-01 4.75625E-03 1.94603E-03
 -1      8969 1.82207E-01-5.42504E-01 1.53425E-01-2.60218E-01 1.99598E-03-5.40916E-04
 -1      8970 2.77639E-01-1.09228E+00 4.27273E-01-7.44127E-01-1.70170E-01-1.16345E-01
 -1      8971 4.84106E-01-1.70429E+00 6.16772E-01-2.83161E-01-1.27304E-01-3.40452E-02
 -1      8972-2.92630E-01 1.15720E+00-3.71220E-01 7.74744E-01 1.09940E-03 9.27185E-04
 -1      8973-5.45215E-01 1.99718E+00-7.42812E-01-3.57908E-02-3.14144E-01 4.81150E-02
 -1      8974-4.66343E-01 1.67258E+00-6.40840E-01-4.49141E-01-3.25657E-01 7.14865E-02
 -1      8975 1.69663E+00-5.64498E+00 1.69265E+00 1.91902E-01-2.23949E-03-5.57977E-04
 -1      8976-7.69030E-01 2.42736E+00-7.10696E-01 2.45287E-01-5.40215E-05-1.12206E-03
 -1      8977-9.16049E-01 2.90869E+00-8.54417E-01 1.15963E-01-1.66211E-03 6.22656E-04
 -1      8978-9.15975E-01 2.90723E+00-8.52680E-01 1.15670E-01 1.85179E-03-7.99028E-04
 -1      8979-7.67249E-01 2.41667E+00-7.07153E-01 2.22390E-01-1.10068E-03-1.09315E-03
 -1      8980 5.76171E-01-1.01813E+00 1.75773E-01-1.42271E-01-1.51719E-02-1.57412E-02
 -1      8981 3.13414E-01-1.87148E+00 3.92670E-01 6.81453E-01 1.11193E+00-2.98049E-01
 -1      8982 2.97445E-01-1.80552E+00 3.87196E-01 6.42521E-01-1.09636E+00 2.96210E-01
 -1      8983-5.36699E-02 3.70711E-02 7.25673E-03 1.14694E-02 2.75002E-04-2.53547E-04
 -1      8984-5.48099E-02 4.36022E-02 4.99948E-03 2.05122E-02-7.49656E-05 1.57061E-04
 -1      8985-5.36786E-02 3.68201E-02 7.57107E-03 1.16836E-02-3.28887E-04 2.45380E-04
 -1      8986 2.24686E+00-7.49788E+00 2.25164E+00 1.92399E-01-2.38277E-03 2.35975E-03
 -1      8987-1.13994E+00 3.65366E+00-1.07639E+00 1.32579E-01-2.55867E-03-3.19553E-04
 -1      8988-9.51143E-01 3.03714E+00-8.93106E-01 2.77841E-01-7.87936E-04 2.04424E-03
 -1      8989-1.14093E+00 3.65727E+00-1.07781E+00 1.31091E-01 1.68338E-03 3.99526E-04
 -1      8990-9.51590E-01 3.02910E+00-8.90446E-01 2.53790E-01-3.98101E-04 4.83054E-04
 -1      8991-3.25435E-01 9.50889E-01-2.67786E-01 1.73081E-01-3.93153E-05 6.68691E-04
 -1      8992-3.01997E-01 8.76084E-01-2.46044E-01 1.68288E-01-6.43710E-04-7.50210E-05
 -1      8993-2.17370E+00 7.10185E+00-2.11096E+00 2.25568E-01 3.87496E-03-1.94551E-03
 -1      8994-7.90083E-01 2.49820E+00-7.32926E-01 3.12615E-01-1.58422E-03 9.25557E-05
 -1      8995-8.24186E-01 2.63204E+00-7.74744E-01 4.51020E-01 8.69681E-04-1.19952E-03
 -1      8996 9.58443E-01-1.40064E+00 1.93994E-01 2.07038E-01 9.33405E-04-9.63937E-04
 -1      8997-2.62700E-01 7.34608E-01-2.02446E-01 7.19409E-02 1.30527E-03-5.41310E-04
 -1      8998-2.62716E-01 7.33974E-01-2.01260E-01 7.19521E-02-1.48176E-03 1.60968E-04
 -1      8999-1.66876E+00 5.41361E+00-1.60430E+00 1.61164E-01-3.12792E-03 5.48068E-04
 -1      9000-1.66044E+00 5.39668E+00-1.60091E+00 1.91045E-01-9.11546E-04 5.06464E-04
 -1      9001-1.37777E+00 4.46036E+00-1.31907E+00 3.35751E-01-7.08030E-04 1.48449E-03
 -1      9002-1.66930E+00 5.41966E+00-1.60708E+00 1.57857E-01 1.89748E-03-4.63036E-04
 -1      9003-1.38889E+00 4.48871E+00-1.32867E+00 3.07097E-01-8.94889E-05-1.98363E-04
 -1      9004-8.57262E-01 2.73991E+00-8.07223E-01 4.02953E-01 1.11885E-03-1.04242E-03
 -1      9005-2.45926E+00 8.06038E+00-2.39762E+00 2.27242E-01 2.75469E-03-4.08480E-04
 -1      9006-2.46026E+00 8.05796E+00-2.39680E+00 2.30507E-01-3.44223E-03 1.09877E-03
 -1      9007-2.51214E+00 8.23625E+00-2.45189E+00 2.30069E-01-2.20365E-03 7.47365E-04
 -1      9008 4.33852E-01-1.39521E+00 4.13602E-01 7.44756E-01 3.68952E-03-3.08066E-03
 -1      9009 4.38395E-01-1.44792E+00 4.33613E-01 7.51222E-01 3.39111E-03 2.89835E-04
 -1      9010 6.62612E-04-4.95798E-04-5.74040E-05-1.02324E-04-4.03743E-05-1.17522E-04
 -1      9011 6.63283E-04-4.86202E-04-6.32494E-05-9.98047E-05 4.27282E-05 1.14663E-04
 -1      9012 2.47053E-01-8.44030E-01 2.55875E-01 2.43798E-01-1.28937E-03-1.75857E-04
 -1      9013-3.79047E-01 1.12001E+00-3.17476E-01 9.05812E-02-1.57691E-03 2.37430E-04
 -1      9014-3.79185E-01 1.12129E+00-3.18037E-01 8.90417E-02 7.10198E-04-2.98843E-04
 -1      9015-3.99974E-03-5.86011E-02 2.68131E-02 7.56707E-01-1.74461E-03 3.84208E-04
 -1      9016-9.40421E-01 3.00489E+00-8.86009E-01 4.48042E-01 1.20259E-04-1.92924E-04
 -1      9017-8.07694E-01 2.58111E+00-7.58336E-01 4.97400E-01-1.84494E-03 2.13238E-03
 -1      9018-4.86272E-01 1.50060E+00-4.36259E-01 4.08242E-01-1.64209E-03-4.54751E-04
 -1      9019-9.72847E-03 7.88051E-04 3.82153E-03 1.35938E-02-4.86469E-05-3.27802E-05
 -1      9020-4.82704E-03-5.39800E-03 4.27115E-03 1.55331E-02-4.26834E-05-6.04578E-05
 -1      9021 5.09130E-04-1.18327E-02 4.82387E-03 1.55040E-02-3.63933E-05-2.14877E-05
 -1      9022-1.16070E+00 3.73483E+00-1.10307E+00 3.75501E-01-1.33174E-03-6.16948E-04
 -1      9023-1.19799E+00 3.86050E+00-1.13989E+00 3.46708E-01-2.52331E-04 8.77139E-04
 -1      9024 1.67450E-01-5.79264E-01 1.76785E-01 2.02499E-01 5.68364E-04-2.27480E-04
 -1      9025 7.31853E-02-2.88445E-01 9.30105E-02 2.43255E-01 7.27707E-04-4.33026E-05
 -1      9026 3.02921E-01-1.05144E+00 3.21317E-01 7.55748E-01-9.51946E-04-8.92364E-04
 -1      9027 1.55878E+00-5.19003E+00 1.55700E+00 5.51004E-01 2.86308E-03-1.85073E-03
 -1      9028-2.17693E-02 2.45006E-03 8.36561E-03 1.00147E-01-7.05191E-05 5.39087E-04
 -1      9029-2.12778E-02 1.37024E-03 8.42838E-03 1.08384E-01-2.97616E-04 1.74174E-05
 -1      9030-7.02764E-03-2.94067E-02 1.62310E-02 9.93368E-02 2.58312E-04-1.07591E-04
 -1      9031 9.71521E-01-3.24652E+00 9.72609E-01 6.92927E-01 4.84029E-04-2.91700E-03
 -1      9032-6.89947E-01 2.15476E+00-6.27580E-01 1.24053E-01-2.15964E-03 2.60249E-04
 -1      9033-5.80059E-01 1.79928E+00-5.22041E-01 2.35027E-01 1.14100E-04 1.21219E-03
 -1      9034-6.90245E-01 2.15770E+00-6.28741E-01 1.21918E-01 1.14935E-03-1.16114E-04
 -1      9035-5.47884E-01 1.69369E+00-4.91253E-01 2.30736E-01-7.10692E-04 9.32863E-05
 -1      9036-7.48623E-02 3.51778E-01-1.20508E-01-5.83611E-01 7.07056E-04 1.62834E-02
 -1      9037 5.55013E-01-1.84692E+00 5.54017E-01 1.10023E-01-1.72543E-03-1.20747E-03
 -1      9038 4.01486E-01-1.33587E+00 4.00233E-01 9.34165E-02-1.92334E-03-8.48560E-04
 -1      9039 1.02771E-01-3.65214E-01 1.12329E-01 1.60776E-01-4.41576E-04 2.68232E-04
 -1      9040-2.56413E-01 8.30679E-01-2.46886E-01-4.30534E-01 3.33987E-04 8.78450E-05
 -1      9041-1.34222E-01 7.62142E-01-2.74230E-01-4.79626E-01-4.84255E-03 2.97524E-03
 -1      9042-1.25649E-01 7.19044E-01-2.55500E-01-5.38243E-01 7.59788E-04 1.26841E-04
 -1      9043 3.40238E-02-1.16331E-01 3.55182E-02 2.73011E-02-6.36315E-04-2.11388E-04
 -1      9044-5.55065E-01 1.73405E+00-5.05404E-01 3.66956E-01-7.90701E-04 8.31649E-04
 -1      9045-1.24884E+00 6.85803E+00-2.31379E+00 2.78039E+00-1.72230E-01 2.76106E-02
 -1      9046-8.64394E-01 5.37117E+00-1.66323E+00 2.57892E+00 2.47767E-02 3.06065E-02
 -1      9047-1.23403E+00 6.90563E+00-2.40519E+00 2.79290E+00 1.71007E-01-8.22291E-03
 -1      9048-5.21371E-01 1.59567E+00-4.60723E-01 1.06546E-01-1.35642E-03 9.56873E-04
 -1      9049-4.13555E-01 1.24764E+00-3.57126E-01 2.01299E-01-3.40892E-04-1.91905E-04
 -1      9050-5.21013E-01 1.59487E+00-4.59372E-01 1.06924E-01 1.95004E-03-2.78107E-04
 -1      9051-2.33504E-01 6.65636E-01-2.03448E-01-6.70667E-01-2.66371E-01 1.82901E-01
 -1      9052 5.49231E-01-1.69052E-01-1.53643E-01-3.94745E-01 2.43700E-02-5.38785E-03
 -1      9053-9.90178E-01 3.18354E+00-9.40894E-01 4.90456E-01-1.09371E-03 4.47162E-04
 -1      9054-6.80815E-01 2.15565E+00-6.33522E-01 4.08817E-01 5.76059E-04-1.73092E-03
 -1      9055 6.18272E-05-3.26766E-03 1.34220E-03 4.24660E-03 1.55591E-05-5.93113E-06
 -1      9056-4.22357E-03-1.76883E-03 2.61639E-03 9.03073E-03-2.54513E-05-1.15600E-05
 -1      9057 2.43703E-05-6.75820E-03 2.94579E-03 9.23928E-03-1.13970E-05-6.31993E-05
 -1      9058 1.12129E-01-3.91723E-01 1.19354E-01 1.34199E-01 3.27161E-04 4.87569E-04
 -1      9059-7.04831E-01 2.23337E+00-6.55411E-01 3.62221E-01-9.22765E-04 9.87997E-04
 -1      9060 2.43236E+00-8.10253E+00 2.43009E+00 2.11780E-01-2.77426E-03-1.41105E-03
 -1      9061 2.43194E+00-8.10812E+00 2.43314E+00 2.13534E-01 3.36716E-03 2.32854E-05
 -1      9062 2.09129E+00-6.97770E+00 2.09566E+00 3.22725E-01 1.68030E-03 4.83841E-04
 -1      9063-1.89355E+00 6.17593E+00-1.83694E+00 2.93670E-01-2.22156E-03-9.25140E-04
 -1      9064-2.11343E+00 6.90275E+00-2.05372E+00 2.25461E-01-3.88125E-03 5.78054E-05
 -1      9065-2.11245E+00 6.89795E+00-2.05098E+00 2.24156E-01 2.51472E-03-4.73356E-05
 -1      9066-1.45672E+00 4.72215E+00-1.40353E+00 4.80542E-01-1.41083E-03-2.87993E-03
 -1      9067 2.96403E-01-5.69925E-02-1.19764E-01-4.19533E-01 2.09559E-03 1.07983E-02
 -1      9068 2.01035E-01 3.29784E-02-9.25337E-02-4.53588E-01 5.33429E-03 4.67101E-03
 -1      9069-4.37135E-01 1.85559E+00-6.06068E-01 7.10667E-01 1.96274E-03 5.31062E-04
 -1      9070-5.74349E-01 1.78674E+00-5.20078E-01 3.42586E-01-1.59266E-03-4.19321E-04
 -1      9071-5.68679E-01 1.78364E+00-5.20814E-01 3.24305E-01-1.21001E-03 5.17383E-04
 -1      9072 1.03217E+00-6.00732E+00 1.98356E+00 2.41774E+00 2.18232E-01 6.88231E-03
 -1      9073 1.03468E+00-6.18034E+00 2.10487E+00 2.39779E+00-1.50542E-01 1.72008E-02
 -1      9074-9.26324E-01 2.99125E+00-8.83584E-01 6.00150E-01 1.44302E-03-2.65513E-03
 -1      9075 3.02331E-01-1.01430E+00 3.05474E-01 8.44540E-02 1.89747E-03-3.94170E-04
 -1      9076-2.43431E-01 6.62661E-01-9.05760E-02-4.84354E-01-4.78653E-01 2.96164E-01
 -1      9077-3.70878E-01 1.35160E+00-5.53246E-01-5.87278E-01-2.62322E-01 1.53882E-01
 -1      9078 1.76302E+00-5.89281E+00 1.76978E+00 2.02945E-01 2.24217E-03-4.33962E-04
 -1      9079 8.26859E-01-1.77142E+00 4.20944E-01-1.87767E-01 3.53272E-02 1.45158E-02
 -1      9080 3.72213E-01-1.68829E+00 4.90998E-01-3.19313E-01 5.99045E-02 4.03674E-02
 -1      9081-1.34503E-01 2.06815E-01-6.51852E-02 5.05122E-02-1.41447E-02 4.93063E-02
 -1      9082-9.39319E-02 4.71787E-01-1.44906E-01-2.86713E-02-1.91345E-02-1.17211E-03
 -1      9083-1.79611E+00 5.91242E+00-1.76172E+00 5.56061E-01-3.22394E-03 3.55226E-03
 -1      9084-3.56787E-01 1.01578E+00-3.29232E-01-7.04674E-01-7.38160E-02 5.47243E-02
 -1      9085-5.95836E-02 5.94108E-02 1.90517E-04 2.24850E-02-2.10835E-04 9.78836E-05
 -1      9086 2.95519E-02 1.16917E+00-6.23855E-01 9.67640E-01-2.26924E-03 3.69261E-03
 -1      9087 2.57737E-01 8.26361E-01-5.26446E-01 9.86649E-01-7.55795E-02-7.11206E-02
 -1      9088 1.90848E-01 7.17059E-01-4.43094E-01 8.31475E-01-1.22440E-02-1.48053E-02
 -1      9089-1.57232E-01 1.05784E+00-3.80011E-01 8.34719E-01-3.38986E-02-3.83799E-02
 -1      9090 7.31774E-01-2.43526E+00 7.30467E-01 1.26858E-01-2.29697E-03-1.35670E-03
 -1      9091-5.64400E-03-5.64313E-04 2.61840E-03 7.99147E-03 3.67614E-06-2.66477E-05
 -1      9092-2.10323E-03-1.31234E-03 1.41195E-03 3.18118E-03-9.85678E-07 1.19239E-05
 -1      9093-1.08150E-03-2.28291E-03 1.37063E-03 3.90295E-03-1.12621E-06 1.92573E-05
 -1      9094-1.33918E+00 4.33082E+00-1.28138E+00 1.45586E-01 2.37053E-03 1.30098E-03
 -1      9095 1.98424E-01-6.73296E-01 2.03865E-01 1.42621E-01-9.32200E-05-6.80810E-04
 -1      9096 1.65574E-01-5.64519E-01 1.71209E-01 1.65388E-01-1.21695E-03 1.79788E-04
 -1      9097 1.83408E+00-1.33377E+00 1.06647E-02-1.23766E+00-3.23315E-02 3.93350E-02
 -1      9098 1.56536E-01-3.40024E-01 7.87520E-02-8.08996E-01 4.40336E-03 4.49917E-03
 -1      9099 5.55905E-01-1.16396E+00 2.59002E-01 2.86212E-01 3.96840E-03-1.50715E-03
 -1      9100 9.34574E-01-3.10977E+00 9.32411E-01 1.43893E-01 2.43786E-03 1.13189E-03
 -1      9101 1.41851E-01-4.92884E-01 1.48833E-01 1.95321E-01 1.51927E-03 1.24878E-04
 -1      9102 1.16288E-01-4.07922E-01 1.24963E-01 1.33079E-01 7.75064E-04 5.40814E-04
 -1      9103 1.67652E-01-5.13765E-01 1.46574E-01 1.50407E-01-1.21926E-03 9.04937E-04
 -1      9104 1.16150E+00-3.86692E+00 1.16097E+00 1.61798E-01-2.39807E-03-1.49863E-03
 -1      9105 4.81147E-01-1.68764E+00 6.07373E-01-2.85005E-01 1.28291E-01 3.36578E-02
 -1      9106 4.33343E-01-1.03732E+00 2.80480E-01-5.67595E-01 4.69197E-02 2.45292E-02
 -1      9107 4.02946E-02-1.42665E-01 4.34205E-02 5.08314E-02 1.19858E-04 3.05923E-04
 -1      9108 2.99231E-02-1.10935E-01 3.49867E-02 5.60434E-02-1.05283E-04-6.25819E-05
 -1      9109 1.41320E+00-4.70501E+00 1.41180E+00 1.77444E-01-3.83999E-03-2.57955E-03
 -1      9110-1.02543E+00 3.30157E+00-9.74893E-01 4.41821E-01-1.22618E-03 1.40074E-03
 -1      9111-1.77675E-01 4.64646E-01-1.23600E-01 1.49857E-01 3.93547E-05 8.54457E-04
 -1      9112-1.16136E+00 1.26866E+00-4.33462E-02-7.24936E-01-1.16063E-02-1.56491E-02
 -1      9113-1.08729E+00 1.27760E+00-8.97085E-02-3.18820E-01-6.58889E-03-3.46409E-02
 -1      9114-1.09416E+00 3.50799E+00-1.03425E+00 1.29752E-01 1.95053E-03 1.46011E-03
 -1      9115 8.69039E-01-2.41617E+00 6.02480E-01 2.15184E-01 1.62580E-02 1.44792E-02
 -1      9116 8.37480E-01-2.59473E+00 6.91863E-01 4.44770E-01 6.18650E-02-2.07084E-02
 -1      9117 4.49726E-01-1.82181E+00 6.10090E-01 8.54338E-03 7.06897E-03-1.36383E-02
 -1      9118 3.57834E-01-1.25957E+00 3.84062E-01 7.20039E-01-2.88631E-04 3.24275E-03
 -1      9119-8.45862E-01 2.70717E+00-7.98056E-01 5.98223E-01-9.35487E-05 1.60231E-05
 -1      9120-3.88366E-01 9.62942E-01-2.43845E-01 3.67288E-01 2.65376E-04-2.33113E-03
 -1      9121 9.88847E-01-3.30765E+00 9.92977E-01 1.53001E-01 2.59533E-03-1.22402E-03
 -1      9122 1.48242E+00-4.94731E+00 1.48374E+00 1.85361E-01-3.42434E-03 2.37513E-03
 -1      9123 4.00615E-01-6.55435E-01 9.70997E-02-6.30403E-01 6.33499E-03-2.66718E-02
 -1      9124 2.83741E-01-5.46560E-01 1.13795E-01-5.95028E-01-3.05387E-03 6.20868E-03
 -1      9125 7.80916E-01-2.60917E+00 7.82918E-01 1.34920E-01-2.67508E-03 1.79220E-03
 -1      9126-9.42715E-02 1.75516E-01-3.48199E-02 3.48390E-02-4.35230E-04-1.21646E-04
 -1      9127-7.67814E-02 1.27937E-01-2.20238E-02 7.32817E-02-8.64363E-06-7.01371E-04
 -1      9128-4.16601E-01 1.86898E+00-4.15087E-01 2.63914E-01-1.00467E+00-1.94394E-01
 -1      9129 3.58638E-01-8.63513E-01 2.15491E-01 1.39670E-01 1.74284E-03 5.70379E-04
 -1      9130 3.27881E-01-8.22208E-01 2.12063E-01 2.59986E-01 3.56432E-03-2.71345E-03
 -1      9131 4.52486E-01-1.64038E+00 5.35111E-01 4.99066E-01 1.29586E-01-3.73486E-02
 -1      9132 3.93176E-01-1.30376E+00 3.91914E-01 7.52944E-01 2.84485E-03-1.42879E-03
 -1      9133-1.43785E+00 4.65112E+00-1.37610E+00 1.80352E-01-2.36638E-03-7.33875E-04
 -1      9134-1.38785E+00 4.49430E+00-1.33148E+00 1.75232E-01-1.17696E-03-2.00307E-03
 -1      9135-1.43815E+00 4.65410E+00-1.37718E+00 1.81068E-01 2.57816E-03 8.18943E-04
 -1      9136-1.14958E+00 3.70003E+00-1.09245E+00 3.35357E-01 4.06524E-04-4.89653E-04
 -1      9137 1.65176E-01-5.59040E-01 1.68516E-01 1.31371E-01-2.06262E-04 4.62925E-04
 -1      9138 1.48839E-01-5.13148E-01 1.56040E-01 1.58792E-01-1.13488E-03-1.39174E-04
 -1      9139-2.83418E-01 8.48411E-01-2.40133E-01 3.91057E-01 4.24064E-03-1.51447E-03
 -1      9140-9.01191E-03 3.19035E-03 2.47949E-03 4.17993E-03 1.07735E-05 1.73733E-05
 -1      9141 1.43642E-01-7.20028E-01 1.33554E-01-5.35317E-01-4.39515E-01-3.20673E-01
 -1      9142 1.26232E-01-3.82807E-01 1.10566E-01 5.74525E-02 4.95202E-05-1.58847E-04
 -1      9143 1.19829E-01-3.79358E-01 1.11165E-01 8.73950E-02-5.72665E-04-1.63738E-03
 -1      9144 2.38251E-01-6.23338E-01 1.65444E-01 1.16021E-01-1.82612E-03-1.26400E-03
 -1      9145 1.05928E-01-3.59078E-01 1.08567E-01 5.20794E-02-1.04164E-03 2.65105E-04
 -1      9146-2.51207E+00 8.23577E+00-2.45476E+00 2.31081E-01 3.41028E-03 9.12806E-04
 -1      9147 1.02504E+00-3.43533E+00 1.03911E+00 6.38919E-01-1.52321E-03 2.28387E-03
 -1      9148-8.74317E-01 2.77665E+00-8.15198E-01 1.14567E-01-1.95218E-03-4.98143E-04
 -1      9149-5.44723E-01 1.64492E+00-5.17129E-01 6.50801E-01 4.86242E-02-1.57523E-02
 -1      9150-6.29015E-01 1.67782E+00-4.79994E-01 3.36701E-01 4.56388E-02 1.34476E-03
 -1      9151-8.58261E-02 6.76467E-01-2.51817E-01 5.13377E-01-4.31808E-03-1.05360E-03
 -1      9152 9.11451E-01-1.74388E+00 3.63074E-01 4.41725E-02-1.08166E-02 4.26482E-03
 -1      9153 2.38046E-01-6.95378E-01 1.97503E-01-8.23483E-04-1.00338E-03 2.53731E-03
 -1      9154 1.63094E-01 4.68726E-01-1.83846E-01-6.90642E-01-2.02985E-02 4.85096E-02
 -1      9155-5.23122E-01 3.87257E+00-1.20009E+00 1.90201E+00-5.52835E-01-3.59627E-01
 -1      9156-4.89788E-01 1.97044E+00-7.39818E-01 7.18127E-01 1.77841E-01 1.14435E-02
 -1      9157 3.49048E-01-1.20173E+00 4.34936E-01-7.10184E-01 1.05827E-01 4.69702E-02
 -1      9158-8.55194E-01 2.72186E+00-8.00565E-01 4.24242E-01 2.46894E-03-4.47462E-04
 -1      9159-5.05562E-01 1.09212E+00-2.50112E-01 3.18808E-01 2.01404E-02-1.73424E-03
 -1      9160 1.40365E-01-4.05293E-01 1.13726E-01 8.12838E-03-2.17320E-05-5.80430E-04
 -1      9161 1.25714E-01-3.73507E-01 1.06731E-01 2.60535E-02-1.00953E-03 4.68358E-04
 -1      9162 1.37902E-01-4.08848E-01 1.16530E-01 1.46751E-02 1.85803E-03-4.98227E-04
 -1      9163-1.65769E+00 5.39638E+00-1.60265E+00 1.93113E-01 1.18205E-03 1.19373E-03
 -1      9164-1.36561E+00 4.41905E+00-1.30805E+00 3.68994E-01-7.26016E-04 5.01609E-04
 -1      9165-1.00126E+00 3.18643E+00-9.37205E-01 1.45361E-01-1.74756E-03 8.94776E-04
 -1      9166 4.45679E-02-9.81159E-01 4.73677E-01-4.92952E-01 1.63594E-02 1.06554E-01
 -1      9167-1.65945E+00 5.78885E+00-1.77380E+00 6.51728E-01 8.94999E-04-8.89742E-04
 -1      9168-1.88815E+00 6.27573E+00-1.88775E+00 5.88156E-01 2.80602E-03 4.83755E-03
 -1      9169-2.26356E+00 7.56261E+00-2.26966E+00 5.16303E-01 2.83454E-03-9.36862E-04
 -1      9170-7.07203E-01 2.22741E+00-6.51123E-01 3.81709E-01-1.45178E-03-1.13460E-03
 -1      9171-7.90486E-01 1.52123E+00-3.14692E-01 3.66260E-01-1.74149E-02 4.37554E-03
 -1      9172-8.54265E-01 1.67482E+00-3.23318E-01 2.98956E-01-2.89490E-02 1.17884E-02
 -1      9173-5.45425E-02 4.35583E-02 4.79908E-03 2.06257E-02 2.72400E-04-4.67143E-05
 -1      9174-2.18171E-01 5.82635E-01-1.56499E-01 6.21351E-02 1.11283E-03-5.96664E-04
 -1      9175 7.58844E-02-8.37847E-02 2.93701E-03-8.23183E-01 4.75742E-03 7.73134E-03
 -1      9176 2.65309E-01 8.41194E-01-5.49132E-01 1.09983E+00 1.73691E-01 1.25078E-01
 -1      9177 9.96072E-02 1.34496E+00-6.93620E-01 1.15456E+00 1.02921E-01 6.65561E-02
 -1      9178-3.56775E-01 1.48068E+00-5.20541E-01 8.88556E-01 7.09736E-02 4.49587E-02
 -1      9179-2.63272E-01 1.80169E+00-7.51232E-01 9.83736E-01 2.21107E-01 6.81291E-02
 -1      9180 2.43183E-01 1.73802E+00-9.62322E-01 1.30822E+00 2.76545E-01 1.49883E-01
 -1      9181 1.58165E-01-5.66690E-01 1.71094E-01 2.28222E-01-1.01032E-03-3.80375E-03
 -1      9182 8.21361E-01-2.78221E+00 8.39152E-01 6.76888E-01-1.23016E-03-1.78968E-03
 -1      9183 7.01949E-01-2.36350E+00 7.12519E-01 7.10633E-01-2.17292E-03 1.13976E-03
 -1      9184 4.70438E-01-8.20302E-01 1.43849E-01-3.87673E-01 3.41825E-03 1.84730E-02
 -1      9185 1.51918E-01-5.49766E-01 1.73613E-01 7.58121E-01-1.50137E-03-2.36229E-03
 -1      9186 2.26496E+00-9.26312E+00 3.01458E+00 1.86088E+00 2.96886E-02 3.05042E-02
 -1      9187 2.28594E+00-9.24183E+00 2.99881E+00 1.78698E+00-3.14378E-02-3.02667E-02
 -1      9188 7.90563E-02-4.13493E-01 1.38591E-01-6.56990E-01 8.90458E-03 3.60662E-03
 -1      9189-1.46395E-02-4.03562E-01 1.70883E-01-5.71018E-01-2.81442E-04 1.97958E-03
 -1      9190-4.91136E-02-4.08639E-01 1.95323E-01-5.10277E-01 2.02520E-03 1.51003E-03
 -1      9191 2.29478E-01-5.79654E-01 1.51881E-01-4.86301E-01 2.38895E-03-6.84179E-03
 -1      9192 1.04845E-01-5.14723E-01 1.76937E-01-4.06603E-01 8.35110E-04 1.39015E-03
 -1      9193-4.30462E-01 9.08628E-01-2.04344E-01-3.51377E-01 2.40029E-03-1.34860E-03
 -1      9194-8.09258E-04-6.07859E-05 4.28720E-04 1.38443E-03-7.29204E-05 4.04171E-05
 -1      9195-8.11148E-04 7.90795E-05 3.69876E-04 1.40033E-03 4.39407E-05-5.29919E-05
 -1      9196-2.73557E-04 7.82890E-04-2.48733E-04 6.52981E-05 1.14887E-05-1.24750E-06
 -1      9197-7.84992E-04-7.59756E-04 7.33913E-04 1.09483E-03 5.02875E-05-9.11263E-06
 -1      9198-8.31428E-04-7.14142E-04 7.21790E-04 1.04012E-03-2.21528E-05 1.43537E-05
 -1      9199-6.94766E-01 2.59924E+00-8.20104E-01 7.51740E-01 2.30460E-03 2.62234E-03
 -1      9200-8.96775E-01 3.11395E+00-9.48550E-01 7.29021E-01 1.06111E-03-1.74929E-03
 -1      9201-1.08885E+00 4.05337E+00-1.27110E+00 7.53419E-01 2.56836E-03 4.16814E-04
 -1      9202-1.13521E-01 2.46685E-01-6.11967E-02-2.24144E-01 1.64073E-04-5.63703E-03
 -1      9203-1.53042E-01 4.54194E-01-1.36087E-01-2.17285E-01-1.58631E-02-7.06487E-03
 -1      9204-5.67175E-02 8.12580E-02-9.09133E-03-1.94001E-01-2.06228E-02-2.27926E-02
 -1      9205 2.74974E-02 4.06997E-02-3.65933E-02-3.80934E-01-9.57355E-03-4.49850E-03
 -1      9206-2.02862E-02 2.02152E-01-9.10007E-02-4.05461E-01-1.76706E-02-1.04714E-02
 -1      9207-1.48966E+00 4.81264E+00-1.42465E+00 1.78675E-01 2.29331E-03-1.00436E-04
 -1      9208-3.70133E-03 9.00302E-04 1.26240E-03 1.65042E-03 1.85999E-05-3.41025E-05
 -1      9209-1.21009E-01 5.13864E-01-1.69996E-01 7.85727E-01 2.07429E-04-4.07657E-03
 -1      9210 9.42343E-01-1.62939E+00 3.07127E-01 4.69831E-02-1.06577E-02 7.43652E-03
 -1      9211 1.62765E+00-5.44448E+00 1.62957E+00 4.82204E-01 1.63486E-03 2.76377E-03
 -1      9212-8.09169E-02 6.27991E-01-2.34118E-01 4.51215E-01 4.19480E-03 1.43027E-03
 -1      9213-1.09042E-02 3.42772E-02-9.50760E-03 7.89856E-01 9.46842E-04 3.94101E-03
 -1      9214-1.23253E+00 3.95600E+00-1.16677E+00 1.62221E-01 2.77836E-03-9.83789E-04
 -1      9215 4.89185E-02 1.61612E-01-8.78465E-02-6.51930E-01 9.57478E-03 1.43224E-02
 -1      9216-2.17961E+00 7.56548E+00-2.30489E+00 6.32645E-01 2.24240E-03-2.16300E-03
 -1      9217 2.54466E-02 2.46803E-01-4.26478E-02-1.13681E+00-1.55555E-02-9.56186E-04
 -1      9218-7.38234E-02 2.09487E-01-4.39772E-02-1.00140E+00 2.37042E-03-3.77798E-03
 -1      9219-1.05905E-01 2.05050E-01-1.81667E-02-9.66135E-01-2.39340E-02 4.60659E-03
 -1      9220 6.25643E-01-7.26242E-01 4.83904E-02-8.07199E-01 9.91724E-03-4.53219E-02
 -1      9221 1.21826E-01-4.63080E-01 1.46515E-01-2.02950E-01-2.40605E-03-3.29323E-05
 -1      9222-4.49096E-01 2.96455E-01 5.25067E-02-6.81960E-01-8.67163E-03 7.74968E-03
 -1      9223-1.04013E-01-1.33432E-02 4.35394E-02-9.14467E-01-9.70234E-03 7.32042E-04
 -1      9224-3.95361E-01 1.25695E+00-3.76986E-01 7.22500E-01 7.40322E-03 1.74248E-03
 -1      9225-2.57726E+00 8.45434E+00-2.51716E+00 2.35897E-01-3.54726E-03 8.85677E-04
 -1      9226-2.32344E+00 7.64780E+00-2.28088E+00 3.57921E-01-2.14893E-03 3.11334E-03
 -1      9227-2.57839E+00 8.45917E+00-2.52034E+00 2.33403E-01 2.67356E-03-1.41502E-03
 -1      9228 9.54150E-03 7.20392E-02-4.53273E-02-4.61735E-01-1.62215E-02-5.08196E-02
 -1      9229 1.71336E-01 4.40626E-02-8.71418E-02-5.18634E-01-8.30561E-03-2.60501E-02
 -1      9230-3.24305E-01 9.36195E-01-2.62990E-01 7.91412E-02 1.44808E-03-7.31346E-04
 -1      9231-1.83820E+00 5.99187E+00-1.78009E+00 2.91525E-01-2.62381E-03-9.20609E-04
 -1      9232-1.89712E+00 6.17531E+00-1.83249E+00 2.97207E-01 3.58112E-03 2.71702E-04
 -1      9233-1.83765E+00 5.99202E+00-1.77849E+00 2.95139E-01 4.03292E-03 1.05808E-03
 -1      9234-1.24318E+00 4.02895E+00-1.19283E+00 5.35546E-01 6.09012E-04-7.64103E-04
 -1      9235-7.30992E-01 2.46580E+00-7.41128E-01 7.49213E-01-1.06842E-03-1.33378E-03
 -1      9236 4.72086E-02-1.07335E-01 2.67826E-02 7.94574E-01-1.37457E-03 3.91915E-04
 -1      9237 1.22597E+00-4.09936E+00 1.22998E+00 6.23499E-01-8.98411E-04-3.82411E-03
 -1      9238 1.10308E+00-3.68601E+00 1.10690E+00 6.66476E-01-5.20345E-04-3.04759E-05
 -1      9239-1.01632E+00 3.25692E+00-9.60146E-01 4.64272E-01-3.36992E-03 9.54784E-04
 -1      9240 5.18575E-01-1.76047E+00 5.31935E-01 7.36169E-01-2.20022E-03-1.22249E-03
 -1      9241-3.50130E-01-2.05867E-01 2.38451E-01-5.84220E-01 5.42099E-04 3.49627E-03
 -1      9242-1.49894E-01-2.89415E-01 1.85815E-01-6.19597E-01-1.13323E-03 1.45249E-03
 -1      9243-3.51815E-01-2.06864E-01 2.39362E-01-5.86358E-01-6.67428E-04-2.75196E-03
 -1      9244 5.57101E-01-2.65819E+00 7.90776E-01 7.18624E-02-1.37261E-02 8.28035E-02
 -1      9245-2.92108E+00 1.06831E+01-3.33042E+00 7.23018E-01 6.67221E-03 1.86404E-02
 -1      9246-1.89447E+00 8.24537E+00-2.72699E+00 9.30952E-01 2.04458E-02 2.02438E-02
 -1      9247-2.19351E-01 1.00700E+00-3.49771E-01 7.28296E-01 1.03169E-02 5.13541E-04
 -1      9248-1.03791E+00 3.34511E+00-9.88758E-01 5.59402E-01-3.94530E-04-2.33600E-03
 -1      9249-5.00728E-01 7.58405E-01-9.16726E-02-6.31207E-01 1.07734E-03 1.72373E-02
 -1      9250-3.60769E-01 6.07833E-01-8.78858E-02-7.35953E-01-4.36156E-03 2.50220E-02
 -1      9251-3.20803E-01 6.37272E-01-8.50446E-02-6.95874E-01-3.50035E-03 2.35446E-02
 -1      9252 2.26339E-01-1.39487E+00 3.48847E-01-2.69423E-01-7.42537E-01-1.12461E-01
 -1      9253-3.07035E-01 8.47462E-01-2.30317E-01 3.32397E-01-3.46648E-03-1.27430E-03
 -1      9254-2.56466E-01 7.75323E-01-2.21905E-01 2.77529E-01-5.02590E-04 9.19445E-05
 -1      9255-2.30089E-01 7.38317E-01-2.18563E-01 2.32461E-01-2.86346E-03-7.16139E-04
 -1      9256-3.87383E-01 9.03895E-01-2.17823E-01 2.10897E-01 1.15606E-04-1.76981E-04
 -1      9257-3.26320E-01 8.34969E-01-2.14015E-01 1.54946E-01 3.01932E-04 6.32591E-04
 -1      9258 6.67196E-01-2.27076E+00 6.85831E-01 6.90049E-01-1.62629E-03 3.75130E-04
 -1      9259-5.50768E-01 2.00354E+00-7.38870E-01-3.94402E-02 3.18823E-01-5.03812E-02
 -1      9260-4.59492E-01 1.60508E+00-6.04545E-01-4.41395E-01 3.56177E-01-7.50541E-02
 -1      9261-2.91870E+00 1.06769E+01-3.32912E+00 7.23816E-01-3.41268E-03-2.03196E-02
 -1      9262-1.89170E+00 8.22763E+00-2.71501E+00 9.32121E-01-2.32760E-02-2.04742E-02
 -1      9263-1.23610E+00 4.00279E+00-1.18397E+00 4.25646E-01-1.08224E-03 2.25237E-04
 -1      9264-2.68987E-01 3.81508E-01-8.39646E-02 1.24619E-04 5.40120E-03 5.93259E-03
 -1      9265 7.50467E-02-4.13282E-01 1.41547E-01-6.61041E-01-9.65517E-03-2.23304E-04
 -1      9266-5.13077E-02-4.10924E-01 1.97333E-01-5.13693E-01-9.55853E-04-5.70639E-05
 -1      9267 2.25412E-01-5.83812E-01 1.53720E-01-4.87745E-01-1.63031E-03 1.02271E-02
 -1      9268-3.74395E-01 1.29652E+00-5.15534E-01-5.95853E-01 2.77237E-01-1.51514E-01
 -1      9269 1.11875E-01 4.62452E-01-1.57386E-01-6.80860E-01 2.80317E-03-6.26392E-03
 -1      9270 2.79179E-02 5.81812E-01-2.27383E-01-6.49474E-01-5.11101E-04-2.83476E-03
 -1      9271-4.94893E-01 2.11232E+00-8.01831E-01 5.57180E-01 2.36319E-01-2.85695E-03
 -1      9272-1.76869E+00 5.74375E+00-1.70399E+00 1.95977E-01 2.70563E-03-1.23142E-03
 -1      9273 2.72850E-01-8.16812E-01 2.33472E-01-3.80794E-02 6.26984E-04 3.81981E-03
 -1      9274 2.25670E-01-6.41808E-01 1.78794E-01 5.46009E-03 1.19612E-03 2.90155E-03
 -1      9275 9.08298E-03-6.05542E-02 2.22420E-02 7.81818E-02 2.05152E-04 2.69464E-04
 -1      9276-1.71344E+00 5.57035E+00-1.65237E+00 1.97953E-01-2.56802E-03 2.07119E-04
 -1      9277-1.71317E+00 5.56951E+00-1.65179E+00 1.99765E-01 2.32225E-03 9.92427E-05
 -1      9278-1.32438E+00 4.58260E+00-1.39524E+00 7.12512E-01-7.60434E-04 4.65062E-03
 -1      9279-2.53817E-01 5.59512E-01-7.19208E-02-7.09940E-01 5.65987E-03-2.85715E-02
 -1      9280-2.07603E-01 5.92052E-01-9.41276E-02-6.77867E-01-4.33732E-03 1.47956E-02
 -1      9281 4.93046E-03-1.96867E-02 6.39630E-03 9.67553E-03-1.31288E-04-1.98939E-04
 -1      9282-1.35366E-01 7.61109E-01-2.72444E-01-4.80405E-01 3.99827E-03-2.59663E-03
 -1      9283-3.07880E-01 8.23238E-01-2.16305E-01-4.68913E-01 4.15700E-03-3.04345E-03
 -1      9284-1.65097E-01 7.04958E-01-2.24302E-01-5.76568E-01 4.85049E-03-1.80237E-03
 -1      9285-1.64525E-01-3.34216E-01 2.12990E-01-5.67677E-01-9.14868E-04 2.69444E-03
 -1      9286-1.67380E-01-3.34745E-01 2.14490E-01-5.70565E-01 1.15222E-03-1.63335E-03
 -1      9287-2.42689E-01 6.70494E-01-1.83339E-01 6.96337E-02 1.74798E-03 5.44666E-04
 -1      9288-1.00486E-04 9.44302E-04-3.49148E-04 9.62635E-04-8.54703E-05-6.46175E-05
 -1      9289-1.03608E-04 9.40533E-04-3.43603E-04 9.67576E-04 8.58925E-05 8.24792E-05
 -1      9290 2.04478E-04 2.06615E-04-2.14116E-04 3.59879E-04 2.05775E-05 9.53496E-05
 -1      9291 1.95383E-04 2.28892E-04-2.35168E-04 3.40806E-04-3.49468E-05-1.09379E-04
 -1      9292-3.11529E-01 8.74226E-01-2.42025E-01-2.30522E-01 1.60010E-03-1.47438E-03
 -1      9293 2.22720E-01 6.90527E-01-4.20402E-01 8.51919E-01-1.21339E-02-3.62331E-02
 -1      9294-1.23878E-01 8.90939E-01-3.29301E-01 7.38380E-01-2.13813E-03-1.06926E-02
 -1      9295-2.83660E+00 9.40088E+00-2.81108E+00 2.87508E-01-3.86419E-03 4.71987E-03
 -1      9296-2.76688E+00 9.40534E+00-2.85501E+00 4.26735E-01-1.60673E-02 3.35105E-03
 -1      9297-2.76903E+00 9.40778E+00-2.85156E+00 4.22133E-01 1.09943E-02-3.46274E-03
 -1      9298-1.53508E-04-4.11060E-04 2.22286E-04 1.83453E-03-6.49536E-05 9.51513E-05
 -1      9299-4.68665E-01-1.16249E-01 2.54153E-01-5.84656E-01 1.34081E-03 3.57717E-03
 -1      9300-5.78929E-01 1.14800E-02 2.46296E-01-5.62506E-01 6.98520E-04 7.67539E-03
 -1      9301-5.13761E-01 7.24693E-04 2.15285E-01-6.03748E-01-2.61047E-03-7.17150E-04
 -1      9302-1.61050E+00 5.23820E+00-1.55421E+00 1.59422E-01-2.09982E-03-8.45223E-04
 -1      9303-2.06934E-01 6.14020E-01-4.87443E-02-4.72215E-01 4.90127E-01-3.35191E-01
 -1      9304-2.24705E-05 3.48823E-04-1.12778E-04-1.39751E-04 2.34509E-05-2.48266E-05
 -1      9305-5.60765E-05 1.16075E-04-2.41333E-05-3.02563E-05 2.52952E-05-1.32592E-05
 -1      9306-4.92457E-05 1.12337E-04-1.63628E-05-2.69331E-05-2.82415E-05 1.08319E-05
 -1      9307-1.74912E-05 3.49426E-04-1.13088E-04-1.40267E-04-2.39551E-05 2.16594E-05
 -1      9308-1.52245E+00 5.05203E+00-1.51348E+00 6.72414E-01 9.16781E-04 1.70311E-03
 -1      9309-2.38549E+00 7.86515E+00-2.34868E+00 3.76519E-01-3.33077E-03 1.72038E-03
 -1      9310-2.38023E+00 7.85326E+00-2.34540E+00 3.71745E-01 1.56989E-03-2.46820E-03
 -1      9311-2.31772E+00 7.64348E+00-2.27956E+00 3.61958E-01 3.77026E-03-2.26539E-03
 -1      9312 2.03052E+00-6.78540E+00 2.03726E+00 3.24935E-01-3.15787E-03-2.64161E-04
 -1      9313 2.09431E+00-6.98120E+00 2.09458E+00 3.27338E-01-3.31934E-03-5.05189E-04
 -1      9314 1.34070E+00-4.48373E+00 1.34728E+00 5.91666E-01-1.65991E-03-1.06747E-03
 -1      9315 2.03378E+00-6.78806E+00 2.03524E+00 3.20230E-01 2.33186E-03 4.70044E-04
 -1      9316-2.38156E-03 2.16338E-06 9.66181E-04 1.53326E-03-1.09847E-05-1.00688E-05
 -1      9317-2.38984E-01 7.45179E-01-2.75930E-01-7.97521E-01 2.89788E-04-5.09216E-04
 -1      9318 9.44832E-01-1.56031E+00 2.62167E-01 2.58093E-01-2.02865E-04-2.20710E-03
 -1      9319-4.91225E-01 1.49909E+00-4.32100E-01 1.04779E-01-2.11172E-03-5.67666E-04
 -1      9320 6.33171E-04-4.45151E-02 1.91638E-02 8.67833E-02 1.33398E-04 2.82623E-05
 -1      9321 8.04507E-01-1.27515E+00 2.03394E-01 1.06126E-01 1.54685E-03-6.33672E-03
 -1      9322 8.72466E-01-1.23004E+00 1.53385E-01 1.67223E-01 5.64341E-03-8.98331E-03
 -1      9323-2.83902E+00 9.38569E+00-2.80334E+00 2.96382E-01 8.03635E-03-5.97727E-03
 -1      9324-5.66520E-01 1.76651E+00-5.13453E-01 2.78739E-01-1.00212E-03 4.61989E-04
 -1      9325-1.54372E+00 7.32526E+00-2.48874E+00 8.10863E-01 1.14262E-02-5.27535E-03
 -1      9326-4.29325E-01 1.86118E+00-4.05123E-01 2.88842E-01 9.86453E-01 2.07922E-01
 -1      9327-1.61190E-02 3.68100E+00-1.28433E+00 2.88761E+00-4.82181E-01-2.16840E-01
 -1      9328-8.60464E-01 2.74465E+00-8.08525E-01 5.40485E-01-8.64787E-04-3.33091E-04
 -1      9329 1.84057E-01-6.33323E-01 1.91739E-01 1.70394E-01 1.10800E-04-4.84913E-04
 -1      9330 2.17821E+00-8.91412E+00 2.87815E+00 1.41958E+00-1.01422E-02-2.33496E-02
 -1      9331 5.62021E-01-1.16291E+00 2.56726E-01 8.65449E-02 2.52160E-03-1.54257E-03
 -1      9332 4.44048E-01-9.88657E-01 2.33011E-01 3.71724E-02-1.77683E-03-3.35574E-03
 -1      9333-8.11044E-03 1.38334E-03 2.87206E-03 8.09471E-03-3.47573E-05 8.64426E-06
 -1      9334 3.08941E-02-5.11940E-01 2.12542E-01 4.11228E-01-5.49527E-03-6.41628E-04
 -1      9335 1.55626E-01-6.69540E-01 2.12045E-01 3.68613E-01-1.12486E-03 2.22451E-03
 -1      9336-3.16681E-01 8.32968E-01-2.22710E-01 1.58548E-01 2.29944E-03 6.63367E-04
 -1      9337-2.49480E-01 7.64160E-01-2.23935E-01 1.89709E-01 2.38747E-03 2.17031E-03
 -1      9338-3.40498E-01 8.55292E-01-2.16339E-01 1.11305E-01-2.28761E-03-4.45688E-04
 -1      9339 2.61713E-01 2.42328E-02-1.14105E-01-5.37234E-01-1.32675E-02 6.04377E-02
 -1      9340 2.30893E+00-7.70357E+00 2.31254E+00 1.98260E-01-2.82707E-03 1.51839E-03
 -1      9341 2.30863E+00-7.69983E+00 2.31013E+00 1.99006E-01 3.90150E-03-5.12405E-04
 -1      9342 1.19323E-01-3.91719E-01 1.16571E-01 1.06390E-01 1.01735E-03 1.37765E-03
 -1      9343 1.69937E-01-4.95608E-01 1.39414E-01 1.24013E-01-5.11894E-04-9.81291E-05
 -1      9344 3.04475E-01-1.02813E+00 3.10439E-01 2.17076E-01-5.95944E-04-9.19654E-05
 -1      9345-4.94007E-01 3.08607E-01 5.52518E-02-6.24735E-01 7.55149E-03-1.76404E-02
 -1      9346-4.94341E-01 2.52230E-01 6.86280E-02-6.27645E-01 1.59276E-03-5.22919E-03
 -1      9347-3.12269E-01 8.96207E-01-2.88678E-01-6.54753E-01-4.92511E-03 5.93248E-03
 -1      9348-1.82081E+00 1.54035E+00-4.66278E-03-7.03107E-01 3.93835E-02 7.15289E-02
 -1      9349-1.10370E+00 1.40718E+00-9.83026E-02-2.60116E-01 8.76445E-03 5.02995E-02
 -1      9350 1.32559E-01-4.56051E-01 1.39148E-01 1.44785E-01-2.08499E-04 1.93560E-04
 -1      9351-4.68120E-01 1.50759E+00-4.65225E-01 7.33907E-01 1.72726E-02-4.03120E-03
 -1      9352-5.13837E-01 1.10376E+00-2.62667E-01 3.41444E-01 8.08502E-03-1.30296E-02
 -1      9353-2.77259E+00 9.14650E+00-2.72912E+00 2.76025E-01-4.35915E-03 7.72353E-03
 -1      9354-2.77149E+00 9.15506E+00-2.73253E+00 2.81343E-01 3.62199E-03-5.51330E-03
 -1      9355-1.22590E-01 1.54112E-01-5.61622E-02-3.14239E-01-6.20002E-03-1.11869E-03
 -1      9356 6.82775E-01-1.32912E+00 2.79943E-01 5.83340E-02-6.76866E-03 2.50164E-03
 -1      9357 8.17510E-01-1.49300E+00 2.94404E-01 3.95437E-02-5.28800E-03 6.44427E-04
 -1      9358-5.86509E-01 8.02059E-01-6.59902E-02-6.87593E-01-4.33941E-03-2.38803E-02
 -1      9359-8.02701E-01 9.40339E-01-4.28678E-02-6.05986E-01-4.99513E-03-1.36450E-02
 -1      9360-7.18837E-01 2.27579E+00-6.67214E-01 4.97255E-01 1.85129E-03-1.22246E-04
 -1      9361 9.18223E-01-1.42180E+00 2.10746E-01 2.13874E-01 1.92945E-04-3.59523E-03
 -1      9362 3.52832E-04-2.30717E-03 8.30446E-04 1.90793E-03 5.60482E-05-1.52061E-04
 -1      9363 1.00072E-03-6.59733E-03 2.48504E-03 6.54080E-03 5.69973E-05-1.64037E-04
 -1      9364 3.78697E-04-2.28658E-03 7.86687E-04 1.83001E-03-7.36283E-05 1.46294E-04
 -1      9365 2.02525E+00-1.66787E+00 3.26285E-02-1.12636E+00 3.66879E-03-1.03065E-01
 -1      9366 8.11180E-01-1.26583E+00 1.65998E-01 3.07970E-02-9.36249E-02 2.19423E-02
 -1      9367 1.75104E+00-1.94380E+00 1.85819E-01-2.31934E-01-4.37255E-02-1.81900E-01
 -1      9368 1.24099E+00-2.26286E+00 2.23601E-01-3.55426E-01-5.81348E-02-8.70188E-02
 -1      9369 1.78933E-01-8.00030E-01 2.85273E-01-2.24875E-02-1.55704E-01 2.58292E-02
 -1      9370-7.61381E-01 2.64143E-01 1.46791E-01-4.11667E-01 1.26864E-02-3.02029E-02
 -1      9371-8.03654E-01 2.64837E-01 1.42931E-01-3.79382E-01 3.61659E-03-6.70877E-03
 -1      9372 1.01426E-01-2.99452E-01 7.79795E-02-8.72783E-01-2.27638E-02 9.91237E-03
 -1      9373 2.47093E-01-2.20052E-01 8.70688E-03-1.11856E+00-4.01895E-02 8.09377E-03
 -1      9374 2.03668E-03-1.10715E-02 3.72092E-03 7.98660E-03-1.75396E-05-1.62862E-04
 -1      9375 2.01130E-03-1.08744E-02 3.69985E-03 7.93091E-03 5.91434E-05 1.81980E-04
 -1      9376-1.43674E-01 4.73891E-01-1.46249E-01-6.66213E-01 4.33874E-03 6.01122E-03
 -1      9377 1.79240E-01 4.77592E-02-5.75622E-02-1.33000E+00-3.17377E-02-2.02428E-02
 -1      9378 8.54044E-01 1.92864E-01-7.39877E-02-1.93640E+00-2.08595E-01 6.60704E-02
 -1      9379 3.02196E-01 1.78497E-01-3.85511E-02-1.39173E+00-5.45737E-02 3.00640E-02
 -1      9380-4.53073E-01 9.52686E-01-2.12946E-01 4.51628E-02-2.61115E-03 3.38368E-04
 -1      9381-1.04431E+00 3.36423E+00-9.93295E-01 3.86468E-01 7.70645E-04-2.62218E-03
 -1      9382 6.85085E-01-1.33255E+00 2.80261E-01 5.52540E-02 5.91586E-03-2.81414E-03
 -1      9383 8.21119E-01-1.50194E+00 2.95884E-01 3.85478E-02 2.66826E-03-1.23613E-03
 -1      9384-8.91462E-01 1.15011E+00-1.03093E-01-3.97606E-01 2.08568E-02 2.97283E-02
 -1      9385-5.61392E-03 1.13127E-03 1.90280E-03 3.46685E-03 2.00348E-06 8.54390E-06
 -1      9386-2.73343E-01 2.02518E+00-6.48910E-01 6.21030E-01-1.08973E+00-3.00565E-01
 -1      9387-3.85164E-01 2.80599E+00-1.04182E+00 9.84490E-01-4.99977E-01-1.67974E-01
 -1      9388-4.54070E-01 2.16018E+00-8.84476E-01 2.72558E-01 3.94283E-01 2.66545E-02
 -1      9389-2.38971E-01 2.01065E+00-6.64629E-01 6.66001E-01 1.08994E+00 3.02206E-01
 -1      9390-4.28522E-01 2.72597E+00-1.00366E+00 9.33744E-01 5.14402E-01 1.70344E-01
 -1      9391 1.36144E-01-4.09411E-01 1.17571E-01-7.18222E-02-9.59266E-04-1.14954E-03
 -1      9392 1.99456E-01-5.17828E-01 1.37229E-01-7.34619E-02 2.01839E-03 1.89829E-04
 -1      9393 1.36374E-01-4.08152E-01 1.16563E-01-7.11013E-02 3.42581E-03 1.67792E-03
 -1      9394-3.50665E-01 1.00998E+00-3.35421E-01-7.04946E-01 7.06805E-02-5.17791E-02
 -1      9395-1.16353E+00 1.22111E+00-1.26851E-02-7.20444E-01 1.98482E-02 2.00624E-02
 -1      9396-1.15566E+00 1.14330E+00-1.32620E-02-6.46189E-01 1.36137E-02 2.11426E-02
 -1      9397-1.68627E-01 4.32973E-01-1.19078E-01-9.02990E-01-1.81316E-02 1.58467E-02
 -1      9398-3.25069E-01 9.31365E-01-2.92494E-01-7.16320E-01-3.43646E-02 1.86655E-02
 -1      9399 2.02017E-01-5.96887E-01 1.68471E-01 2.21951E-01 8.16335E-04 5.71898E-04
 -1      9400 1.61394E+00-6.08909E-01-9.11353E-02-2.05448E+00 5.48548E-02-1.13979E-01
 -1      9401 1.07588E+00-1.43559E+00 5.73309E-02-7.20470E-01 2.30147E-02-3.79150E-02
 -1      9402 2.91777E-01-6.53086E-01 1.52242E-01-3.25893E-01-5.46771E-04-2.62807E-03
 -1      9403-9.35593E-05-4.24471E-04 2.13370E-04 1.78541E-03 8.78076E-05-9.65073E-05
 -1      9404-2.37122E-01 1.80149E-01-2.64569E-02-1.50205E-01 9.71250E-03 2.63513E-03
 -1      9405 9.93363E-04-6.72338E-03 2.57483E-03 6.57722E-03-8.13688E-05 6.08332E-05
 -1      9406 1.02267E-01-4.69648E-01 1.58594E-01-2.42602E-01 5.96315E-03 3.56936E-03
 -1      9407 1.23298E-01-5.10423E-01 1.66025E-01-3.06297E-01 4.77624E-03 1.91256E-03
 -1      9408 1.60652E-01-5.38521E-01 1.61550E-01-3.15525E-01 1.62333E-03 5.28961E-04
 -1      9409 2.68791E-01 8.35593E-01-5.47453E-01 1.00663E+00 9.05719E-02 6.11527E-02
 -1      9410 1.33135E-01-7.13822E-01 1.48942E-01-5.15771E-01 4.34102E-01 3.20415E-01
 -1      9411 2.63122E-01-1.02108E+00 3.90693E-01-7.20274E-01 1.65550E-01 1.18143E-01
 -1      9412 6.05664E-01-8.30743E-02-1.93151E-01-5.31500E-01-3.44029E-03 1.60025E-02
 -1      9413 8.02769E-01-6.90159E-01-5.60275E-02-1.34358E+00 2.96790E-02-6.13225E-02
 -1      9414 8.29048E-01-9.05134E-03-2.52030E-02-1.83873E+00-8.12244E-03-1.81315E-02
 -1      9415-1.34169E-01 4.00963E-01-1.11455E-01-7.43602E-01 9.02624E-03 1.32713E-02
 -1      9416-3.89977E-03-3.77497E-04 1.72844E-03 3.48515E-03 1.01059E-05-4.09108E-05
 -1      9417-7.74487E-02 2.19534E-01-7.17249E-02-8.20859E-01 6.23068E-03 4.27642E-03
 -1      9418-1.02339E-01 6.34431E-01-2.12074E-01-6.41724E-01 2.81680E-04-2.52829E-03
 -1      9419-2.18474E-01 1.18844E+00-4.11191E-01 8.67789E-01 4.33889E-02 3.37820E-02
 -1      9420 1.39156E-01 8.51844E-01-4.74138E-01 8.87483E-01 3.45699E-02 2.37884E-02
 -1      9421-7.87805E-01 9.44955E-01-3.56041E-02-5.97406E-01 1.09393E-02 2.25741E-02
 -1      9422 8.63233E-02 5.55397E-01-2.66794E-01-6.62343E-01-6.01899E-04-1.45799E-02
 -1      9423 1.58058E-01 4.56022E-01-1.65730E-01-6.88896E-01 1.72748E-02-5.05842E-02
 -1      9424 6.31734E-02 4.89815E-01-1.70288E-01-6.81242E-01 1.74089E-02-6.29228E-02
 -1      9425 8.12111E-03 5.01689E-01-1.47903E-01-6.76538E-01 1.46425E-03-3.19923E-02
 -1      9426 2.98837E-02-1.16448E-01 3.71816E-02 7.02624E-02 1.47534E-04 5.92000E-04
 -1      9427-1.35255E-01-1.27288E+00 6.35577E-01 1.25119E+00-2.97220E-01 1.89269E-01
 -1      9428-1.34418E-01-1.27531E+00 6.34354E-01 1.25145E+00 3.01618E-01-1.90871E-01
 -1      9429-1.29052E-01 6.49959E-01-2.25993E-01 3.92013E-01 5.44117E-03 4.82518E-03
 -1      9430 8.46502E-01-1.56590E+00 3.07996E-01 5.67153E-04 1.76561E-03-5.83188E-03
 -1      9431-4.03744E-01 1.68610E+00-4.50528E-01-2.12016E-01-8.21999E-01 1.08111E-01
 -1      9432-2.06959E+00 6.75492E+00-2.00819E+00 1.81973E-01-3.69779E-03 4.39832E-04
 -1      9433-2.06990E+00 6.75853E+00-2.00985E+00 1.79682E-01 3.10229E-03 4.27503E-04
 -1      9434-2.38523E-01 1.80912E-01-3.13524E-02-1.41994E-01-8.86301E-03-4.72078E-03
 -1      9435-2.35861E-03-1.62118E-05 9.84118E-04 1.50249E-03-2.01687E-05-1.39264E-05
 -1      9436 1.43192E-01-4.11600E-01 1.13934E-01-6.37913E-03-3.66635E-04-6.53717E-04
 -1      9437 1.40662E-01-4.10043E-01 1.18040E-01 3.87088E-03 1.81798E-03 2.58809E-04
 -1      9438-9.15567E-05 1.20669E-04-5.13498E-05 8.40641E-05 2.94231E-06 2.13931E-05
 -1      9439 3.03960E-04-6.93499E-05-8.36613E-05 1.22640E-04-6.44232E-05-6.31173E-05
 -1      9440-2.62982E-04 3.37697E-04-2.00297E-04 1.88596E-04-5.06715E-06 4.20818E-05
 -1      9441 2.09792E-02-8.59377E-02 2.77229E-02 6.05040E-02-8.00682E-05-1.38881E-05
 -1      9442 7.22448E-01-3.15181E-01-1.57020E-01-2.56302E-01-2.55800E-02 1.05993E-02
 -1      9443-1.40304E-04 1.74703E-04-2.02692E-05-7.92413E-05-4.93894E-06 7.11154E-06
 -1      9444-7.13671E-05 8.49348E-05-3.47755E-06-6.78887E-05 2.30850E-06-8.77300E-07
 -1      9445-1.86585E-05 8.20938E-05-1.59040E-05-3.67347E-05 2.26611E-05-9.32309E-06
 -1      9446-2.95410E+00 1.09198E+01-3.39890E+00 1.04705E+00-4.90585E-03-2.59398E-02
 -1      9447-2.67092E+00 1.00485E+01-3.16116E+00 1.04345E+00-1.77752E-02-6.87687E-03
 -1      9448 7.30119E-01-6.82052E-01-1.25211E-02 7.20986E-03-1.06200E-02-1.61567E-02
 -1      9449 5.98425E-01-3.50058E-01-8.57435E-02-1.46604E-01-4.78997E-03 9.42942E-03
 -1      9450 3.17759E-01 9.92726E-01-6.13538E-01 1.23083E+00 3.51969E-01 2.53047E-01
 -1      9451 1.98158E-01 2.09648E+00-1.10834E+00 1.40280E+00 4.69806E-01 2.75709E-01
 -1      9452 3.32281E-02-5.12843E-01 2.11908E-01 4.08085E-01 5.91113E-03 1.01719E-03
 -1      9453 7.33271E-01-3.01774E-01-1.89062E-01-2.27516E-01 1.23163E-02-5.12948E-03
 -1      9454-3.15070E-01 1.90071E+00-7.81161E-01 8.80451E-01 3.23386E-01 5.67931E-02
 -1      9455-2.95651E+00 1.09278E+01-3.40159E+00 1.05131E+00 6.83706E-03 2.62066E-02
 -1      9456-2.67076E+00 1.00527E+01-3.16632E+00 1.04811E+00 1.44045E-02 8.27811E-03
 -1      9457-2.13558E-01-1.19009E-02 9.10155E-02-8.24579E-01-1.90800E-02 5.05324E-03
 -1      9458-1.65530E-01 4.26282E-01-1.22026E-01-9.01204E-01 1.73548E-02-2.25521E-02
 -1      9459-2.30646E-04 1.07654E-03-3.24506E-04 8.84875E-05 1.22862E-04 9.45359E-06
 -1      9460-2.73681E-04-3.62043E-04 2.16881E-04-3.92340E-05 6.48745E-05-1.01145E-04
 -1      9461-2.60084E-04 1.04174E-03-2.68518E-04 9.32144E-05-1.28278E-04-1.66714E-05
 -1      9462-2.57186E-04-3.25607E-04 1.84035E-04-2.12101E-05-5.69881E-05 1.00701E-04
 -1      9463-1.68819E-01 7.85454E-01-2.66646E-01-4.36516E-01 2.80101E-03-5.52469E-03
 -1      9464-2.73528E-01 8.55535E-01-2.52043E-01-3.38454E-01 2.11008E-03-2.18478E-03
 -1      9465-2.90148E-01 8.48870E-01-2.40799E-01-3.79567E-01 3.71486E-05 3.83338E-04
 -1      9466-2.75408E-01 8.56605E-01-2.51917E-01-3.38694E-01-3.02348E-03 3.00608E-03
 -1      9467-1.69122E-01 7.85964E-01-2.67053E-01-4.35554E-01-4.59836E-03 6.35675E-03
 -1      9468 7.94421E-01-1.62705E+00 3.62847E-01 4.73209E-01-7.05645E-03 2.74498E-03
 -1      9469-3.22055E-01 9.21214E-01-2.90311E-01-7.16422E-01 3.34370E-02-1.97017E-02
 -1      9470-3.24117E-04 1.29290E-03-3.81191E-04 1.92486E-04 7.49474E-05-1.06659E-06
 -1      9471-1.08568E-04 8.88775E-04-2.63484E-04 1.68746E-04 1.06519E-04-2.79163E-05
 -1      9472-2.57639E-04 1.04042E-03-3.06040E-04-2.01262E-04 8.00738E-05-4.82430E-05
 -1      9473-3.23457E-04 1.29391E-03-3.82286E-04 1.94103E-04-7.44290E-05 1.95893E-06
 -1      9474-2.57101E-04 1.04313E-03-3.07586E-04-1.97860E-04-7.95737E-05 4.78877E-05
 -1      9475-1.11024E-04 8.88654E-04-2.64478E-04 1.71237E-04-1.05601E-04 2.94326E-05
 -1      9476-8.43678E-01 2.16433E-01 2.54631E-01-3.84417E-01 7.87630E-03-1.64863E-02
 -1      9477-4.71888E-01-1.16940E-01 2.55152E-01-5.86776E-01-2.15872E-03-3.82555E-03
 -1      9478-5.81111E-01 1.06257E-02 2.47508E-01-5.64860E-01-1.61699E-03-9.56596E-03
 -1      9479-5.32427E-01 1.15250E-01 1.72651E-01-6.12409E-01-9.02496E-03-4.00430E-03
 -1      9480-1.66344E-01 2.90313E+00-1.24525E+00 1.33371E+00 6.09971E-01 3.12957E-01
 -1      9481-2.49580E-01 2.05343E+00-8.83594E-01 7.84475E-01 4.51930E-01 4.30338E-02
 -1      9482 1.84982E-02 1.65100E+00-6.18622E-01 1.11760E+00 1.07749E+00 5.35838E-01
 -1      9483-5.36587E-01 3.77839E+00-1.13029E+00 1.82473E+00 5.72168E-01 4.01701E-01
 -1      9484-5.77964E-01 7.87138E-01-6.75656E-02-6.96284E-01 2.19352E-03 2.42199E-02
 -1      9485-8.25287E-02 1.86240E-01-5.29163E-03-1.02373E+00-3.90571E-02-1.16441E-02
 -1      9486 2.52135E-03 2.09730E-01-2.68864E-02-1.18004E+00-4.03422E-03-3.11622E-02
 -1      9487-7.28399E-01 2.89419E-01 1.51776E-01-4.28809E-01-7.85325E-03 3.10323E-02
 -1      9488-6.34435E-01 2.38708E-01 1.41674E-01-5.10193E-01-3.05319E-03 1.66731E-02
 -1      9489-6.50419E-01 1.80742E-01 1.85017E-01-5.31265E-01-1.26923E-02 1.09033E-02
 -1      9490 2.69210E-04-8.00344E-04 3.03931E-04 8.83151E-04 1.26973E-04 8.76682E-05
 -1      9491 2.61499E-04-8.10508E-04 2.86257E-04 8.87489E-04-9.68305E-05-4.85256E-05
 -1      9492-3.98539E-04 7.87885E-04-1.27357E-04 9.43310E-04 2.35390E-05 3.50322E-05
 -1      9493 6.09829E-02-4.87965E-01 1.81508E-01-4.00527E-01 4.79644E-03 1.81585E-03
 -1      9494 2.48625E-01 7.05796E-01-4.55559E-01 9.28221E-01 7.39280E-02 1.10100E-01
 -1      9495 2.18512E-01 6.92149E-01-4.25726E-01 8.45517E-01 1.52926E-02 3.62609E-02
 -1      9496 2.40686E-01 7.14999E-01-4.50002E-01 9.26809E-01-7.10737E-02-1.03655E-01
 -1      9497-2.95045E-01 8.67994E-01-2.47406E-01-2.82249E-01 1.50240E-03-1.64264E-03
 -1      9498-3.18460E-01 8.69693E-01-2.35227E-01-3.12642E-01-2.76989E-04 2.53007E-04
 -1      9499-3.17150E-01 8.76965E-01-2.40298E-01-2.31277E-01-2.70490E-03 1.22375E-03
 -1      9500-2.97553E-01 8.69539E-01-2.47242E-01-2.81493E-01-3.56661E-03 2.26789E-03
 -1      9501 2.27995E-04-1.60965E-04-2.05993E-05-5.67689E-04 7.39358E-05-5.73075E-05
 -1      9502-1.33122E-04 6.73127E-05 3.98866E-05-5.36057E-04 1.06429E-04-2.98897E-05
 -1      9503-2.62838E-04 7.01978E-04-1.68141E-04-1.75838E-04 5.96868E-06 4.09311E-06
 -1      9504 4.95901E-05-2.32773E-04 7.90207E-05-5.57324E-04 2.56612E-05-6.45615E-06
 -1      9505 2.29954E-04-1.57140E-04-2.23281E-05-5.64166E-04-7.29401E-05 5.23482E-05
 -1      9506-1.26140E-04 8.69364E-05 1.73760E-05-5.32406E-04-1.00023E-04 3.51063E-05
 -1      9507 5.19145E-05-2.31379E-04 7.44853E-05-5.61237E-04-1.89978E-05 8.97828E-06
 -1      9508 9.40446E-02-5.04684E-01 1.74246E-01-3.55248E-01 4.51606E-03 2.23252E-03
 -1      9509 1.27762E-01-5.26712E-01 1.70049E-01-3.61798E-01 9.32891E-04 1.09621E-03
 -1      9510 2.12210E-01-1.40501E+00 3.62690E-01-2.94743E-01 7.69740E-01 1.20358E-01
 -1      9511 1.55073E-04-1.47753E-04-5.85786E-05-7.07585E-04-2.44293E-06 2.47572E-05
 -1      9512 1.25958E-04-1.51389E-04-2.49072E-05-7.09455E-04-1.44928E-05 3.61494E-06
 -1      9513 4.61034E-01-1.01787E+00 2.37306E-01 1.98298E-01 2.81675E-03 4.46530E-04
 -1      9514-1.76684E-01 1.00970E+00-3.57389E-01 7.81375E-01 9.13505E-03 8.91372E-03
 -1      9515 2.39019E+00-9.36889E+00 2.98786E+00 8.86923E-01-4.36831E-03 2.71666E-02
 -1      9516 2.41657E+00-9.40539E+00 3.00106E+00 8.48489E-01-7.82308E-03-2.24458E-02
 -1      9517 2.43336E+00-9.11181E+00 2.88337E+00 7.78806E-01 1.48340E-02 1.07068E-02
 -1      9518 2.37680E-01-6.19960E-01 1.69605E-01-7.59909E-01 2.73512E-02 1.58323E-02
 -1      9519 1.20850E-01-5.10218E-01 1.66719E-01-3.09527E-01-2.48221E-03-1.18563E-03
 -1      9520 1.04699E-01-4.72241E-01 1.58345E-01-2.45779E-01-3.88466E-03-1.58490E-03
 -1      9521 2.86781E-01-6.52296E-01 1.53142E-01-3.30593E-01 6.90777E-04 3.20578E-03
 -1      9522 2.01128E-02-8.84413E-02 2.94603E-02 7.48183E-02 3.46514E-05 1.32419E-04
 -1      9523 1.73247E-02-8.49802E-02 2.89523E-02 8.28236E-02 5.99603E-05 5.12200E-06
 -1      9524 1.72997E-02-8.39455E-02 2.82436E-02 8.15378E-02 3.70765E-04 2.38955E-04
 -1      9525-3.01372E-03-3.81259E-02 1.82103E-02 9.22891E-02 8.39731E-05 9.83373E-05
 -1      9526 9.11456E-04-4.44421E-02 1.90257E-02 8.69979E-02-3.98545E-04-2.48221E-04
 -1      9527 4.35515E-01-2.43368E-01-8.78144E-02-1.49800E+00-5.71344E-03-1.43982E-02
 -1      9528 1.57983E+00-6.03048E-01-6.85311E-02-2.11806E+00-6.59323E-02 7.00069E-02
 -1      9529 1.17924E+00-1.40828E+00 3.86769E-02-8.98631E-01-9.68086E-02 8.07374E-02
 -1      9530 7.09930E-01-8.29848E-01 7.71870E-04-1.06390E+00 7.30071E-02-2.21843E-02
 -1      9531 5.23336E-02-1.72863E-01 5.46936E-02-9.19717E-01 1.60715E-02 1.30136E-02
 -1      9532-2.63933E-01 7.10354E-01-1.93017E-01-1.81120E-01-2.84649E-03-4.43422E-03
 -1      9533-5.48365E-02 5.16255E-01-1.68812E-01-6.78591E-01-9.70712E-03 3.00935E-02
 -1      9534 8.46144E-02 5.67780E-01-2.98555E-01-6.54927E-01 9.94791E-03-3.40241E-03
 -1      9535-1.01983E-01 6.36431E-01-2.17653E-01-6.39620E-01 2.00036E-03 8.29196E-04
 -1      9536 2.65392E-01 1.16316E+00-6.43505E-01 1.18652E+00 5.01599E-01 2.48784E-01
 -1      9537 2.08256E-02 7.59777E-02-5.28887E-02-4.37283E-01 1.83182E-02 4.71252E-02
 -1      9538 1.11189E-01 3.93580E-02-6.77676E-02-4.62483E-01 7.76782E-04 3.93433E-02
 -1      9539 8.56859E-01-2.66561E+00 7.79155E-01 4.16472E-01-1.59296E-01-5.12396E-03
 -1      9540 8.94450E-01-1.16452E+00 1.10478E-01 2.57625E-01 1.03344E-02 2.61500E-02
 -1      9541 7.32814E-01-5.57475E-01-7.02527E-03-1.27255E+00-5.34409E-02 4.11822E-02
 -1      9542-1.35761E-01 1.06678E+00-4.06048E-01 8.27169E-01-1.22388E-01-5.98125E-02
 -1      9543-9.64434E-01 1.94316E+00-3.90443E-01 5.36241E-01-5.15736E-02 8.30260E-03
 -1      9544-1.67751E-01 4.14107E-01-1.05725E-01 3.52439E-02 7.55392E-04-5.17049E-04
 -1      9545-1.67348E-01 4.14620E-01-1.06700E-01 3.42924E-02-9.36796E-04 2.63568E-04
 -1      9546 6.49637E-01-1.63288E+00 4.25951E-01 6.31536E-01-5.68136E-02 1.76566E-02
 -1      9547 5.83170E-01-6.30472E-01 2.93131E-02 1.61020E-01 3.43804E-02-6.21572E-02
 -1      9548-8.06224E-01 2.52355E-01 1.60962E-01-3.87734E-01-1.06269E-02 1.00055E-02
 -1      9549 2.11526E+00-7.04853E+00 2.11187E+00 1.50573E-01-3.83739E-03 1.30602E-04
 -1      9550 8.79863E-01-1.61795E+00 3.25794E-01 3.23548E-01 5.82658E-03-5.85295E-03
 -1      9551 6.44390E-02 4.89477E-01-1.80083E-01-6.73631E-01-1.56289E-02 4.98304E-02
 -1      9552-9.86918E-06 1.38874E-04-5.97918E-05 1.04799E-04 2.41176E-05 6.02991E-06
 -1      9553 8.88322E-05-1.73713E-04 4.56586E-05 1.44309E-06-4.66558E-05-1.54092E-05
 -1      9554 4.60377E-05-2.88691E-05 8.35174E-07 4.56891E-05-9.21074E-06-2.99968E-06
 -1      9555 1.08673E-05 8.65511E-06-1.10610E-05 6.55294E-05-1.53748E-05-2.95469E-06
 -1      9556 6.37361E-05-3.12017E-04 1.12450E-04-6.75647E-05-6.10317E-05-1.13961E-05
 -1      9557 5.13330E-05-1.42042E-04 4.19213E-05 5.08545E-05-1.50972E-05 7.39545E-06
 -1      9558-9.44830E-02 7.30800E-01-2.78428E-01-5.21395E-01-6.71806E-03 5.03492E-03
 -1      9559-4.20482E-02 6.63604E-01-2.70254E-01-5.84275E-01-6.74782E-03 7.35667E-03
 -1      9560-7.95971E-02 6.92544E-01-2.56571E-01-5.79188E-01 2.43744E-03-5.06520E-04
 -1      9561 2.06067E-01-6.95547E-01 2.09615E-01 1.00526E-01-6.77339E-04 1.14068E-04
 -1      9562 2.15609E-01-7.27494E-01 2.20300E-01 9.94998E-02 2.19075E-04-5.49253E-05
 -1      9563 1.96076E-01-6.63680E-01 1.99166E-01 9.74719E-02 1.26137E-04-1.56264E-04
 -1      9564 2.06021E-01-6.95388E-01 2.09627E-01 1.00618E-01 6.94762E-04-1.24763E-04
 -1      9565 9.19475E-02-3.07213E-01 9.13836E-02 3.28415E-02 1.04181E-03-3.51246E-05
 -1      9566-1.65855E-01 5.36024E-01-9.80251E-02-6.89054E-01 1.47908E-02-5.47343E-02
 -1      9567-1.42467E-01 5.54956E-01-1.08622E-01-6.71389E-01 6.02483E-03-1.88557E-02
 -1      9568-3.84662E-01 1.13910E+00-3.24484E-01 5.54856E-02-1.05432E-03-5.89072E-04
 -1      9569-3.84636E-01 1.13732E+00-3.22510E-01 5.66010E-02 1.14481E-03-8.06489E-04
 -1      9570-1.36890E-04 4.65432E-04-1.47172E-04-7.53196E-05-1.53743E-05 1.00435E-05
 -1      9571-4.34453E-05 8.49914E-05-1.23580E-06 2.59464E-05 5.16758E-06 1.73672E-05
 -1      9572 5.94737E-05-2.98572E-04 1.12608E-04 2.64450E-04 9.16470E-06-4.84456E-06
 -1      9573 1.40117E-04-5.25103E-04 1.41096E-04 2.51730E-04-6.05829E-05 1.04363E-05
 -1      9574 1.52938E-04-7.64686E-04 2.97449E-04 2.71921E-04-1.87326E-05 2.12432E-05
 -1      9575 1.06846E-05-2.10005E-05 1.23399E-05 2.90920E-05 1.93660E-05 6.14456E-06
 -1      9576 1.67373E-01-5.42907E-01 1.57492E-01 1.86735E-01-1.22168E-03-1.92254E-03
 -1      9577 1.92744E-01-6.13975E-01 1.78727E-01 2.61303E-01 4.24160E-03 7.54817E-04
 -1      9578 5.84015E-05-2.97297E-04 1.12318E-04 2.65960E-04-1.26351E-05 6.43710E-06
 -1      9579 1.42383E-04-5.26592E-04 1.41248E-04 2.52601E-04 6.02511E-05-1.16244E-05
 -1      9580 1.51600E-04-7.66891E-04 2.99562E-04 2.73992E-04 1.63193E-05-1.91641E-05
 -1      9581-4.58152E-05 8.07528E-05-1.04500E-06 2.72423E-05-1.12033E-05-1.88866E-05
 -1      9582 1.38079E-05-2.52930E-05 1.35191E-05 2.77787E-05-2.06690E-05-8.16271E-06
 -1      9583-1.34217E-04 4.62819E-04-1.46669E-04-7.80012E-05 1.53253E-05-1.24438E-05
 -1      9584-4.71339E-01 1.62625E-01 1.26872E-01-6.74981E-01-1.61667E-02 4.66723E-03
 -1      9585 5.83911E-02-4.88848E-01 1.83021E-01-4.03086E-01-2.92451E-03-5.83444E-04
 -1      9586 2.49719E+00-8.90361E+00 2.73804E+00 3.95616E-01 3.03320E-03-1.37229E-03
 -1      9587 8.79273E-01-1.46830E+00 2.47994E-01 2.53928E-01 9.37440E-04-1.71494E-03
 -1      9588 9.16836E-02-5.05070E-01 1.75429E-01-3.58044E-01-2.29922E-03-1.00558E-03
 -1      9589 1.32861E+00-4.42241E+00 1.32684E+00 1.11435E-01 2.50187E-03 1.21585E-03
 -1      9590 1.32606E+00-4.42594E+00 1.32986E+00 1.08450E-01-2.38946E-03 1.28588E-03
 -1      9591-1.28078E-05 7.47281E-05-1.03891E-04 3.49524E-05-8.16243E-06-9.86650E-06
 -1      9592 1.00708E-05-8.54073E-06-4.84874E-05 1.04965E-05-1.84692E-05-4.00789E-06
 -1      9593-2.48218E-01 7.62182E-01-2.21277E-01 1.91542E-01-1.70673E-03-1.63142E-03
 -1      9594 5.44759E-05-2.07155E-04 8.45974E-05 5.93682E-05-6.27027E-05 9.80745E-06
 -1      9595 4.59191E-05-1.01039E-04 2.15949E-05-4.72142E-05-2.07123E-05 3.77115E-06
 -1      9596 6.49362E-05-1.16516E-04 3.85822E-05-1.39328E-06-4.32574E-05 1.20631E-05
 -1      9597 4.11742E-05-5.80489E-05 8.06108E-06-5.17390E-05-1.27519E-05-3.05576E-06
 -1      9598-9.34206E-06 1.14872E-04-5.00434E-05-1.21344E-04 1.99341E-05 5.53922E-07
 -1      9599 1.01063E-05 2.26322E-05-1.84314E-05-7.83476E-05-1.99877E-05 1.33231E-05
 -1      9600-6.33238E-01 5.65914E-02 2.51181E-01-5.41234E-01 6.17940E-04 6.91326E-03
 -1      9601-5.80628E-01 5.88751E-02 2.18868E-01-5.77183E-01-2.68635E-03-1.06417E-03
 -1      9602-1.80389E-01 6.95989E-01-2.22012E-01 3.26851E-01-5.16778E-03-2.25159E-04
 -1      9603-2.05327E-01 7.10093E-01-2.16197E-01 2.66420E-01-5.29342E-03 2.27507E-04
 -1      9604-2.30228E-01 7.48683E-01-2.19828E-01 3.06684E-01 4.71560E-04-5.83206E-04
 -1      9605-3.31810E-01 8.55962E-01-2.25406E-01 1.15908E-01 2.46191E-03 4.82597E-05
 -1      9606-3.55514E-01 8.71373E-01-2.20705E-01 5.74189E-02-1.23117E-03 3.00223E-04
 -1      9607 1.20043E-02-4.24354E-02 1.32799E-02 1.00854E-02 2.47893E-04 2.33531E-04
 -1      9608-7.18910E-02 5.19317E-01-1.65576E-01-6.82667E-01 1.01646E-02-2.95859E-02
 -1      9609-8.29098E-02 1.34974E-01-2.23074E-02 1.99580E-02 5.00286E-04-1.15444E-04
 -1      9610-8.34336E-02 1.34701E-01-2.19233E-02 1.95671E-02-4.48277E-04 2.20340E-04
 -1      9611 1.25165E-01-3.74411E-01 1.06921E-01 4.03480E-02-2.88523E-04 3.03931E-04
 -1      9612 1.39495E-01-4.12506E-01 1.16096E-01 2.51022E-02 1.46016E-03-5.84414E-04
 -1      9613 7.21734E-01-4.93166E-01-5.79466E-02-8.74258E-02-2.03200E-03-1.08726E-02
 -1      9614-1.45457E-04 1.68216E-04-2.94697E-05 1.00756E-04 5.80602E-05 2.08329E-05
 -1      9615-4.00064E-05 1.74778E-04-7.21897E-05 6.72367E-05 1.42324E-04 3.01703E-05
 -1      9616-1.14773E-04 2.01450E-04-6.01251E-05 9.98823E-05-1.61738E-04-5.17925E-05
 -1      9617-1.50487E-04 1.49794E-04-1.42105E-06 1.05332E-04-5.30156E-05-2.93275E-05
 -1      9618 1.25429E-04-6.81670E-04 2.76774E-04-2.43478E-04-2.71182E-05-1.97718E-05
 -1      9619 5.66358E-05-2.52329E-04 9.39756E-05-2.40745E-04 4.17925E-06 7.18148E-06
 -1      9620 9.93887E-05-4.54679E-04 1.50070E-04-2.16206E-04-5.70754E-05-1.49026E-05
 -1      9621 1.12952E-05-4.49040E-05 1.47272E-05-4.12096E-05-5.36855E-06-1.33286E-05
 -1      9622-1.36177E-04 4.57407E-04-1.42920E-04 5.44042E-05-2.22898E-06-3.04026E-06
 -1      9623-2.33339E-05 2.22578E-05-5.87602E-07-3.19924E-05-1.01958E-05-9.58321E-06
 -1      9624-6.97393E-05 1.05477E-04-1.40538E-05-6.39658E-05 6.93291E-05-5.99400E-06
 -1      9625-1.36090E-04 1.14624E-04 2.58290E-05-1.06129E-04 4.60083E-05-2.56640E-05
 -1      9626-1.31157E-04 1.20895E-04 1.36589E-05-1.06924E-04-4.42551E-05 1.52142E-05
 -1      9627-6.16886E-05 7.83778E-05-1.50066E-05-6.74889E-05-1.05876E-05-1.17968E-06
 -1      9628-6.34996E-05 9.45425E-05-9.13743E-06-6.05988E-05-6.34833E-05 9.29942E-06
 -1      9629-4.46458E-04 1.22531E-03-3.36187E-04 1.26238E-04 1.16932E-04-3.64979E-05
 -1      9630-5.51110E-04 1.13924E-03-2.63766E-04-3.92443E-05 1.35747E-04-1.91150E-05
 -1      9631 2.12330E-01-7.09958E-01 2.13365E-01 4.14732E-02-1.13670E-03 3.27140E-04
 -1      9632 2.13026E-01-7.09034E-01 2.12442E-01 4.22859E-02 1.08205E-03 6.04787E-05
 -1      9633 6.52926E-01-2.18086E+00 6.57561E-01 7.29877E-02 2.53124E-03 5.65805E-04
 -1      9634 4.79585E-01-1.60091E+00 4.82322E-01 6.20487E-02 1.70192E-03 7.97535E-04
 -1      9635-8.80698E-05 5.93916E-05-1.40921E-05 9.32126E-05 4.68613E-05 3.54350E-06
 -1      9636-9.13549E-05 6.29055E-05-8.96529E-06 8.78836E-05-4.83403E-05-6.39756E-06
 -1      9637-4.35959E-04 1.21910E-03-3.34059E-04 1.26274E-04-1.22113E-04 2.88707E-05
 -1      9638-5.49698E-04 1.15495E-03-2.81469E-04-3.62231E-05-1.15891E-04 2.80784E-05
 -1      9639-2.75305E-05 9.01780E-06 6.47292E-06-3.26259E-05 9.70753E-07 2.06146E-06
 -1      9640-2.34330E-06 1.01456E-04-4.46062E-05-1.04644E-04-1.65664E-05 3.03046E-06
 -1      9641 6.41624E-05-1.29254E-04 3.36088E-05-1.76597E-05 3.62307E-05-1.84236E-05
 -1      9642 3.29129E-05-2.76900E-05 1.04176E-05-4.13228E-05 8.70265E-08-5.17258E-06
 -1      9643 1.15704E-05 1.44838E-05-1.32267E-05-6.74182E-05 1.42737E-05-6.25888E-06
 -1      9644 5.90992E-05-2.19039E-04 7.95628E-05 3.90091E-05 5.28130E-05-9.38197E-06
 -1      9645 4.29651E-05-8.81616E-05 1.81673E-05-6.17037E-05 1.93019E-05 2.89820E-06
 -1      9646-2.49662E-01 5.54028E-01-8.74968E-02-7.11791E-01-1.11067E-02 3.42267E-02
 -1      9647-9.44962E-05 4.02001E-05 2.84593E-05-9.63572E-05 3.72120E-05-1.65650E-05
 -1      9648-8.70872E-05 4.06111E-05 2.49729E-05-9.61133E-05-3.79270E-05 1.51481E-05
 -1      9649 1.77516E-01-5.92464E-01 1.77114E-01 4.03475E-02-1.17904E-03-2.76805E-05
 -1      9650-3.18711E-01 8.51252E-01-2.28816E-01 7.32381E-03 2.58030E-03 1.20057E-04
 -1      9651 6.07338E-01-9.19665E-01 1.58982E-01 2.52572E-01-3.97305E-02 3.72028E-02
 -1      9652 2.89461E-01-9.64240E-01 2.88549E-01 5.13099E-02-1.39164E-03-2.14952E-04
 -1      9653 5.27074E-02-1.75700E-01 5.26682E-02 2.00836E-02 6.20339E-04 1.38518E-04
 -1      9654 5.21474E-02-1.75836E-01 5.31431E-02 1.97465E-02-7.89311E-04 6.34546E-05
 -1      9655-1.40996E-01 3.26629E-01-7.86670E-02 3.34028E-02-1.18466E-03 2.29282E-05
 -1      9656 1.38459E-01-5.09240E-01 1.59485E-01 2.26739E-01-3.29698E-03-1.25136E-04
 -1      9657-4.18474E-01 1.71984E+00-4.60643E-01-2.15036E-01 8.31083E-01-9.70894E-02
 -1      9658-4.78385E-01 1.45364E+00-4.18072E-01 6.73539E-02-2.23830E-03-6.28452E-04
 -1      9659-4.78802E-01 1.45311E+00-4.16634E-01 6.63959E-02 1.18363E-03-1.20467E-04
 -1      9660 5.75710E-02 3.44596E+00-1.21869E+00 2.64574E+00 7.34820E-01 4.26564E-01
 -1      9661-5.98446E-02 3.50936E+00-1.21335E+00 2.72410E+00 4.57467E-01 2.48505E-01
 -1      9662 8.37743E-02 2.55965E+00-1.28526E+00 1.80229E+00 2.19879E-01 1.08855E-01
 -1      9663-6.53585E-01 2.03306E+00-5.88972E-01 7.19526E-02 2.80222E-03 3.84020E-04
 -1      9664-7.17045E-01 2.24727E+00-6.57393E-01 7.15165E-02-1.81261E-03-6.37911E-04
 -1      9665-7.17927E-01 2.24559E+00-6.54904E-01 7.23349E-02 1.70072E-03-1.25440E-03
 -1      9666-8.49162E-01 2.68549E+00-7.85206E-01 8.29798E-02 2.16521E-03 4.05889E-04
 -1      9667-2.19020E-01 1.46669E-01 4.56127E-03-8.70066E-01-2.43162E-02 5.62408E-03
 -1      9668 1.93638E-01 3.89844E-01-1.09076E-01-6.89070E-01-3.74726E-02 7.75027E-02
 -1      9669 1.43179E-01 4.19055E-01-1.14782E-01-6.89319E-01-2.11378E-02 2.73101E-02
 -1      9670 6.51124E-01-1.57620E+00 5.29616E-01 1.20491E-01-5.78989E-02-1.70445E-02
 -1      9671-3.94428E-05 1.78545E-04-6.76519E-05 1.31222E-04 8.29908E-06 1.36959E-05
 -1      9672 1.40227E-05 2.88462E-05 5.67973E-06 6.67970E-05-6.42400E-06 1.69984E-05
 -1      9673-1.07398E-01-3.76404E-01 2.07895E-01-5.44770E-01 2.41771E-04-5.59427E-04
 -1      9674-6.76628E-02-3.58600E-01 1.81050E-01-5.98143E-01-5.99038E-04 1.83149E-03
 -1      9675-1.04978E-01-3.75550E-01 2.06223E-01-5.41525E-01 7.33175E-04 1.99582E-03
 -1      9676 7.72488E-01-7.71637E-01 1.36495E-03 1.29845E-01-8.32158E-03 1.65936E-02
 -1      9677 7.55103E-04-7.67979E-04 1.43129E-04 1.61979E-03-2.61127E-04-2.20094E-04
 -1      9678-5.02926E-04 1.88562E-03-5.43067E-04 1.35853E-03-5.79002E-04-9.62626E-05
 -1      9679 2.88024E-05-1.87053E-03 5.29379E-04 1.08395E-03-3.36947E-04 7.92018E-05
 -1      9680 6.34247E-01-7.60340E-01 6.81904E-02 9.93960E-02-1.76446E-02 3.15723E-02
 -1      9681 2.63106E-01-2.11694E-01-2.28996E-02-1.13314E+00 4.05668E-02-1.83579E-02
 -1      9682-3.18767E-01 8.64265E-01-2.33613E-01-3.99809E-02 2.35783E-03-8.55385E-04
 -1      9683-3.58925E-01 8.83564E-01-2.25026E-01 3.29698E-03-6.36012E-04 1.07537E-03
 -1      9684-5.06678E-04 1.89695E-03-5.41815E-04 1.32756E-03 5.90412E-04 1.11167E-04
 -1      9685 7.37414E-04-7.53585E-04 1.22352E-04 1.62476E-03 2.50500E-04 2.46382E-04
 -1      9686 4.33329E-05-1.92769E-03 5.92755E-04 1.03407E-03 3.46924E-04 3.82174E-06
 -1      9687-3.41776E-01 8.56480E-01-2.18974E-01 1.14348E-01-2.71698E-03-1.45950E-04
 -1      9688-1.54268E-01 6.70335E-01-2.22140E-01 3.54967E-01-6.23059E-03-1.20118E-03
 -1      9689-2.03618E-01 7.35145E-01-2.20833E-01 3.43411E-01 5.41542E-04-8.85229E-04
 -1      9690 1.46608E-04-5.39817E-05-1.03851E-04 5.16552E-05-3.98460E-05-1.64216E-05
 -1      9691 1.64551E-04-7.24696E-05-1.11102E-04 3.41745E-05 4.51583E-05 4.82315E-05
 -1      9692 1.09425E-02-7.15813E-02 2.59465E-02 9.62260E-02 3.55791E-04-4.44819E-04
 -1      9693 2.22373E-04-2.77803E-04 3.25947E-05-3.08440E-04 6.41783E-05-5.18858E-05
 -1      9694 2.30232E-04-2.83927E-04 2.34797E-05-3.03752E-04-7.06686E-05 4.51477E-05
 -1      9695 8.58198E-01-1.49311E+00 2.73598E-01 1.92666E-01 3.75657E-03 3.06522E-03
 -1      9696 5.75245E-05-2.95687E-04 1.15995E-04-6.76659E-05 5.83841E-05 1.54124E-05
 -1      9697 5.22077E-05-1.39253E-04 3.53061E-05 4.64704E-05 1.46407E-05-2.41222E-06
 -1      9698 6.66269E-05-1.58117E-04 4.58598E-05-4.99904E-06 4.53228E-05 1.89402E-05
 -1      9699 4.00476E-05-3.98334E-05 8.40308E-06 2.77238E-05 1.39003E-05 4.25226E-07
 -1      9700-3.30891E-06 1.34165E-04-5.88219E-05 1.12795E-04-1.79890E-05-3.26933E-06
 -1      9701 1.87580E-05 1.16359E-06-1.17219E-05 6.35445E-05 1.72724E-05 1.11623E-07
 -1      9702-8.39125E-01 2.89941E-01 1.09936E-01-3.22715E-01-1.31988E-02 7.50694E-02
 -1      9703-8.40585E-01 2.44368E-01 1.73313E-01-3.62808E-01-1.87191E-02 4.62010E-02
 -1      9704-8.08044E-01 2.84961E-01 1.03783E-01-3.53018E-01 2.95179E-03 2.73775E-02
 -1      9705 2.80837E+00-1.04504E+01 3.24313E+00 9.03903E-01-3.66799E-02 3.49464E-02
 -1      9706 1.83333E+00-7.27903E+00 2.35827E+00 5.96439E-01 1.19559E-02 3.24489E-02
 -1      9707 2.80541E+00-1.04305E+01 3.25825E+00 9.07738E-01 2.92275E-02-2.20924E-02
 -1      9708 1.82822E+00-7.27412E+00 2.36026E+00 5.84074E-01-9.98746E-03-3.44504E-02
 -1      9709 4.86135E-01-2.69459E+00 7.49314E-01-2.53603E-01-1.26684E-01 8.03001E-02
 -1      9710-4.44407E-02 7.54085E-01-3.09468E-01 6.64298E-01 1.32348E-04 4.56225E-03
 -1      9711-5.69342E-01 2.82126E-01 8.44057E-02-5.43583E-01 1.61020E-02-3.37461E-02
 -1      9712-4.54720E-01 3.39614E-01 6.09829E-02-6.87510E-01-2.90865E-03-2.19764E-03
 -1      9713 7.10473E-01-7.05662E-01 2.40671E-02-1.24384E-02-8.89529E-03 1.04544E-03
 -1      9714 2.57166E+00-9.96763E+00 3.14006E+00 1.22385E+00 3.34259E-02 2.82323E-02
 -1      9715-7.69649E-02 3.71782E-01-1.26935E-01-6.23250E-01 3.35504E-03 2.63597E-03
 -1      9716-2.84812E-01 1.61578E+00-5.15732E-01 1.20459E+00-8.28997E-02-4.30018E-02
 -1      9717-6.20938E-01 1.86431E+00-3.90327E-01 1.06112E+00-2.50300E-02-3.15910E-03
 -1      9718 5.57379E-05-7.36223E-05 7.27375E-06 1.91940E-05 2.21997E-05-3.92078E-06
 -1      9719 8.64402E-05-4.49909E-05-1.69756E-05 1.02429E-05-1.59940E-05 5.35729E-06
 -1      9720 4.75377E-05-2.75589E-05-3.29077E-06-1.88173E-05-5.05865E-06 1.25747E-05
 -1      9721 2.24391E-05-7.26874E-05 1.94180E-05 3.84347E-05 7.48961E-06-4.84032E-06
 -1      9722 1.13147E-04-3.11099E-05-3.86007E-05-8.92030E-05-6.27042E-06 1.29233E-05
 -1      9723 1.17823E-04-1.76534E-05-4.40359E-05-8.19267E-05-1.06184E-05 1.30519E-05
 -1      9724 2.70194E-05-6.12836E-05 1.33663E-05 3.52258E-05 9.09173E-06-5.55309E-06
 -1      9725-8.70390E-02 3.78546E-01-1.30248E-01-5.15347E-01 6.79817E-03 8.52073E-03
 -1      9726-1.60347E-04 5.27433E-04-1.47678E-04 4.17106E-05 5.04157E-07 4.45368E-06
 -1      9727 1.06661E-04-5.28197E-04 1.67001E-04-2.37341E-04 5.26597E-05 1.62363E-06
 -1      9728-5.72343E-06-7.41303E-05 1.27761E-05-1.00184E-04 5.85048E-06 2.14733E-05
 -1      9729-3.76747E-05 9.08493E-05-2.79305E-05-5.47174E-05 4.58138E-06 1.81039E-05
 -1      9730 1.53613E-04-6.82544E-04 2.77121E-04-2.04914E-04 3.22217E-05 1.83561E-05
 -1      9731 3.49843E-05-2.43443E-04 9.90110E-05-2.29869E-04-3.36287E-06-1.79555E-05
 -1      9732-2.62048E-01 7.72686E-01-2.36690E-01 5.78192E-01-4.24447E-02-8.78435E-02
 -1      9733-4.47731E-02 6.12348E-01-2.43178E-01 4.84291E-01-6.60564E-03 1.87360E-03
 -1      9734 1.59145E-04 5.96329E-01-2.59815E-01 5.31993E-01-2.63723E-03 1.01301E-04
 -1      9735-8.71472E-02 7.35830E-01-2.93879E-01 5.89500E-01-1.80470E-03-2.02911E-03
 -1      9736-3.71869E-02 7.38361E-01-3.17009E-01 6.45967E-01 2.12183E-03 4.45699E-03
 -1      9737 2.00818E-01 4.58580E-01-2.32763E-01-6.73951E-01-5.60919E-03 7.88201E-02
 -1      9738-2.15449E-01 6.33874E-01-1.82899E-01-4.95820E-01 3.92626E-03-6.51761E-04
 -1      9739-2.97770E-01 9.71536E-01 8.80900E-02-2.31499E-01-8.54296E-01 1.11005E-01
 -1      9740 6.02727E-01-5.44835E-01-1.66629E-02 5.35464E-02-2.19463E-02 3.12910E-02
 -1      9741 5.63427E-01-3.97110E-01-4.99210E-02-3.07207E-02-9.57861E-03 2.92395E-02
 -1      9742-3.21568E-01 8.68491E-01-2.33787E-01-3.96975E-02-3.13729E-03 6.16718E-04
 -1      9743-3.21343E-01 8.75704E-01-2.37452E-01-9.22878E-02-2.79317E-03-2.44084E-04
 -1      9744 2.33933E-04 3.61873E-04-2.25206E-04 7.59147E-04 5.61552E-05-1.12847E-05
 -1      9745-2.17967E-02 2.91138E-03 8.29368E-03 9.92024E-02 4.75716E-06-6.80268E-04
 -1      9746 6.39864E-01-3.31772E-01-1.50574E-01-1.40924E-01 1.18750E-02 2.17897E-02
 -1      9747 5.32652E-01-3.55549E-01-7.83608E-02-6.39337E-02 3.61734E-02 4.96789E-03
 -1      9748 4.12100E-01-2.27036E-01-6.78494E-02-2.96236E-01 3.13779E-02-6.24841E-03
 -1      9749-2.78328E-03 2.21750E-03 8.87042E-04 1.03403E-03 1.37143E-04 5.24959E-04
 -1      9750-2.87448E-03 2.35012E-03 8.38002E-04 1.03988E-03-8.22714E-06-3.64952E-04
 -1      9751-3.18658E-01 8.55762E-01-2.29784E-01 1.29829E-02-2.77727E-03-4.65627E-04
 -1      9752-1.45060E-01 3.91448E-01-1.20961E-01-8.40609E-01-4.05676E-03 4.01841E-03
 -1      9753-2.33707E-01 6.15668E-01-1.72882E-01-7.97073E-01-2.06514E-02 1.30609E-02
 -1      9754-2.82767E-03 8.74591E-04 8.86084E-04-2.57739E-03-1.99635E-04 1.16030E-04
 -1      9755-3.23745E-03 1.11060E-03 9.91004E-04-2.53011E-03 2.39006E-04-2.44674E-04
 -1      9756 1.62001E-02 6.13630E-01-2.67259E-01-6.24016E-01-3.57912E-03 4.53115E-03
 -1      9757-2.15075E-02 6.37926E-01-2.54010E-01-6.17709E-01 1.46811E-03-1.67885E-03
 -1      9758 2.09915E-01-7.04548E-01 2.12021E-01 6.98196E-02-7.26749E-04 2.20775E-04
 -1      9759 2.09866E-01-7.04447E-01 2.11661E-01 6.92680E-02 5.49589E-04-5.29643E-04
 -1      9760 4.30553E-01-1.70554E-01-1.09971E-01-1.46282E+00 2.62798E-02 3.32531E-03
 -1      9761 1.59006E-01 2.39721E-01-6.98116E-02-1.26387E+00-4.09189E-03 2.27394E-02
 -1      9762 2.51096E-01-8.40280E-01 2.52261E-01 7.58686E-02-2.17534E-04-6.84719E-04
 -1      9763 2.50056E-01-8.38246E-01 2.52443E-01 7.54345E-02 6.67064E-04 7.15608E-04
 -1      9764 5.03938E-05-3.73628E-05-2.72513E-06-6.14904E-06-1.15132E-05 8.32672E-06
 -1      9765 3.10038E-05-9.98441E-05 2.29955E-05 6.79929E-05 4.48837E-06-1.11912E-05
 -1      9766-2.04556E-01 7.09081E-01-2.16415E-01 2.66448E-01 3.93945E-03-3.47556E-04
 -1      9767-1.80911E-01 6.95889E-01-2.21601E-01 3.25743E-01 3.83981E-03 5.94736E-05
 -1      9768-6.36443E-01 5.68619E-02 2.52308E-01-5.43423E-01-1.36292E-03-9.17541E-03
 -1      9769 4.16994E-04-8.36563E-05-1.79045E-04 1.32458E-04-1.76842E-06-1.86842E-05
 -1      9770 6.74699E-05-2.58791E-05-2.83972E-05 1.45329E-05-1.11239E-05-6.30849E-06
 -1      9771 3.14472E-05-1.84763E-05-2.09098E-05 1.63099E-05-8.13104E-06-1.33747E-05
 -1      9772 2.51827E-05-2.66398E-05-7.46262E-06-1.93574E-05-4.93460E-06 5.40506E-06
 -1      9773-7.74667E-05 6.71930E-04-1.62014E-04 3.89181E-04-6.06186E-05 4.85605E-05
 -1      9774-7.69489E-05 6.64739E-04-1.64296E-04 3.70987E-04 8.14989E-05-4.91459E-05
 -1      9775 4.90684E-01-1.86818E+00 5.30930E-01-3.31511E-01-8.53608E-02 1.21553E-01
 -1      9776 3.66932E-05-7.73541E-06 6.91405E-06 8.90111E-05-3.83802E-05-8.65224E-06
 -1      9777 2.81699E-05-3.64512E-05-2.61584E-07-4.53107E-05-6.89765E-06-8.23307E-07
 -1      9778 1.28073E-05 6.11295E-05-3.72786E-05-8.56610E-05 2.31591E-05-1.30520E-05
 -1      9779-8.50813E-01 2.90100E-01 9.49245E-02-3.17479E-01 4.74811E-04 2.47913E-02
 -1      9780-8.48517E-01 2.58976E-01 1.46700E-01-3.50687E-01-2.58213E-03-1.12354E-02
 -1      9781-2.10829E-04 6.55528E-04-1.63337E-04-1.10231E-04-1.04603E-05-7.63286E-06
 -1      9782-6.96072E-05 3.24610E-05 2.92079E-05 5.94843E-05-3.12850E-06 6.79483E-06
 -1      9783 1.23898E-01-3.72140E-01 1.06864E-01 4.01884E-02 1.28160E-03-2.56254E-04
 -1      9784 2.11197E-01 3.92042E-01-1.02498E-01-6.96905E-01-1.77288E-02 2.47796E-02
 -1      9785 1.78817E-01 4.50399E-01-1.54073E-01-6.87703E-01 8.85992E-03-5.84428E-03
 -1      9786 4.48114E-04-1.12666E-04-1.79557E-04-1.67846E-04-5.55117E-06 8.87551E-06
 -1      9787 7.74740E-05-1.38107E-05-4.40014E-05-3.66926E-06-6.68289E-07-1.61247E-06
 -1      9788 1.08858E-04-4.26339E-05-1.88795E-05 9.33759E-07 3.86974E-06 6.32171E-07
 -1      9789 7.09263E-05-2.18855E-05-2.54182E-05 1.29064E-05-1.88726E-07-7.61670E-06
 -1      9790-2.08221E-04 6.51257E-04-1.62877E-04-1.08597E-04 1.15046E-05 6.98805E-06
 -1      9791-6.62968E-05 3.06109E-05 3.00900E-05 6.21707E-05 2.77397E-06-5.72458E-06
 -1      9792-7.33839E-01 1.49166E-01 2.50520E-01-4.69246E-01-5.65218E-04-4.21245E-03
 -1      9793-8.43171E-01 2.07142E-01 2.69665E-01-3.93455E-01-6.12868E-03 7.01291E-03
 -1      9794-4.71535E-02 6.55742E-01-2.65768E-01 5.43304E-01 1.79656E-03-3.28726E-03
 -1      9795 2.79221E-03 6.52279E-01-2.91265E-01 5.92593E-01-2.80519E-03-2.60864E-03
 -1      9796-1.59445E-06 8.64857E-04-8.20948E-05-1.62030E-04 2.11566E-04 9.99426E-05
 -1      9797 7.07361E-05-1.66588E-04 7.73844E-05 5.77929E-04 2.90926E-04 1.55049E-04
 -1      9798 1.45792E-04-2.23663E-04-2.30553E-05 5.29042E-04 7.45508E-05 4.50915E-05
 -1      9799 9.57209E-02 6.37295E-01-3.28492E-01 6.91634E-01-7.96601E-03-1.48558E-02
 -1      9800 4.50474E-02 6.47754E-01-3.25711E-01 6.26974E-01-8.34749E-03-1.19118E-02
 -1      9801-7.99872E-06 6.61849E-04-1.65671E-04 4.29079E-04-8.28195E-05 2.05553E-05
 -1      9802 5.57242E-06-2.25341E-04 4.48113E-05-3.15420E-04 7.67964E-08 1.61500E-05
 -1      9803 2.93210E-05-1.86314E-04 8.43946E-05-2.91794E-04-9.95153E-05 4.69055E-05
 -1      9804 5.71731E-05-2.79533E-05-1.56697E-05 2.75962E-05 7.83537E-06 3.77502E-06
 -1      9805 5.84569E-05-2.48768E-05-1.74021E-05 4.81515E-05 1.74466E-05 6.46401E-06
 -1      9806 5.99794E-05-8.29486E-06-1.74473E-05 4.97469E-05-8.67166E-06-5.86035E-06
 -1      9807 9.01856E-05-2.70230E-05-1.53739E-05 4.93130E-05-2.64225E-05-2.65998E-05
 -1      9808 1.07637E-04-3.87447E-05-2.77704E-05 4.71616E-05-1.89767E-05-1.92857E-05
 -1      9809 1.01769E-04-2.17039E-05-5.35036E-05-1.10405E-05 9.36779E-07-1.32375E-05
 -1      9810 2.76276E-04 4.31096E-04-2.58299E-04-8.20473E-04 4.12831E-05 2.22097E-05
 -1      9811-8.82599E-01 9.16554E-01-3.09212E-02-7.94553E-01 2.55685E-03-4.88814E-03
 -1      9812 1.18087E-05-7.56566E-05 5.14071E-05 5.05264E-05-1.54148E-05 1.77275E-05
 -1      9813 9.55342E-04-5.36286E-04-4.32652E-05 1.00112E-03-2.77832E-04-2.68178E-04
 -1      9814-3.91260E-05 8.99357E-04-8.36854E-05-1.41375E-04-2.03472E-04-1.23692E-04
 -1      9815-2.66545E-04 1.19213E-03-1.97067E-04-1.24150E-04-3.16515E-04-1.32009E-04
 -1      9816-2.39667E-04 7.02215E-04-1.57177E-04 1.52639E-04-6.12267E-06 1.08943E-05
 -1      9817-6.02747E-05 1.79555E-04 7.92722E-07 5.28094E-05-4.46641E-06-1.72886E-05
 -1      9818 1.10747E-05-8.13727E-05 5.62313E-05 4.49664E-05 1.90026E-05-1.85592E-05
 -1      9819-2.27213E-07 6.60885E-04-1.77951E-04 4.24395E-04 8.69806E-05-2.04932E-05
 -1      9820 2.71589E-04 3.98475E-04-2.43288E-04-8.04401E-04-4.93634E-05-2.42838E-05
 -1      9821-5.79662E-01 2.80696E-01 8.71260E-02-5.45848E-01-1.27535E-02 3.08555E-02
 -1      9822 5.38316E-05-2.62313E-05-2.35718E-05-9.69979E-06-1.08262E-05 4.93978E-06
 -1      9823 1.01716E-04 2.64365E-06-6.27565E-05-1.03235E-04-1.44258E-05 1.69097E-05
 -1      9824 2.74206E-05-5.36686E-05 1.94054E-05 2.18358E-05-2.90612E-05-1.07198E-05
 -1      9825 5.01134E-05-2.75042E-06-2.97435E-05-4.11020E-05-2.92278E-06 9.59755E-06
 -1      9826 1.00309E-01 6.29291E-01-3.32847E-01 6.81570E-01 1.15764E-02 1.48324E-02
 -1      9827 1.91141E-02 7.59734E-01-3.53674E-01 6.99762E-01 1.12217E-02 1.45950E-02
 -1      9828 1.62608E-05-1.74712E-05 1.27598E-05-5.80704E-05-1.55013E-05 4.12916E-06
 -1      9829-4.37809E-01 5.11634E+00-1.84865E+00 3.41059E+00-2.39775E-01-3.80674E-02
 -1      9830-4.52971E-01 5.12475E+00-1.83157E+00 3.40040E+00 2.40542E-01 2.10207E-02
 -1      9831 6.63945E-05-2.92609E-05-1.88468E-05 5.12882E-05-2.23754E-05-2.05929E-06
 -1      9832 2.06760E-05-8.67933E-05 4.90019E-05-6.71527E-05-1.68774E-05-1.85467E-05
 -1      9833-2.71146E-01 7.28929E-01-1.97180E-01-6.09289E-01 1.07495E-02 1.17644E-03
 -1      9834-4.68724E-02 6.09834E-01-2.41733E-01 4.82371E-01 7.46641E-03-7.10259E-04
 -1      9835 1.18601E-01-3.92408E-01 1.16728E-01 1.08320E-01-7.69809E-04-1.20879E-03
 -1      9836 1.84987E-01-6.51425E-01 1.98916E-01 3.15353E-01 5.63500E-03-3.42083E-03
 -1      9837 3.99929E-05-1.17822E-05 4.61762E-06-7.66865E-05-3.19730E-05 1.56856E-05
 -1      9838 4.45453E-04 2.07797E-04-1.96442E-04 5.84322E-04-9.50005E-05 3.65504E-05
 -1      9839-1.03159E-04 1.00664E-04-1.73195E-05-1.22084E-04 3.48595E-07-2.52431E-07
 -1      9840-1.96504E-04-4.19872E-04 1.90231E-04-7.65803E-04-3.70889E-06 1.21055E-06
 -1      9841-1.50772E-04-3.76367E-04 3.07484E-05 7.78256E-04 1.99997E-06-5.62548E-06
 -1      9842-1.07031E-04 1.04364E-04-2.95435E-05 1.22567E-04-2.09424E-06 2.44399E-06
 -1      9843-9.17960E-02 7.27864E-01-2.77344E-01-5.23623E-01 4.91430E-03-2.95176E-03
 -1      9844-6.96568E-01 1.08933E-01 2.53155E-01-5.04421E-01 6.87227E-04-1.06862E-02
 -1      9845 4.20708E-05-6.07860E-05 7.74287E-06-3.69153E-05 1.20445E-05 1.57803E-06
 -1      9846 1.03420E-05 2.58055E-05-2.01124E-05-6.42337E-05 2.10249E-05-1.58201E-05
 -1      9847 5.70715E-02-4.92127E-01 1.92346E-01 3.63642E-01 2.46361E-03-9.05277E-04
 -1      9848 4.63614E-05-7.04929E-05 1.02363E-05 4.14595E-05-1.94017E-05 3.83349E-06
 -1      9849 1.33763E-01-5.11941E-01 1.59199E-01 2.30898E-01 2.04626E-03-5.63591E-04
 -1      9850-1.55438E-01 6.70711E-01-2.21543E-01 3.54086E-01 5.08574E-03 1.26318E-03
 -1      9851 8.20351E-05-2.32187E-05-3.79721E-05-2.94025E-06 9.09383E-07-1.21436E-05
 -1      9852 9.91585E-05-3.54508E-05-2.98456E-05-2.31678E-05 8.43824E-06-1.31716E-06
 -1      9853 3.96167E-05-1.52542E-06-7.02203E-06-8.35029E-05 2.66253E-05-1.16246E-05
 -1      9854 2.95127E-05-1.66636E-05 5.20390E-06 6.99175E-05 4.12604E-05 7.65120E-06
 -1      9855-5.46009E-01 1.39326E+00-4.87711E-01 4.53608E-01-2.37170E-02 1.38198E-02
 -1      9856-4.79881E-05 1.18884E-04-1.36008E-05-2.46677E-05 2.99224E-05 1.60595E-05
 -1      9857-3.29306E-02 6.45608E-01-2.53387E-01-6.02704E-01 4.12715E-03-2.50039E-03
 -1      9858-5.49557E-05 1.21756E-04-1.92248E-05 2.25002E-05-3.96326E-05 1.39759E-05
 -1      9859-1.43292E-01 5.24892E-01-1.01936E-01-6.96170E-01-1.99668E-02 5.85809E-02
 -1      9860-5.33204E-05 1.22815E-04-1.89715E-05 2.04666E-05 3.62138E-05-1.40623E-05
 -1      9861 2.03558E-05-7.48102E-05 2.31226E-05 4.95055E-05-3.09664E-06 1.01859E-05
 -1      9862 1.19568E-04-2.00234E-05-4.25597E-05-8.55534E-05 9.87693E-06-1.07545E-05
 -1      9863 3.57511E-05-4.23643E-05 5.18448E-06 4.83244E-06 1.00895E-05-1.21022E-05
 -1      9864 3.02056E-05-9.93380E-05 2.73848E-05 4.74371E-05-2.76093E-06 6.09563E-06
 -1      9865 1.15410E-04-4.18572E-05-3.61392E-05-8.12163E-05-6.37359E-07-6.50293E-06
 -1      9866 1.75454E-01-5.19882E-01 1.48426E-01 1.50507E-01-2.11082E-03-4.51334E-04
 -1      9867 1.13833E-01-4.09541E-01 1.24313E-01 1.36051E-01 1.21516E-05-1.50869E-04
 -1      9868 4.93808E-05-1.85744E-05-1.77017E-05-3.36791E-05-9.71513E-06 1.58569E-06
 -1      9869 1.11691E-04 3.61399E-05-5.81742E-05-1.59247E-04-3.35577E-05 1.65619E-05
 -1      9870 1.19650E-01-5.31108E-01 1.73098E-01 2.75048E-01 9.54158E-04-1.68076E-03
 -1      9871-3.00848E-01 9.85169E-01 8.18992E-02-2.39638E-01 8.53234E-01-1.06137E-01
 -1      9872-3.67538E-01 1.00580E+00-3.02469E-01-6.00511E-01 2.26525E-02-2.19321E-03
 -1      9873-4.58997E-04 2.71179E-04 3.61828E-05-6.56554E-04 1.60985E-05 1.61357E-04
 -1      9874-4.72243E-04 2.54457E-04 4.39458E-05-6.92528E-04-4.28786E-05-1.25528E-04
 -1      9875 1.45051E-01-4.12164E-01 1.15027E-01-4.68122E-03 2.58592E-03 3.50468E-04
 -1      9876 1.38732E-01-4.07928E-01 1.15023E-01 1.70604E-02 1.90490E-03 2.36127E-04
 -1      9877 8.10146E-04-1.15280E-03-1.33279E-05 9.52495E-04 3.14089E-04-2.25018E-04
 -1      9878 7.91755E-04-1.14228E-03-1.80779E-05 9.41182E-04-3.33965E-04 2.38973E-04
 -1      9879 5.02366E-05-1.21963E-05-2.11103E-05 5.63252E-05 4.05441E-06 3.60978E-06
 -1      9880 4.93065E-05-1.48222E-05-2.35236E-05 4.75390E-05-7.59273E-07-2.88751E-06
 -1      9881 5.27717E-05-3.31182E-05-7.07734E-06 2.07435E-05 6.77632E-07 1.70056E-06
 -1      9882 8.88541E-05 4.44812E-05-6.19872E-05 1.01102E-04-3.04389E-07-2.49939E-06
 -1      9883 3.49363E-05-6.37114E-05 1.97643E-05 1.64647E-05 2.38536E-05 4.72297E-06
 -1      9884-3.58010E-02 6.79284E-01-2.77271E-01-5.63047E-01 5.11002E-03-6.46414E-03
 -1      9885 2.34848E-05-2.04866E-05 4.46893E-06 5.30488E-05-1.49301E-07 1.59368E-07
 -1      9886-1.69811E-05 6.51366E-06 4.13001E-06 7.12858E-05 6.15010E-07 5.75850E-06
 -1      9887 2.02972E-06-4.26891E-05 2.37121E-05 4.37109E-05 1.15841E-05 1.43957E-06
 -1      9888 8.10215E-05-2.41262E-04 9.14331E-05 5.59934E-05 6.37962E-06-5.19101E-06
 -1      9889 7.40841E-05-1.25680E-04 1.16575E-05-4.04527E-05-1.33632E-05 8.71579E-06
 -1      9890 8.79193E-06-1.72970E-05 1.86556E-05-3.95363E-05-2.68675E-06-4.14345E-06
 -1      9891-4.07117E-06 2.01363E-05-8.67474E-06-6.91946E-05 4.28176E-07 5.86462E-06
 -1      9892-5.24000E-05 1.04047E-04-2.43076E-05-2.90475E-05-1.99506E-05-7.92923E-06
 -1      9893 5.06868E-05-1.69898E-05-2.10319E-05 4.52417E-05 3.51781E-06 6.35253E-06
 -1      9894 5.74099E-05-1.87507E-05-1.53036E-05 1.18539E-05 3.58303E-07-8.00531E-06
 -1      9895 5.13353E-05-2.02669E-05-3.30241E-05 1.28813E-05 3.99924E-06 3.24455E-06
 -1      9896 7.15565E-05-3.19992E-05-1.31074E-05 7.84153E-06-6.83841E-06-4.91848E-06
 -1      9897-5.57036E-05-4.44468E-06 2.10088E-05-4.47108E-05-8.52676E-06-8.00766E-07
 -1      9898-1.98854E-05-9.56151E-05 6.52481E-05-6.99164E-05-1.10257E-06 1.30629E-05
 -1      9899-6.52919E-05 8.58717E-05 1.04482E-05-5.12862E-05-8.40689E-06 8.58458E-06
 -1      9900 5.77531E-05-3.23013E-05-6.53403E-06 2.06430E-05-3.89498E-06-9.58474E-06
 -1      9901 1.74673E-04-8.20546E-04 3.23821E-04 3.08527E-04 2.50468E-06 1.04481E-06
 -1      9902 5.59302E-06-7.70949E-05 5.71521E-05 6.99973E-05-1.41763E-05-2.55081E-06
 -1      9903 7.24511E-06-3.08229E-05 1.24164E-05 3.74166E-05-7.78919E-06 1.24693E-06
 -1      9904 1.49074E-05-5.60340E-05 3.05091E-05 5.96164E-05-4.54377E-07 9.09090E-07
 -1      9905 8.72188E-06-1.72706E-05 1.88846E-05 4.11836E-05-1.79936E-05-1.01164E-05
 -1      9906-1.26739E-06-1.29641E-05 3.83611E-05-8.82359E-05-2.32266E-06 1.13218E-05
 -1      9907 1.97062E-05-8.11465E-05-1.36029E-05-1.56171E-04-1.22667E-05 1.09260E-05
 -1      9908 1.63187E-05-5.31301E-06 1.11264E-05-3.80323E-05 2.02903E-05-1.37894E-05
 -1      9909 5.58483E-06 4.75941E-05 1.92281E-06 6.88444E-05 1.98497E-05-1.10727E-05
 -1      9910 2.07836E-05-3.01836E-05 2.02057E-05 6.39141E-05 7.59232E-06-2.89106E-06
 -1      9911 4.90246E-05-5.19748E-05 1.32689E-05 5.11384E-05 9.38644E-06-1.91280E-05
 -1      9912-3.83828E-04 1.26287E-04-4.76373E-05-4.50979E-05 4.78733E-05 9.84075E-05
 -1      9913-3.94920E-04 1.55318E-04-3.73226E-05-2.85675E-05-4.83105E-05-5.72895E-05
 -1      9914 4.23276E-05-1.74868E-05-2.03940E-05 1.89549E-05 4.18661E-06-8.43754E-08
 -1      9915 6.57997E-05-2.38034E-05-3.90940E-05 6.84653E-07 2.39706E-06 7.83097E-07
 -1      9916 8.23959E-05-3.61953E-05-2.71004E-05-8.60329E-06 5.29981E-06-2.84858E-06
 -1      9917 4.36302E-04-9.54856E-05-1.84326E-04-1.56802E-04 4.88011E-06-1.32555E-05
 -1      9918 7.77303E-06-8.20042E-05 6.40793E-05 6.95405E-05 1.20952E-05 1.02623E-06
 -1      9919 2.77773E+00-9.59282E+00 2.93820E+00 4.43768E-01 1.02054E-02 2.71097E-04
 -1      9920 2.52086E+00-9.08621E+00 2.82145E+00 5.03879E-01 5.80168E-03 1.00946E-03
 -1      9921 7.89943E-05 1.97696E-05-1.06990E-04 4.31554E-05-1.72239E-04-1.33539E-05
 -1      9922 1.65622E-05 2.93558E-05-5.58032E-05 7.91418E-05-8.62280E-05-1.95509E-06
 -1      9923 1.49633E-05 2.04519E-05-4.65633E-05 8.05408E-05 8.11877E-05 1.99151E-07
 -1      9924 8.10267E-05 1.74114E-06-8.98563E-05 2.24784E-05 1.79696E-04-5.63846E-06
 -1      9925 2.02672E-01 4.21295E-01-2.22521E-01-6.86378E-01 1.20709E-02-3.69844E-02
 -1      9926 2.06952E-01 4.20169E-01-2.20129E-01-7.01149E-01-2.26941E-02 4.08775E-02
 -1      9927 4.32101E-05-1.29888E-05-2.87385E-05-7.04402E-05 1.03022E-04 5.58042E-07
 -1      9928 8.44630E-06-7.10553E-06 1.78289E-06-9.27137E-05 7.32592E-05-1.02116E-05
 -1      9929 1.43921E-01-4.88760E-01 1.49200E-01 1.92835E-01-1.24008E-03 5.63783E-04
 -1      9930 1.12311E-04-3.36161E-04 1.32543E-04-9.91166E-05-3.92657E-06-6.59087E-06
 -1      9931 2.53783E-05 4.61361E-06 1.72305E-05 6.46220E-05-3.41904E-06 7.47552E-06
 -1      9932-4.04191E-05-2.84023E-05 3.76487E-05 6.88989E-05-1.66882E-05 1.94300E-05
 -1      9933 3.85852E-05-3.29910E-05-1.28866E-05-7.23839E-06 5.06146E-06-3.38548E-06
 -1      9934-3.69967E-05 4.53148E-05 1.50674E-05-3.94808E-05 9.04416E-06-3.93184E-06
 -1      9935 5.59228E-05-3.30666E-05-1.67889E-05-1.78848E-05-5.05607E-06 5.23364E-06
 -1      9936 1.28365E-05-1.61893E-05 1.23290E-05-4.47794E-05 6.96403E-06 5.80174E-06
 -1      9937-6.50176E-01 4.33078E+00-1.46494E+00 2.17719E+00-2.93562E-01-1.66132E-02
 -1      9938-6.78510E-01 4.24897E+00-1.41686E+00 2.11625E+00 2.81358E-01 5.17160E-03
 -1      9939-9.92096E-03 2.90118E-01-4.64225E-02-1.15536E+00 1.85498E-03 4.73159E-02
 -1      9940 1.40220E-05-1.86026E-05-1.77388E-05 1.60269E-05-5.09924E-06 7.85451E-06
 -1      9941 9.18878E-05-4.34913E-06-4.68733E-05-3.04414E-05-6.58359E-06 5.25590E-06
 -1      9942 2.28934E-05-1.17809E-05 3.74930E-07-5.99477E-05 1.27803E-06 6.47139E-06
 -1      9943 2.00968E-05-5.61795E-05 2.57143E-05-2.21108E-05-9.62264E-06 3.88605E-06
 -1      9944 1.09528E-04-2.21711E-05-3.12523E-05-7.30434E-05-1.35880E-05 1.74141E-05
 -1      9945 6.60131E-05-1.94606E-05-1.94599E-05-3.57395E-05-8.48403E-07 8.19916E-06
 -1      9946 5.48768E-05-5.92451E-05-9.91445E-07 8.98775E-06 1.05696E-05-6.65945E-06
 -1      9947 7.06867E-05-2.86762E-05-1.94069E-05-4.45720E-06-5.46930E-06 4.17574E-06
 -1      9948 4.35870E-04-1.05397E-04-1.76783E-04 1.56440E-04 2.64843E-06 1.25073E-06
 -1      9949 1.00664E-04-4.75616E-05-2.15249E-05-5.25731E-06-4.51464E-06 1.16151E-05
 -1      9950 9.50365E-05-2.70465E-05-4.80903E-05 1.17698E-05-6.28597E-07-5.28651E-07
 -1      9951-3.91710E-05-2.94328E-05 3.89751E-05 6.97475E-05 1.75599E-05-1.89379E-05
 -1      9952-1.72585E-02 1.66591E+00-6.49580E-01 1.19060E+00 7.69078E-01 3.89038E-01
 -1      9953 2.99563E-05-7.11827E-05 2.23800E-05-2.70981E-05 1.44557E-07 3.33258E-06
 -1      9954-1.55643E-06-2.03182E-05 1.94059E-05 5.05807E-05-1.82296E-05 3.23009E-06
 -1      9955-8.39770E-01 2.57224E-01 1.55754E-01-3.62248E-01 1.70960E-02-4.94718E-02
 -1      9956-6.81461E-05 2.54878E-05-5.08741E-06 1.53418E-04 1.80355E-05-1.86946E-05
 -1      9957-2.15566E-04 9.98274E-04-2.74079E-04 3.80825E-04-5.45313E-05 1.23107E-05
 -1      9958-2.13558E-04 9.98238E-04-2.77896E-04 3.77764E-04 5.54593E-05-1.07119E-05
 -1      9959-2.38538E+00 9.67325E+00-3.12829E+00 1.57844E+00-1.55026E-02-3.39331E-02
 -1      9960 1.27206E-04 9.80363E-05-7.36018E-05-2.14038E-04-4.35153E-05 4.12183E-05
 -1      9961-5.27916E-05 5.59975E-05-5.29669E-05-2.71801E-04 3.02287E-06-5.20053E-05
 -1      9962-1.15426E-04 1.40752E-04-7.40586E-06 1.67334E-05 9.23068E-07 4.12997E-07
 -1      9963 2.77684E+00-9.58880E+00 2.93751E+00 4.46335E-01-6.00963E-03 1.35598E-03
 -1      9964 1.07659E-06-1.57968E-05 7.87451E-06-7.93000E-05-7.31137E-05 1.17348E-05
 -1      9965 3.37228E-05-3.44863E-05-1.42714E-05-3.14429E-05-1.04238E-04-1.22206E-05
 -1      9966 2.02049E-05-2.15091E-05 7.54943E-06 5.08741E-05 6.68885E-07 1.04349E-06
 -1      9967-7.06184E-05 2.61315E-05-4.84159E-06 1.50856E-04-1.74084E-05 1.99030E-05
 -1      9968 4.32838E-05-1.46095E-05-3.52854E-05-1.74999E-05-3.90903E-06 1.08124E-05
 -1      9969-2.89200E-01 9.59080E-01-3.02869E-01 6.77555E-01 7.52761E-02 7.55530E-02
 -1      9970 1.24141E-04 9.58977E-05-6.97376E-05-2.14029E-04 3.96308E-05-4.16357E-05
 -1      9971-5.28327E-05 5.56275E-05-5.23031E-05-2.71674E-04-5.06429E-06 5.21369E-05
 -1      9972-5.56074E-05-2.58420E-05 4.12096E-05-7.24359E-05 1.44675E-05-1.49895E-05
 -1      9973 7.34336E-05-3.08846E-05-1.76464E-05-8.36618E-06 8.09329E-06-1.24799E-06
 -1      9974 7.93066E-04-7.28952E-04-4.37867E-05-4.18542E-04 3.44497E-04 2.64755E-04
 -1      9975 2.40729E-03-6.53954E-04-6.85430E-04-6.97121E-04 6.90101E-05 2.29806E-04
 -1      9976 1.01870E-03-9.48486E-04-4.15447E-05 3.66025E-04 2.56113E-04-1.39676E-04
 -1      9977 7.80681E-04-7.26462E-04-2.44393E-05-4.18597E-04-3.51945E-04-2.49443E-04
 -1      9978 2.41362E-03-6.61504E-04-6.83330E-04-6.96759E-04-7.24428E-05-2.27470E-04
 -1      9979 1.00640E-03-9.39122E-04-3.36617E-05 3.71909E-04-2.62085E-04 1.49609E-04
 -1      9980-2.29917E-01 7.39732E-01-2.18937E-01 2.33064E-01 2.12536E-03 9.09712E-04
 -1      9981-2.60295E-01 7.19763E-01-2.03412E-01-6.84884E-01 8.97130E-03-2.12153E-03
 -1      9982 2.87061E+00-1.03998E+01 3.19857E+00 5.53549E-01-2.12767E-02 2.88349E-03
 -1      9983 2.48905E+00-9.06269E+00 2.81601E+00 5.21517E-01-7.72391E-03 1.05016E-02
 -1      9984 2.50926E-04-4.61392E-04 2.79099E-05-6.77503E-04 5.55690E-05 9.34691E-05
 -1      9985 2.48754E-04-4.61766E-04 2.90572E-05-6.77432E-04-5.54758E-05-9.94863E-05
 -1      9986-1.29547E-06 4.78458E-06 1.15478E-05 9.69561E-05 1.45179E-05-2.41955E-06
 -1      9987 5.59710E-05-2.04529E-05-2.70235E-05-3.28018E-06 4.09400E-06 1.96267E-06
 -1      9988 1.36032E-04 4.08961E-06-9.88173E-05-1.46399E-04-1.30784E-04-2.35514E-05
 -1      9989 2.76509E-05 5.74877E-05-7.91168E-05 1.25833E-04-5.45572E-05-3.63106E-05
 -1      9990 2.36160E-05 6.45064E-05-8.19096E-05 1.30902E-04 5.35419E-05 4.39354E-05
 -1      9991 1.44994E-04 7.89627E-06-1.03781E-04-1.42720E-04 1.29144E-04 2.29801E-05
 -1      9992 1.89012E-05 4.77413E-05-5.32676E-05-1.25084E-04 5.57044E-05-2.45975E-05
 -1      9993 1.04855E-04 1.81677E-05-9.58845E-05 1.32705E-04 1.31575E-04-1.36265E-05
 -1      9994 9.83075E-05 1.07558E-04-6.93426E-05 2.08877E-04-2.86006E-05-4.42952E-05
 -1      9995 4.35632E-05-2.50245E-05-8.92199E-06 1.24086E-05 1.12946E-05 1.75012E-06
 -1      9996 4.97079E-05-3.57775E-05-7.33449E-06-3.77870E-07 1.32688E-06 9.29749E-06
 -1      9997 8.71209E-06-1.89556E-06 1.66207E-05 9.14791E-05-2.47856E-05-2.92018E-05
 -1      9998 7.50591E-05-6.14393E-05-1.15675E-05 1.40137E-05 2.14355E-06 2.21545E-06
 -1      9999-2.55776E+00 9.88631E+00-3.16864E+00 1.28315E+00 6.64544E-03 1.93589E-02
 -1     10000 3.04283E-05 1.25420E-05-6.84010E-08 9.70802E-05-3.16959E-05 3.95280E-06
 -1     10001 9.22342E-05-1.53881E-05-4.49898E-05 2.88319E-05 2.91398E-06 6.51136E-07
 -1     10002 5.85543E-05-2.64237E-06-2.08132E-05 1.96299E-05 1.22276E-05 3.10631E-06
 -1     10003 2.86143E+00-1.03722E+01 3.19525E+00 5.47694E-01 2.14067E-02-4.20205E-04
 -1     10004 2.47248E-05-1.68684E-05-1.57862E-06-5.33212E-05-1.27657E-05 1.76427E-07
 -1     10005 2.48640E-05-5.36882E-05 8.42694E-07 4.61353E-05 3.19890E-05 1.34300E-05
 -1     10006-9.22282E-04 3.25478E-03-8.13060E-04 3.65578E-04 4.62184E-04 3.88872E-05
 -1     10007-9.15547E-04 3.25159E-03-8.11312E-04 3.83709E-04-4.56477E-04-2.41765E-05
 -1     10008 5.55873E-05-3.09579E-05-1.76926E-05-1.06701E-05-5.99167E-06 9.30794E-06
 -1     10009-2.56287E+00 9.87911E+00-3.15895E+00 1.28775E+00-8.47390E-03-1.80301E-02
 -1     10010-2.05686E-04 2.21570E-04-5.19653E-05 9.13941E-05 2.24900E-05 1.29608E-06
 -1     10011-8.18932E-05 4.62619E-05 2.28456E-05 1.85664E-04 7.42651E-06-8.16375E-06
 -1     10012-2.16006E-04 1.93272E-04-3.06772E-05 7.28303E-05-2.48773E-05 7.46797E-06
 -1     10013 1.63276E-04-3.54794E-05-1.05652E-04 1.29797E-04-1.09481E-04-2.81789E-06
 -1     10014-1.74238E-04-5.74647E-04 1.38287E-04-3.26103E-04-9.72875E-05 2.09344E-05
 -1     10015-3.30665E-05 4.29330E-05 4.16071E-06-3.82280E-05-9.20557E-05 7.64138E-06
 -1     10016-3.98083E-04-7.21491E-05 2.06106E-04-4.21286E-04-1.30946E-04-6.54567E-05
 -1     10017 6.58533E-05-4.68041E-05-5.34492E-06 1.11947E-05-9.25035E-06-6.25339E-06
 -1     10018 1.07110E-03-5.87061E-04-7.43730E-05 9.20153E-04 2.71060E-04 2.94969E-04
 -1     10019-6.65679E-05 2.88750E-05 1.42863E-05 9.76967E-05-7.67833E-05-1.52521E-06
 -1     10020-7.35181E-05 4.09090E-05 1.30073E-05 9.24904E-05 9.51874E-05 4.23464E-06
 -1     10021-5.42457E-05 2.87176E-05 1.62215E-05-9.49441E-05 7.50782E-05-4.74783E-07
 -1     10022 7.01527E-06-4.33561E-05 1.55621E-05 3.41867E-05-3.81000E-06-1.29193E-05
 -1     10023 4.36444E-05-4.02775E-05 5.11783E-06-2.94994E-06 7.49952E-06 1.10332E-05
 -1     10024 4.81535E-05-6.92761E-05 9.87156E-06-2.29633E-05-5.95976E-06-1.07357E-05
 -1     10025 1.06072E-04-4.25044E-05-2.81271E-05 4.63068E-05 9.25181E-06 1.83656E-05
 -1     10026 9.98714E-05-4.65521E-05-1.79266E-05 4.36565E-05 1.63098E-05 2.11893E-05
 -1     10027 4.82222E-05-6.01658E-05 7.63856E-06-1.71017E-05-9.15828E-06-7.63656E-06
 -1     10028-7.33260E-05 3.98958E-06-5.61808E-07-1.32792E-04-5.81249E-06-2.57955E-05
 -1     10029 6.16409E-05-6.19330E-05-2.21689E-07 2.78198E-06-1.10343E-05-1.86477E-06
 -1     10030 7.72844E-06-2.83840E-05-6.82785E-06 1.98743E-05 8.91854E-07-6.45805E-06
 -1     10031 6.02568E-05-1.62965E-05-1.85729E-05-2.01784E-05 1.45774E-05-1.47473E-05
 -1     10032 8.11786E-05-2.55926E-05-2.67674E-05-1.44926E-05 1.37988E-05-5.22769E-06
 -1     10033 5.11194E-05-2.45224E-05-1.38168E-05-1.22006E-05 3.49685E-07-1.80161E-06
 -1     10034-5.11414E-05 7.93017E-05 1.04976E-05-2.74644E-05 9.78444E-06 1.44942E-05
 -1     10035 3.05775E-05-6.45490E-05 1.44887E-05-2.84100E-05 5.69393E-06 9.19833E-06
 -1     10036 3.89891E-05-4.95280E-05 8.11649E-06-7.38118E-06-7.37709E-06-1.05262E-05
 -1     10037 1.65619E-05 3.29961E-05-4.88973E-05-1.20497E-04-6.15451E-05 2.76920E-05
 -1     10038 8.85552E-05 1.01416E-04-7.68244E-05 1.91154E-04 4.28085E-05 3.06124E-05
 -1     10039-2.06760E-04 7.14267E-04-1.59780E-04 7.25850E-04-6.70105E-05 1.15667E-05
 -1     10040 1.75444E-04-1.55261E-04-4.71017E-05-3.23445E-04-1.31466E-06-9.83983E-07
 -1     10041-3.39716E-04 2.87986E-04-1.77413E-05 9.16286E-05 3.72536E-05 3.81470E-05
 -1     10042 5.80241E-05-2.21645E-05-3.15708E-05-3.98928E-06 4.48719E-06 9.54296E-06
 -1     10043 2.48839E+00-9.05879E+00 2.81604E+00 5.14427E-01 4.18679E-03-1.09392E-02
 -1     10044 4.09022E-05-7.90374E-05-2.74345E-05 1.67152E-04 1.66831E-05-1.82077E-05
 -1     10045-3.38108E-04 2.85722E-04-1.72771E-05 9.60580E-05-3.72276E-05-3.66470E-05
 -1     10046 4.21990E-05-5.98500E-05 2.37915E-06 2.18815E-05-9.74389E-06 7.73405E-06
 -1     10047 5.69478E-05-2.03320E-05-1.65457E-05-2.88693E-05 1.32776E-06-3.90387E-06
 -1     10048 4.08079E-05-1.48662E-05-1.65241E-05-3.33640E-05 1.51059E-05-1.40910E-05
 -1     10049 8.23536E-05-1.56337E-05-3.20348E-05-5.89870E-05 1.04575E-05-5.55682E-06
 -1     10050 4.31092E-04-9.15334E-05-1.78856E-04 1.31181E-04 4.05853E-06 2.25428E-05
 -1     10051 6.09872E-05-2.62477E-05-2.70182E-05 1.98354E-05 2.32942E-07 1.18335E-05
 -1     10052 5.37875E-05-1.52792E-05-1.71238E-05 4.79299E-06 4.19340E-07 5.69729E-06
 -1     10053 1.11017E-03-2.47610E-04-3.96385E-04 2.27651E-04-4.68009E-05-2.72485E-04
 -1     10054 3.76264E-04-3.78686E-04 1.35042E-05-3.86050E-04 1.72596E-05 2.20577E-05
 -1     10055 5.35156E-04-4.23233E-04-7.28084E-05-3.38783E-05 8.05289E-05-1.46297E-04
 -1     10056 5.46497E-04-4.18161E-04-8.65887E-05-4.03542E-05-7.75123E-05 1.50249E-04
 -1     10057 1.12291E-03-2.45917E-04-4.05388E-04 2.32791E-04 4.88047E-05 2.75187E-04
 -1     10058 3.75444E-04-3.77045E-04 1.30311E-05-3.89850E-04-1.58738E-05-2.52079E-05
 -1     10059-8.63616E-01 2.41747E-01 2.24363E-01-3.49622E-01-6.46548E-03 3.03595E-02
 -1     10060-8.04846E-01 2.72164E-01 1.62692E-01-3.76316E-01-2.10797E-02 6.07074E-02
 -1     10061-8.66847E-03 6.58534E-01-2.81964E-01 6.01542E-01 1.64578E-03-4.48422E-04
 -1     10062-4.73808E-04 1.51404E-03-4.38769E-04-2.11854E-04 1.31430E-04-3.17252E-05
 -1     10063 3.81808E-05-3.28161E-05 7.03930E-06-2.96397E-06-5.06397E-06-1.47197E-06
 -1     10064 8.76721E-04-6.51808E-04-2.11761E-04-2.03370E-05 2.67137E-04-6.06619E-05
 -1     10065 8.78990E-04-6.55633E-04-2.07393E-04-1.46732E-05-2.69238E-04 6.87004E-05
 -1     10066 6.70388E-05-4.64150E-05-2.98181E-05 2.72492E-04 5.60249E-06 2.55280E-06
 -1     10067-2.92389E-04 2.59133E-04-8.39420E-05-1.33667E-04 3.84418E-05-3.50199E-05
 -1     10068-8.11206E-05 8.35855E-05-5.75177E-05 2.26747E-04 1.64726E-06 4.06627E-05
 -1     10069-4.73171E-04 1.52018E-03-4.44331E-04-2.10073E-04-1.34184E-04 3.09628E-05
 -1     10070 2.53337E-05-7.91687E-06-3.76956E-05 1.72130E-04-2.67176E-05 2.15054E-05
 -1     10071-2.15568E-05 3.14345E-04-1.02658E-04 2.28432E-04 1.22481E-05 2.51866E-05
 -1     10072 1.47886E-04-4.83497E-04 6.39010E-05 1.31724E-04-3.52276E-05 8.09600E-06
 -1     10073 7.94174E-05-2.24326E-04 8.76097E-05-7.52856E-06-7.47863E-05-2.08633E-05
 -1     10074 4.59333E-04-1.08408E-04-1.89668E-04-1.44835E-04-5.10791E-06 1.17830E-05
 -1     10075 8.03128E-05-2.66096E-05-2.83906E-05-1.71227E-05-4.11913E-06 1.12145E-05
 -1     10076 4.23235E-05-8.49260E-05 1.75331E-05-1.95175E-05 9.56517E-06 7.94908E-06
 -1     10077 9.95705E-05-5.51337E-05-2.28208E-05 5.44345E-05-7.19154E-06-1.30362E-05
 -1     10078 5.51395E-05-3.31941E-05-6.31107E-06 1.62970E-05 5.05880E-06 1.19072E-05
 -1     10079 7.13026E-05-2.12382E-04 8.30069E-05-2.51417E-05 7.59540E-05 2.03605E-05
 -1     10080-4.24861E-06 2.95319E-04-1.15139E-04 2.41158E-04-1.21228E-05-2.35822E-05
 -1     10081 1.09940E-04-4.47410E-04 6.36253E-05 1.15121E-04 4.79341E-05-1.13262E-05
 -1     10082 3.16806E-05-6.79785E-08-5.53077E-06-1.14953E-05-2.34544E-06 1.54719E-05
 -1     10083-3.02857E-05 1.43186E-05 8.20018E-06-3.20824E-05-1.63091E-06 4.36406E-06
 -1     10084-3.78388E-06-2.78812E-05 5.37989E-05-5.04601E-05 2.03363E-06 8.32987E-06
 -1     10085-3.03689E-04-2.41380E-04 2.34626E-04-4.79779E-04 8.89908E-05-2.61669E-06
 -1     10086-3.15630E-04-2.90317E-04 2.40119E-04-6.54684E-04 8.67072E-05 3.96163E-05
 -1     10087-1.73328E-04 2.11528E-04 1.37250E-05 5.33374E-05 6.83678E-05 2.33994E-05
 -1     10088 2.48851E-04 1.51528E-04-1.81882E-04 4.38523E-04 7.27359E-05 1.30187E-05
 -1     10089-3.23678E-01 4.56030E+00-1.48959E+00 3.11227E+00 4.77723E-01 1.16008E-01
 -1     10090-3.09141E-01 4.57078E+00-1.53754E+00 3.12133E+00-4.48284E-01-1.09055E-01
 -1     10091-3.72251E-05 2.38525E-04-7.40084E-05-2.02640E-04 2.09351E-06-2.18758E-05
 -1     10092 8.45725E-05-3.71664E-05-1.10056E-05-8.32545E-06 5.15464E-06-1.47340E-05
 -1     10093-2.83939E-04-3.09968E-04 2.29070E-04 6.21443E-04 8.20546E-05-7.77713E-05
 -1     10094-3.15801E-04-3.28129E-04 2.45113E-04 6.88979E-04-1.02183E-04 6.39876E-05
 -1     10095-3.37661E-04-1.70872E-04 2.03176E-04-6.08008E-04-1.04352E-04-8.36702E-05
 -1     10096 1.18168E-05-3.22033E-04 1.38079E-04 2.31152E-04-3.14446E-05 3.97635E-06
 -1     10097-1.23440E-04 5.36393E-04-1.63668E-04-2.00515E-04-1.74815E-05-2.48963E-05
 -1     10098-5.72167E-05 6.54445E-05-4.21496E-05-7.47493E-05-2.41397E-05-2.58563E-05
 -1     10099 2.19987E-05-4.47077E-04 8.06331E-05 7.51848E-05-4.71554E-06-2.11015E-05
 -1     10100-1.19839E-04 3.65399E-04-9.06900E-05-1.96361E-04-1.45885E-05-4.55928E-07
 -1     10101-4.32235E-05 5.48087E-05-4.42881E-05-7.52914E-05-2.96099E-06 2.52711E-05
 -1     10102 6.24562E-05-4.83803E-04 8.61935E-05 9.89748E-05 6.10045E-06 1.64143E-05
 -1     10103-1.36493E-04 5.47579E-04-1.57679E-04-2.03065E-04 1.46373E-05 2.30840E-05
 -1     10104 8.66540E-06-3.26447E-04 1.43630E-04 2.27324E-04 2.63884E-05-4.01859E-06
 -1     10105-2.06619E-04 5.04665E-04-9.49415E-05 1.33840E-04 2.48789E-05 9.60834E-06
 -1     10106 1.08939E-04 6.49132E-05-8.59257E-05-1.44089E-04-3.88164E-07-2.35652E-06
 -1     10107 5.07309E-05-3.55031E-05-6.47852E-06-1.66879E-05-7.32811E-07 3.77898E-06
 -1     10108 4.71343E-05-7.61776E-06-2.14264E-05-4.38336E-05 4.01482E-07 3.28503E-06
 -1     10109 4.55096E-05-4.46050E-06-1.95437E-05-5.97732E-05-4.31369E-06 4.62200E-06
 -1     10110 4.22211E-05-5.33112E-05 6.84523E-06 7.25116E-05-1.70592E-05-8.09542E-07
 -1     10111 4.49264E-05-1.85001E-05-1.29728E-05 3.43686E-05-1.33522E-05-1.43832E-05
 -1     10112 6.60226E-05-2.82801E-05-1.92425E-05-1.45125E-05-9.51896E-06-4.49109E-07
 -1     10113 4.40420E-06 2.04369E-04-8.09126E-05-1.78320E-04-2.10681E-06 9.70093E-06
 -1     10114 1.03206E-04-2.35113E-04 5.00037E-05-1.62789E-05 4.56641E-05-6.29683E-06
 -1     10115-1.47705E-04 4.98181E-04-1.50315E-04 1.59821E-04 2.44578E-05-1.53746E-05
 -1     10116 5.27526E-05-6.35084E-05-2.11366E-05 1.89490E-04 1.67844E-05 6.33373E-06
 -1     10117 5.07148E-05 8.32637E-06-2.93533E-05-2.38250E-05-4.13721E-06-4.86948E-06
 -1     10118 6.88319E-05-4.91303E-05-1.45506E-05-3.35952E-05-2.31926E-05 1.45440E-05
 -1     10119 1.27887E-05 3.37321E-05-2.63917E-05 6.88791E-05 2.53451E-06-1.40242E-06
 -1     10120 6.45779E-05-1.25545E-05-2.56799E-05-3.82758E-05-2.03155E-06 1.72202E-06
 -1     10121 5.70538E-05-4.12387E-05-4.27414E-06-3.93807E-05-4.14977E-06 7.97005E-07
 -1     10122 2.95822E-05-4.67110E-05 1.87910E-05 4.24084E-05 4.02746E-07-5.91936E-07
 -1     10123-3.59511E-05 9.44011E-05 2.12434E-05 3.13604E-05 4.41216E-05-2.91678E-06
 -1     10124-7.35731E-05 5.80244E-05-2.22949E-05-3.65425E-05 2.13811E-05 1.25711E-05
 -1     10125 6.91557E-05 1.22741E-05-3.06653E-05-1.77769E-05-1.43431E-05 7.58447E-06
 -1     10126 3.59189E-05-2.58450E-05-2.64107E-05-3.98725E-05-2.63206E-06-1.96346E-06
 -1     10127-1.49170E-05 2.82245E-06 6.92784E-06-4.65350E-05 1.67790E-05-2.51265E-06
 -1     10128-3.37531E-04 2.06144E-04-7.00293E-05 8.12800E-05-5.45344E-05 2.62155E-05
 -1     10129 1.58820E-05 6.00884E-06-1.42879E-06 1.17056E-05-1.79952E-06 2.66054E-05
 -1     10130 6.10169E-06 1.93437E-05 1.21901E-06-1.04453E-04-8.82674E-06-1.12196E-05
 -1     10131-2.75659E-05 8.77635E-05-2.62248E-05 1.36544E-04 2.02027E-05 4.12792E-06
 -1     10132 4.92557E-05-3.02189E-05-1.07073E-05-1.71734E-05-6.62166E-06 9.28860E-06
 -1     10133 4.57317E-05-7.80641E-05 4.12347E-06-4.77952E-05 2.96070E-05-3.71707E-06
 -1     10134 1.51604E-04-9.65903E-05-8.11605E-06-7.95435E-06-1.17863E-06-6.26553E-06
 -1     10135 7.68319E-05-7.94624E-05 5.47751E-06-6.54231E-05-2.91191E-06-6.72061E-06
 -1     10136-2.40247E-04 2.71130E-04-7.84650E-06 7.59530E-05-6.61326E-06-9.93007E-06
 -1     10137-2.00843E-04 5.18819E-04-1.01327E-04 1.41733E-04-1.88521E-05-7.60158E-06
 -1     10138 4.83185E-05-4.98549E-06-2.90933E-05-5.59913E-05-4.05974E-08-1.94894E-06
 -1     10139 5.80288E-05-8.92838E-05 1.37732E-05-5.19500E-06-2.21998E-06-4.55427E-06
 -1     10140 1.02229E-04-5.35133E-05-2.39615E-05 6.13582E-05 1.00864E-05 1.27463E-05
 -1     10141-1.59302E-04 1.53137E-04 5.98298E-05-2.98661E-04 7.19296E-06-1.97643E-04
 -1     10142-1.73112E-04 1.62086E-04 5.79750E-05-2.81074E-04-2.27512E-05 2.10488E-04
 -1     10143 4.11121E-04-3.50809E-04-5.77992E-05-1.98010E-04 2.31510E-05 6.40508E-05
 -1     10144 4.11132E-04-3.51138E-04-5.73724E-05-2.02040E-04-2.37129E-05-6.76169E-05
 -1     10145-3.04404E-04-2.82418E-04 2.42013E-04 5.03437E-04-1.01490E-04 1.13993E-05
 -1     10146 2.84739E-04 1.53952E-04-1.92280E-04-4.69032E-04-7.72516E-05 9.36141E-06
 -1     10147-1.72990E-04 2.29759E-04 8.88529E-06-4.58006E-05-6.71439E-05 2.91845E-05
 -1     10148 1.01386E-04-1.84147E-04 9.92713E-05 5.82668E-04-2.81992E-04-1.85490E-04
 -1     10149-2.24623E-05-1.34752E-05-3.76473E-06-3.71825E-05 6.08360E-06 1.87024E-05
 -1     10150 5.88757E-05-2.49677E-05-2.04683E-05 2.20939E-05 1.21027E-05-2.47693E-06
 -1     10151 4.26848E-05-1.10326E-04 1.40116E-05-6.12249E-05 8.27760E-06-3.85870E-06
 -1     10152 1.19019E-04 2.36581E-05-5.65562E-05 1.42347E-04 2.59093E-05 1.15632E-05
 -1     10153-6.28531E-06-1.03307E-04 4.19966E-05-1.42667E-04 4.50299E-06 1.29489E-05
 -1     10154-4.40910E-05 2.47063E-05 1.95320E-05 9.49218E-05-1.31841E-05 3.50411E-05
 -1     10155-2.14536E-04-2.37868E-04 1.89242E-04 5.45609E-04-1.21000E-04 7.72272E-05
 -1     10156 3.74809E-04 2.71528E-05-1.40488E-04-3.31376E-04-1.26734E-04 5.08517E-06
 -1     10157 2.48387E-04 7.10159E-05-1.22590E-04-3.19439E-04-7.95194E-05-1.50676E-05
 -1     10158-1.81063E-04-2.47313E-04 1.61900E-04 5.35919E-04 1.01232E-04-7.57163E-05
 -1     10159 2.51289E-04 8.94048E-05-1.28133E-04-3.40253E-04 8.80537E-05 1.61816E-06
 -1     10160 3.59530E-04 2.74010E-05-1.36948E-04-3.11017E-04 1.21736E-04-1.80680E-06
 -1     10161 3.47042E-04 2.37801E-05-1.26943E-04 2.95040E-04 1.31090E-04 2.28306E-05
 -1     10162-2.20500E-04-1.93636E-04 1.87053E-04-4.99375E-04 8.17854E-05 4.56093E-05
 -1     10163 2.08587E-04 9.43136E-05-1.20462E-04 2.70370E-04 6.71066E-05-1.59221E-05
 -1     10164-1.85181E-04 5.37576E-04-1.31595E-04 1.49767E-04-3.41253E-05 6.77915E-06
 -1     10165 3.58795E-05-3.47597E-04 1.26445E-04-1.98544E-04 3.18167E-06 6.51693E-06
 -1     10166-2.57401E-05-4.83340E-04 1.63821E-04-4.56251E-04 5.65804E-05 2.69478E-05
 -1     10167-6.46659E-05-2.95490E-04 1.64250E-04-4.59373E-04 7.20422E-05 3.59212E-05
 -1     10168 8.56820E-06-5.78914E-04 1.10791E-04 4.43277E-04-1.58745E-04 1.02969E-04
 -1     10169-3.19855E-05-3.18416E-04 1.04640E-04 4.95919E-04-1.48595E-04 8.03550E-05
 -1     10170 3.85700E-05-1.82830E-04 8.85687E-05-2.90508E-04 9.93610E-05-4.85013E-05
 -1     10171-2.81909E-04 6.24452E-04-9.95917E-05-5.91531E-05 2.10665E-05 1.06989E-05
 -1     10172 7.94472E-06 3.58267E-05-2.55660E-05 6.47268E-05-1.27170E-06 4.65352E-06
 -1     10173-5.90606E-04 1.76291E-03-4.52708E-04-1.43663E-04-3.34037E-04 3.58450E-05
 -1     10174-6.10198E-04 1.76836E-03-4.19781E-04-1.77498E-04 3.35396E-04-3.38545E-05
 -1     10175 6.17562E-05-3.26458E-07-2.37591E-05 5.32800E-05 3.96587E-06 6.29621E-06
 -1     10176 5.36679E-05-4.17161E-05-1.04276E-05 5.76575E-05 8.10924E-06 1.53467E-06
 -1     10177 6.13568E-05-6.29487E-05 1.01708E-06 2.61144E-06 8.72538E-06 4.56512E-06
 -1     10178-1.31235E-04 1.38836E-04 3.53914E-06-2.38355E-05 5.92787E-06 1.49102E-05
 -1     10179 5.17128E-05-3.08841E-05-1.11512E-05 3.20761E-05 4.58120E-06 1.74063E-05
 -1     10180 9.52450E-05-1.65597E-05-4.87223E-05 8.86801E-05 1.57581E-05 1.74938E-05
 -1     10181-1.05465E-06-3.97240E-05 4.19689E-05-5.52053E-05 1.51797E-05 6.06603E-06
 -1     10182 5.79165E-05-2.90016E-05-1.57342E-05 4.16100E-05 7.97987E-06 9.30063E-06
 -1     10183 2.62206E-05 4.51810E-06-3.66249E-06 6.61382E-07 1.87883E-06-3.10450E-05
 -1     10184 2.44743E-05-5.71345E-05 2.62651E-05-2.09053E-05 1.68891E-05-3.35351E-06
 -1     10185 3.29428E-05-3.35632E-05 3.35226E-06-4.75816E-05-2.51157E-06-4.75138E-06
 -1     10186 9.69744E-05-2.86844E-04 6.82230E-05-2.00334E-05-4.43788E-05 1.19714E-05
 -1     10187 3.05245E-05-3.73399E-04 1.25656E-04-1.94042E-04-1.50185E-06-6.42050E-06
 -1     10188-1.05961E-04 6.11275E-05 7.50748E-07-1.24516E-05-1.59235E-06-6.20763E-06
 -1     10189-1.84524E-05 1.37327E-04 7.07403E-06 1.29512E-04 1.32096E-05 3.75763E-05
 -1     10190 1.70172E-05-3.60796E-05-7.70112E-06-2.04811E-05 1.09120E-06-3.21477E-06
 -1     10191 4.34381E-05-7.45661E-05 1.58444E-05 5.55276E-05 1.63802E-05-4.64582E-06
 -1     10192 1.92338E-05 5.26413E-05-2.52107E-05 1.11187E-04-2.19350E-05-1.13239E-05
 -1     10193 1.60249E-04-7.44852E-04 3.01237E-04-3.28710E-04-9.79992E-06-1.62156E-06
 -1     10194 6.84361E-06-9.88807E-05 2.15516E-05-1.85489E-04-1.16003E-05 6.97324E-06
 -1     10195 5.27294E-05-2.74413E-05-8.31638E-06-2.73688E-05 2.79001E-06-7.37213E-06
 -1     10196 7.53812E-05-3.76225E-05-1.66671E-05 1.11483E-05 1.14338E-05-4.97509E-06
 -1     10197 5.23785E-05-2.18986E-05-1.16786E-05 1.26044E-05-1.49317E-05-1.61414E-05
 -1     10198 6.71782E-05-3.13430E-05-2.45157E-05 1.95912E-06-1.71671E-05-7.49564E-06
 -1     10199-4.64690E-05 2.08916E-05-6.65968E-05 1.97848E-04-1.37860E-06-4.03261E-05
 -1     10200-1.07823E-03 2.45637E-03-2.74239E-04 1.35309E-03-2.08808E-04-7.04174E-04
 -1     10201-8.03613E-01 2.71919E-01 1.61463E-01-3.68334E-01 1.92432E-02-6.18595E-02
 -1     10202-8.54826E-01 2.66473E-01 2.11731E-01-3.27229E-01 6.54433E-03-3.67195E-02
 -1     10203-7.76692E-05 9.89384E-05-3.72460E-05-9.07534E-05 2.69361E-05-2.27279E-06
 -1     10204-1.00188E-03 2.36842E-03-2.84353E-04 1.33819E-03 2.53249E-04 7.09111E-04
 -1     10205 8.08477E-05-5.06062E-05-3.06992E-05 8.20972E-05 4.71608E-06 6.69971E-07
 -1     10206-3.16404E-05 3.81394E-05 1.03064E-05 1.28555E-04 2.99117E-05 2.25798E-06
 -1     10207 5.05575E-05 1.29636E-04-1.80082E-05-1.74016E-04 4.82658E-05-4.32528E-05
 -1     10208-8.54472E-01 2.71424E-01 2.16760E-01-3.24195E-01-4.91691E-03 3.05246E-02
 -1     10209-4.21928E-05 1.12976E-04-3.14660E-05 2.49866E-05 1.31152E-05 1.07865E-05
 -1     10210 3.45464E-05-5.41974E-06-5.12576E-06-2.77742E-05-2.34225E-06-3.00472E-05
 -1     10211 2.00550E-04 1.06434E-04-1.20848E-04 2.97983E-04-6.71612E-05-1.20428E-06
 -1     10212 3.49219E-04 1.28083E-05-1.35874E-04 2.93583E-04-1.08342E-04-1.74997E-06
 -1     10213-1.91598E-04-1.98940E-04 1.66619E-04-4.90021E-04-7.31402E-05-4.16270E-05
 -1     10214 1.11220E-04-7.92782E-05-7.37232E-06 2.10481E-05 2.24320E-06 3.55170E-05
 -1     10215 3.80710E-05-4.10946E-05 7.92614E-06 8.89771E-06 1.13669E-06-5.63330E-06
 -1     10216 3.55916E-05 8.20688E-06-2.42610E-05-8.07568E-05 2.29091E-06 2.91271E-08
 -1     10217 5.09261E-05-2.18008E-05-8.30418E-06-4.67259E-05 7.19079E-06-1.73751E-06
 -1     10218-2.23321E-04 2.26348E-04 8.48338E-06 1.05193E-04-6.67439E-06 2.81352E-05
 -1     10219-4.30868E-05 6.22251E-05 1.21565E-05-3.18360E-05 2.57727E-05-3.59191E-07
 -1     10220-2.68054E-04 6.30997E-04-1.09930E-04-4.51159E-05-1.38686E-05-9.92610E-06
 -1     10221 2.29959E-05 1.38776E-05-1.78750E-05-7.30021E-05-4.53138E-06 6.04253E-06
 -1     10222 1.32020E-04 1.36735E-05-6.22181E-05-1.44654E-04 3.07184E-05-1.02132E-05
 -1     10223 1.01808E-04 6.98465E-05-8.57327E-05-1.54100E-04 3.01924E-05-2.92838E-05
 -1     10224 1.17391E-04-1.63915E-06-5.45590E-05 1.32658E-04-2.40262E-05-2.07550E-05
 -1     10225 8.12823E-05 4.28247E-05-6.31123E-05 1.08979E-04-3.48015E-05-3.45301E-05
 -1     10226-3.15991E-04-3.21521E-04 2.14668E-04 7.29311E-04 2.28969E-04-1.04863E-04
 -1     10227 3.45589E-05-5.63645E-04 9.81163E-05 4.21959E-04 1.36933E-04-8.93754E-05
 -1     10228-3.01876E-04-3.39708E-04 2.69985E-04-6.81106E-04-1.24287E-04-4.79487E-05
 -1     10229-4.07742E-06-4.69418E-04 1.58662E-04-4.30091E-04-4.33419E-05-1.98609E-05
 -1     10230 5.01004E-05 1.32168E-04-1.97085E-05-1.74665E-04-4.89840E-05 4.12759E-05
 -1     10231-1.24473E-04 2.11794E-05 4.81673E-05-2.08209E-04-3.21551E-05-1.59957E-04
 -1     10232-1.08108E-04 1.67193E-05 2.81816E-05-2.07289E-04 3.10135E-05 1.81557E-04
 -1     10233-5.63575E-05 1.11436E-04-4.62511E-05 7.51065E-05 2.22526E-05-1.72804E-06
 -1     10234-1.52911E-04 4.23531E-04-1.01402E-04-1.81125E-04-2.93372E-07 7.88683E-06
 -1     10235-8.29803E-05 1.28576E-04 1.98260E-06 2.22990E-05 5.71693E-06 7.58849E-06
 -1     10236-3.81731E-05 1.40504E-04-5.92272E-06-4.12702E-05 2.39659E-05 9.75205E-06
 -1     10237 1.15193E-04-5.71674E-05-2.27691E-05 9.72177E-05-2.31222E-05-1.33366E-05
 -1     10238-7.93246E-06 1.55288E-06-3.88054E-06-1.97298E-05-2.34244E-06 3.54121E-05
 -1     10239-1.38753E-05 1.42905E-04-1.34518E-04 3.44406E-04 1.13137E-04-1.00882E-05
 -1     10240 4.01019E-05-7.92693E-06-4.66449E-06 2.72030E-06 5.05111E-06-1.94228E-05
 -1     10241 5.38386E-05-4.74859E-05-7.56526E-06 4.34067E-05-5.68734E-06-2.32216E-06
 -1     10242-7.33112E-05 1.14049E-04-4.87652E-05 6.64556E-05 6.70341E-06 1.53645E-05
 -1     10243-1.51811E-06 1.58632E-04-1.38008E-04-3.92351E-04 9.06369E-05 2.27538E-05
 -1     10244-1.71637E-04 2.29350E-04 3.49666E-05-6.90933E-05 4.80075E-05-2.07937E-05
 -1     10245-6.76292E-05 7.25904E-05 8.56772E-06 1.33569E-04-1.14141E-05-7.01273E-06
 -1     10246-5.24108E-05 7.25252E-05 8.98646E-06-1.23365E-05 3.91930E-06 7.82484E-06
 -1     10247 3.49326E-05-3.16736E-05-1.63857E-05-4.45764E-06 5.47749E-06 4.12429E-06
 -1     10248-8.43288E-01 3.12533E-01 5.55686E-02-2.94507E-01-3.67823E-03-2.96072E-02
 -1     10249-8.25270E-01 3.00427E-01 6.81964E-02-3.08213E-01 1.61590E-02-7.50628E-02
 -1     10250-7.58035E-06 1.66025E-04-1.36094E-04-3.81394E-04-9.26503E-05-2.44338E-05
 -1     10251 3.58743E-05-5.72095E-05 1.62148E-05-3.30770E-05-1.50864E-06 3.88081E-06
 -1     10252 4.75470E-05-4.01652E-05-7.81752E-07 4.74389E-06 7.59553E-06 4.65942E-06
 -1     10253-5.91786E-05 6.43338E-05-2.05668E-05 7.02550E-05-6.14303E-06-7.63327E-07
 -1     10254-4.73553E-05 8.90656E-05 7.53782E-06-1.57469E-05-3.29350E-05-2.12715E-06
 -1     10255 1.95213E-01 3.70137E-01-7.62012E-02-6.88535E-01 2.93548E-02-7.22382E-02
 -1     10256 2.19758E-01 3.52035E-01-5.96652E-02-6.97602E-01 1.88340E-02-2.13940E-02
 -1     10257-9.01478E-05 7.50495E-05 3.12533E-05-1.05698E-04 2.91595E-06 1.72147E-06
 -1     10258 7.74526E-05 1.70108E-05 8.36230E-06 4.09544E-05-3.07063E-05-1.61753E-05
 -1     10259 1.14965E-04-6.62191E-05-1.41275E-06 3.96648E-05 9.94518E-06-8.71137E-06
 -1     10260 1.28742E-04-1.01734E-04 7.14626E-06 5.49965E-05 1.11861E-05 3.73326E-07
 -1     10261-1.76787E-04 1.62361E-04-7.06531E-05 1.07863E-04 7.07787E-06-1.52452E-05
 -1     10262-2.83556E-04 3.16242E-04-9.74725E-05-1.35629E-04-5.33184E-05-3.40584E-05
 -1     10263-1.07761E-04 5.72435E-05 4.45060E-05-1.47330E-04-1.75425E-05-7.59492E-06
 -1     10264-2.28583E-04 5.53944E-04-1.09872E-04 7.60063E-05 3.78645E-05-1.15658E-06
 -1     10265-1.40974E-04 1.22287E-04 1.27855E-05-1.12010E-04-1.11617E-05-1.73491E-06
 -1     10266-6.27670E-06 2.38608E-05-1.96935E-05-1.34011E-04-4.38239E-05-2.00421E-05
 -1     10267-2.81447E-04 3.18766E-04-9.84571E-05-1.40780E-04 4.99460E-05 3.30790E-05
 -1     10268 5.38011E-05-2.40559E-05 5.57305E-06-1.22623E-04-8.72852E-06 3.79778E-06
 -1     10269-1.70982E-05 5.59059E-05 6.34749E-06-5.09527E-05-4.04245E-06-2.79339E-06
 -1     10270 4.71602E-05-8.18107E-05 1.43973E-05 4.96407E-05-1.93490E-05 3.97792E-06
 -1     10271 1.05725E-04 5.98905E-06 5.01289E-06 7.04266E-05 6.59803E-05-9.75241E-05
 -1     10272 1.94979E-04-6.93340E-05 1.11096E-04 6.26213E-05 1.91208E-04 2.41218E-04
 -1     10273 1.95814E-04-7.61936E-05 1.15312E-04 7.59248E-05-1.89134E-04-2.49684E-04
 -1     10274-2.70434E-04 1.06627E-03-1.81715E-04-8.62908E-05 2.51250E-04 1.35040E-04
 -1     10275 1.82123E-05 1.22196E-05-1.44937E-05 8.00310E-05 9.14073E-06 4.52614E-06
 -1     10276 1.83370E-05 1.47413E-05-1.52822E-05 7.83665E-05-8.13651E-06-3.57506E-06
 -1     10277 6.37152E-05-4.57216E-05-6.27378E-06-2.31509E-05-1.96574E-06-6.07243E-08
 -1     10278-7.30324E-02 1.56992E-01-3.52465E-02 2.29316E-01-1.38204E-03-4.29281E-04
 -1     10279 2.20775E-05-4.50237E-07-1.53473E-05-4.99682E-08-2.57012E-06 1.24314E-05
 -1     10280-5.04592E-07 3.82114E-05-1.42641E-05-1.30983E-04 2.54188E-05-6.53821E-06
 -1     10281 3.05522E-05-2.68109E-05-3.61848E-06-4.78754E-05 1.55291E-05 3.36874E-06
 -1     10282-8.24050E-05 3.15817E-05-1.02109E-05 5.23877E-06-1.48373E-05 2.26195E-05
 -1     10283 5.61777E-05 1.60920E-05-2.78613E-05 8.26696E-05-8.81864E-06-1.20907E-05
 -1     10284 1.16954E-04 6.46587E-06 1.42205E-06 6.86945E-05-6.53921E-05 9.44671E-05
 -1     10285 1.03323E-04-1.10326E-04 3.41303E-06 2.66008E-05-2.42159E-05-1.70440E-05
 -1     10286-3.20280E-04 3.41323E-04 2.18638E-05-6.46870E-05 4.15301E-06-6.77942E-05
 -1     10287 7.97284E-05-8.83612E-06 7.74906E-06-3.21156E-05 2.78704E-05-1.80162E-05
 -1     10288 5.36433E-05-2.15533E-05-1.78337E-05-9.59968E-05 5.54508E-06-1.23201E-05
 -1     10289 1.48232E-04-5.62377E-05-4.49822E-05-8.62959E-05 2.13683E-05-1.36523E-05
 -1     10290 4.78021E-05-2.06992E-05-6.64421E-06-8.06997E-05 1.35362E-06-5.77483E-06
 -1     10291 3.92913E-05-5.51316E-05 7.36420E-06-6.09487E-05 1.55196E-05-1.03734E-06
 -1     10292 8.49781E-05-1.10269E-04-1.64557E-05 1.44458E-04-2.19579E-05-5.46582E-06
 -1     10293 1.33689E-04-9.18778E-05-5.95080E-06-7.96165E-06-4.00470E-06 7.26082E-06
 -1     10294-8.09993E-05 2.39187E-05-1.43348E-05-1.20926E-04 2.07350E-05 8.13829E-06
 -1     10295-7.26744E-05 8.93337E-05-5.45494E-05-1.55263E-04 8.97508E-06 1.04319E-05
 -1     10296-1.54100E-04 1.47016E-04 2.38441E-05 2.81787E-05-2.49655E-05-1.73743E-05
 -1     10297-3.00718E-05 4.50011E-05-3.55873E-05-7.37868E-05 5.93233E-06 1.01717E-06
 -1     10298-5.18176E-05 5.96081E-05 9.38752E-06-9.64414E-06-2.73982E-06 3.13379E-06
 -1     10299-1.36667E-05 2.26632E-05-2.00611E-05 1.04766E-04 1.98775E-05 1.26228E-05
 -1     10300 7.32245E-05-2.00649E-05-2.71810E-05 5.17976E-05-1.24031E-05 5.50278E-07
 -1     10301 4.53293E-05-3.71158E-05 1.20395E-06 1.57495E-05 2.19053E-05-2.80916E-05
 -1     10302 1.12401E-04-4.90532E-05-3.07425E-05-9.40283E-05-2.18699E-05 6.92232E-06
 -1     10303 8.73072E-05-3.42824E-05 7.69889E-06-3.90113E-05-1.10656E-05 2.02065E-05
 -1     10304-6.11068E-05 1.21616E-04 9.61854E-06-2.36745E-05 3.02881E-05-7.76544E-06
 -1     10305 5.20139E-06 6.92833E-05-4.39580E-05-9.93626E-05 2.00903E-06 1.02814E-05
 -1     10306-1.42008E-04 1.48574E-04-4.03950E-05-6.53820E-05-5.03533E-06-4.98091E-05
 -1     10307 4.24640E-05-3.26501E-06-5.05114E-06-1.39421E-06-3.91720E-06-1.70162E-05
 -1     10308 2.21217E-05 1.14435E-05-1.67735E-05-7.65946E-05-1.40965E-06 2.55453E-06
 -1     10309-9.09715E-05 5.35655E-05 3.18079E-05 3.51009E-04 6.99246E-05-3.15199E-05
 -1     10310 4.99964E-04-6.02971E-04 4.88861E-05 8.74125E-04-2.22884E-04 2.05111E-04
 -1     10311 5.00695E-04-6.03619E-04 4.63827E-05 8.66487E-04 2.24838E-04-2.00870E-04
 -1     10312-7.30251E-05 3.34420E-05 8.00691E-06-6.68537E-05 1.28652E-05-1.57451E-05
 -1     10313 9.56115E-05-4.39136E-05-2.40971E-05-7.37442E-05-1.10313E-05 1.69881E-05
 -1     10314 8.67061E-05-4.32157E-05-1.20848E-05 8.42519E-05-1.01224E-05 7.31180E-06
 -1     10315 1.34650E-05 5.53163E-05-3.22643E-05-8.17998E-05-1.10958E-05 7.96021E-06
 -1     10316-8.66032E-05 3.63216E-05-1.68155E-05-5.17506E-05 1.59731E-05-1.92034E-05
 -1     10317 1.26197E-04-7.24682E-05-7.98822E-06-3.07410E-05-6.04251E-06-1.86936E-05
 -1     10318 8.74701E-05-7.20809E-05-6.63473E-06-3.89565E-05-1.80071E-06 2.07339E-06
 -1     10319 4.81529E-05-1.05007E-05-1.95606E-05-9.80952E-05-7.89506E-07 3.06753E-06
 -1     10320-1.33059E-04 1.50027E-04-2.84344E-05-6.47370E-05-2.91322E-06 1.81895E-05
 -1     10321-2.97450E-04 2.76157E-04 3.22786E-05 7.69147E-05-1.86905E-05 4.84339E-05
 -1     10322 1.68590E-05-4.60490E-06 4.13539E-05-3.40882E-04 9.07971E-05 1.68907E-05
 -1     10323-7.17731E-02 1.50006E-01-3.41608E-02 2.29520E-01 1.26354E-03-2.51109E-04
 -1     10324-7.62116E-05 6.80518E-05 1.11526E-05 4.37257E-06-6.27050E-06-2.15037E-05
 -1     10325-2.54729E-05-1.52013E-05 9.95939E-06-3.84961E-05 7.83627E-06-9.32276E-06
 -1     10326-2.97160E-05 1.97115E-05-1.95308E-05 3.82334E-05-4.32637E-06-1.73852E-05
 -1     10327 1.20698E-04-9.19513E-05 2.58239E-06-3.42434E-05-4.30580E-06 8.83975E-06
 -1     10328-3.30795E-05 6.27988E-05 2.82012E-05-1.14129E-04-2.84185E-05 3.97122E-06
 -1     10329 1.42225E-05-1.37723E-05 3.89464E-05-3.28289E-04-9.49807E-05-1.73694E-05
 -1     10330 9.36189E-04-5.65583E-04-2.27805E-05 4.29101E-04-1.09626E-04 5.60856E-05
 -1     10331 9.41218E-04-5.64182E-04-2.75615E-05 4.19252E-04 1.09640E-04-5.12827E-05
 -1     10332 3.68848E-04-2.82447E-04 1.31033E-05-3.54421E-04 1.31523E-05 2.99321E-05
 -1     10333 3.66254E-04-2.82055E-04 1.36401E-05-3.53934E-04-1.26405E-05-3.19471E-05
 -1     10334-3.00217E-04 8.03436E-04-1.65319E-04 1.98137E-04 2.36031E-05 9.18380E-06
 -1     10335-1.51101E-04 1.98910E-04-1.11410E-05 3.97191E-05-9.78092E-06 3.36916E-05
 -1     10336-1.77704E-05-3.83483E-05-2.12246E-06 3.21667E-05-2.69868E-05 2.46895E-05
 -1     10337-3.02749E-04-3.07446E-04 2.11975E-04 5.00800E-04 6.85444E-05-7.12293E-06
 -1     10338 1.88384E-04-3.24275E-04 8.97994E-05-6.28176E-04-6.24250E-06 8.98409E-05
 -1     10339 1.90491E-04-3.24466E-04 8.90791E-05-6.30213E-04 6.35115E-06-9.11839E-05
 -1     10340-3.04618E-05 7.37168E-05 2.82957E-06-4.42589E-05 8.90358E-06-9.50330E-06
 -1     10341 8.35467E-05-6.00098E-05-8.84806E-06 8.26838E-05 8.36388E-06 1.58415E-06
 -1     10342-1.27072E-04 1.35171E-04 5.25760E-06-1.94305E-04 1.60826E-05 3.45770E-05
 -1     10343 7.30880E-05-5.31291E-05-9.71822E-06-1.07995E-05-3.99130E-06-1.92499E-06
 -1     10344 2.14301E-05-1.06863E-04 4.17462E-05-1.08285E-04-4.66593E-06-1.18269E-05
 -1     10345-1.84464E-05-5.09962E-06-1.38002E-05-3.81702E-05-3.59392E-06-1.59486E-05
 -1     10346 1.10449E-04-2.52833E-05-3.04459E-05-7.41060E-05 1.43789E-05-1.73241E-05
 -1     10347-6.83364E-04 5.99024E-04 1.25992E-05-5.36912E-05 1.58681E-04 1.65212E-04
 -1     10348-1.73091E-04 1.96365E-04-3.78115E-05-6.40580E-04 9.00046E-05-2.77462E-05
 -1     10349-6.86345E-04 5.96308E-04-5.97258E-06-9.92380E-05-1.52910E-04-2.21018E-04
 -1     10350-1.85717E-04 1.80125E-04-2.14220E-06-6.39092E-04-9.45883E-05-2.00814E-06
 -1     10351 7.82970E-04-7.51715E-04 9.15786E-05 4.37983E-04 2.15202E-04 3.16667E-04
 -1     10352 7.79536E-04-7.43632E-04 8.19358E-05 4.33950E-04-2.07011E-04-3.28720E-04
 -1     10353-1.02024E-04 1.46591E-04-3.34722E-05 1.79828E-05-2.66716E-05-2.76893E-07
 -1     10354 2.92096E-04-3.79495E-04 7.50847E-05-9.95614E-05-1.18659E-04 9.66278E-05
 -1     10355 3.00451E-04-3.80737E-04 7.17339E-05-1.01334E-04 1.15127E-04-9.56198E-05
 -1     10356 2.83304E-02-1.13801E-01 3.70809E-02 7.87709E-02 3.32094E-04-3.13467E-04
 -1     10357-1.17518E-04 1.00351E-04 1.37576E-06-1.07960E-04-2.82583E-05 1.95938E-05
 -1     10358 4.14740E-05-5.00690E-05 6.26885E-07-2.43678E-05-1.88969E-05-2.76503E-05
 -1     10359 2.70588E-02-1.12419E-01 3.66171E-02 7.85937E-02 4.73826E-05 2.99247E-04
 -1     10360 1.07262E-02-7.22870E-02 2.60187E-02 9.67284E-02 3.65928E-04 1.19464E-04
 -1     10361 1.09208E-04-2.99534E-04 2.49197E-05-2.07925E-04-5.35287E-05 1.51871E-05
 -1     10362 1.09289E-04-2.99045E-04 3.24867E-05-2.10570E-04 5.07098E-05-9.12443E-06
 -1     10363 1.65083E-04-4.72420E-04-9.15953E-06 3.71004E-04-1.50311E-04 7.61538E-06
 -1     10364 1.66829E-04-4.62564E-04-1.72633E-05 3.79490E-04 1.62983E-04 2.25609E-06
 -1     10365 4.26732E-04 2.40549E-04-2.22332E-04-6.21580E-04 8.96998E-05 1.28717E-06
 -1     10366 8.15455E-01-1.42848E-01-2.50744E-01-4.07468E-01 1.80377E-02 4.43690E-03
 -1     10367-1.24328E+00 1.77075E+00-3.26307E-01-9.99033E-02-2.04574E-02-7.45866E-02
 -1     10368-9.35173E-01 1.97826E+00-3.70239E-01 5.00914E-01 4.91728E-02 2.74478E-03
 -1     10369 4.13285E-01-9.70206E-01 2.38941E-01-4.68421E-03-3.92450E-03-4.07475E-03
 -1     10370 1.64521E+00-5.76829E+00 1.76347E+00 5.46592E-01 3.66692E-03-1.48315E-03
 -1     10371 6.71621E-01-2.36122E-01-1.72384E-01-2.53290E-01 3.15130E-02-1.29678E-03
 -1     10372 8.98133E-01-1.75149E+00 3.64127E-01-7.14829E-02-3.52168E-02 7.61763E-03
 -1     10373-9.69872E-03-2.48746E-02 1.52000E-02 1.03674E-01 2.88151E-04-2.48535E-04
 -1     10374 1.28551E-01-3.76806E-01 1.05740E-01-3.12517E-02 2.53115E-03 2.97481E-03
 -1     10375-1.24429E-01 7.61193E-01-2.81027E-01 5.55449E-01-2.13983E-03-1.90609E-03
 -1     10376-1.17801E-01-2.49250E+00 1.05945E+00 1.91523E+00 4.93012E-01-2.06056E-01
 -1     10377-1.16238E-01-2.49301E+00 1.05801E+00 1.91793E+00-4.92134E-01 2.03059E-01
 -1     10378-1.57528E-01 2.66614E-01-6.86567E-02-9.19171E-02-6.69611E-03-7.34409E-03
 -1     10379-6.95225E-01 1.55017E-01 2.15683E-01-5.16416E-01-8.76657E-03 1.40422E-03
 -1     10380-7.72262E-01 2.62424E-01 1.61241E-01-4.12109E-01-1.18168E-02 2.73251E-02
 -1     10381-2.69260E-04 1.30354E-03-2.28488E-04 5.41057E-04 4.45307E-04 9.90083E-05
 -1     10382-2.81372E-04 1.30716E-03-2.66538E-04 5.78689E-04-4.42735E-04-1.17622E-04
 -1     10383 9.35936E-05-8.20543E-05 2.37588E-05 8.35137E-05 1.81710E-05 1.43783E-05
 -1     10384-5.39374E-03-3.33288E-02 1.67705E-02 9.76826E-02 4.37514E-05 3.08018E-04
 -1     10385-1.30822E-01 3.62383E-01-1.06423E-01-8.08209E-01 1.84171E-03 1.57605E-03
 -1     10386-2.28799E-01 6.12773E-01-1.78005E-01-7.79098E-01 1.65233E-02-1.41390E-02
 -3
 9999
